*Heading
** Mode-II Phase-Field Adaptive Production Model: M2ADAPT_MM_FRACFIX_PROD
** Candidate: F43REM4_MM (2206 physical elements, 2294 nodes)
** 3-Layer Mixed UEL Architecture: U1/U2/U3/U4/CPE4/CPE3 (6618 layered elements)
** Formulation: l0=0.015 mm, Gc=0.0027 kN/mm, E=210.0 kN/mm^2, nu=0.3, k=1e-07, thickness=1.0 mm
** Loading: Two-Step Pure Shear to U1_final = 0.0100 mm
*Preprint, echo=NO, model=NO, history=NO, contact=NO
** ==========================================================
** PARTS & USER ELEMENT DECLARATIONS
** ==========================================================
*Part, name=PlatePart
*User Element, nodes=4, type=U1, properties=3, coordinates=2, VARIABLES=18
 3
*User Element, nodes=4, type=U2, properties=5, coordinates=2, VARIABLES=18
 1, 2
*User Element, nodes=3, type=U3, properties=3, coordinates=2, VARIABLES=18
 3
*User Element, nodes=3, type=U4, properties=5, coordinates=2, VARIABLES=18
 1, 2
*Node
       1,   0.0000000000e+00,   6.0000002400e-01
       2,   4.1410458100e-01,  -5.0000000000e-01
       3,   3.9360964300e-01,  -5.0000000000e-01
       4,   3.5094362500e-01,  -5.0000000000e-01
       5,   3.0554223100e-01,  -5.0000000000e-01
       6,   2.7960807100e-01,  -5.0000000000e-01
       7,   2.2838598500e-01,  -5.0000000000e-01
       8,   2.0219966800e-01,  -5.0000000000e-01
       9,   1.4859983300e-01,  -5.0000000000e-01
      10,   1.2267491200e-01,  -5.0000000000e-01
      11,   7.1615338300e-02,  -5.0000000000e-01
      12,   4.6379953600e-02,  -5.0000000000e-01
      13,  -4.7147274000e-03,  -5.0000000000e-01
      14,  -3.1118631400e-02,  -5.0000000000e-01
      15,  -8.5156440700e-02,  -5.0000000000e-01
      16,  -1.1220562500e-01,  -5.0000000000e-01
      17,  -1.6532224400e-01,  -5.0000000000e-01
      18,  -1.9148433200e-01,  -5.0000000000e-01
      19,  -2.1808230900e-01,  -5.0000000000e-01
      20,  -2.7456539900e-01,  -5.0000000000e-01
      21,  -3.0254578600e-01,  -5.0000000000e-01
      22,  -3.5467195500e-01,  -5.0000000000e-01
      23,  -3.7972927100e-01,  -5.0000000000e-01
      24,  -4.2215436700e-01,  -5.0000000000e-01
      25,  -4.6068799500e-01,  -5.0000000000e-01
      26,   5.0000000000e-01,  -5.0000000000e-01
      27,  -5.0000000000e-01,  -5.0000000000e-01
      28,   5.0000000000e-01,   4.6076056400e-01
      29,   5.0000000000e-01,   4.1395452600e-01
      30,   5.0000000000e-01,   3.8709509400e-01
      31,   5.0000000000e-01,   3.3586400700e-01
      32,   5.0000000000e-01,   3.1030798000e-01
      33,   5.0000000000e-01,   2.5760412200e-01
      34,   5.0000000000e-01,   2.2975426900e-01
      35,   5.0000000000e-01,   2.0137164000e-01
      36,   5.0000000000e-01,   1.4694717500e-01
      37,   5.0000000000e-01,   1.2078347800e-01
      38,   5.0000000000e-01,   6.8992316700e-02
      39,   5.0000000000e-01,   4.3910920600e-02
      40,   5.0000000000e-01,   5.2775740600e-03
      41,   5.0000000000e-01,  -2.8710186500e-02
      42,   5.0000000000e-01,  -7.7431798000e-02
      43,   5.0000000000e-01,  -1.0356617000e-01
      44,   5.0000000000e-01,  -1.5546178800e-01
      45,   5.0000000000e-01,  -1.8145221500e-01
      46,   5.0000000000e-01,  -2.3506009600e-01
      47,   5.0000000000e-01,  -2.6294404300e-01
      48,   5.0000000000e-01,  -3.1832987100e-01
      49,   5.0000000000e-01,  -3.4565180500e-01
      50,   5.0000000000e-01,  -3.9666944700e-01
      51,   5.0000000000e-01,  -4.2150998100e-01
      52,   5.0000000000e-01,  -4.6194946800e-01
      53,   5.0000000000e-01,   5.0000000000e-01
      54,  -4.6066710400e-01,   5.0000000000e-01
      55,  -4.1960322900e-01,   5.0000000000e-01
      56,  -3.7285959700e-01,   5.0000000000e-01
      57,  -3.4696257100e-01,   5.0000000000e-01
      58,  -2.9551041100e-01,   5.0000000000e-01
      59,  -2.6910647700e-01,   5.0000000000e-01
      60,  -2.4167519800e-01,   5.0000000000e-01
      61,  -1.8511465200e-01,   5.0000000000e-01
      62,  -1.5799003800e-01,   5.0000000000e-01
      63,  -1.0550645000e-01,   5.0000000000e-01
      64,  -7.9501420300e-02,   5.0000000000e-01
      65,  -2.7149021600e-02,   5.0000000000e-01
      66,  -7.3325634000e-04,   5.0000000000e-01
      67,   2.5770366200e-02,   5.0000000000e-01
      68,   7.8676044900e-02,   5.0000000000e-01
      69,   1.0493522900e-01,   5.0000000000e-01
      70,   1.5705657000e-01,   5.0000000000e-01
      71,   1.8317258400e-01,   5.0000000000e-01
      72,   2.3632472800e-01,   5.0000000000e-01
      73,   2.6169204700e-01,   5.0000000000e-01
      74,   3.0855149000e-01,   5.0000000000e-01
      75,   3.4523034100e-01,   5.0000000000e-01
      76,   3.7693280000e-01,   5.0000000000e-01
      77,   4.2391866400e-01,   5.0000000000e-01
      78,   4.6022790700e-01,   5.0000000000e-01
      79,  -5.0000000000e-01,   5.0000000000e-01
      80,  -5.0000000000e-01,   5.3061127700e-02
      81,  -5.0000000000e-01,   7.9432308700e-02
      82,  -5.0000000000e-01,   1.3202261900e-01
      83,  -5.0000000000e-01,   1.5845060300e-01
      84,  -5.0000000000e-01,   2.1191155900e-01
      85,  -5.0000000000e-01,   2.3960858600e-01
      86,  -5.0000000000e-01,   2.9630494100e-01
      87,  -5.0000000000e-01,   3.2358849000e-01
      88,  -5.0000000000e-01,   3.7565100200e-01
      89,  -5.0000000000e-01,   4.1988074800e-01
      90,  -5.0000000000e-01,   4.5448124400e-01
      91,  -5.0000000000e-01,   0.0000000000e+00
      92,  -4.4604417700e-01,   0.0000000000e+00
      93,  -4.1878736000e-01,   0.0000000000e+00
      94,  -3.6442807300e-01,   0.0000000000e+00
      95,  -3.3735600100e-01,   0.0000000000e+00
      96,  -2.8259235600e-01,   0.0000000000e+00
      97,  -2.5560021400e-01,   0.0000000000e+00
      98,  -2.0405289500e-01,   0.0000000000e+00
      99,  -1.5763206800e-01,   0.0000000000e+00
     100,  -1.2258118400e-01,   0.0000000000e+00
     101,  -7.7304631500e-02,   0.0000000000e+00
     102,  -4.1152872100e-02,   0.0000000000e+00
     103,   0.0000000000e+00,   0.0000000000e+00
     104,  -5.0000000000e-01,  -4.5226237200e-01
     105,  -5.0000000000e-01,  -4.1042420300e-01
     106,  -5.0000000000e-01,  -3.8690441800e-01
     107,  -5.0000000000e-01,  -3.3688193600e-01
     108,  -5.0000000000e-01,  -2.8402191400e-01
     109,  -5.0000000000e-01,  -2.5683412000e-01
     110,  -5.0000000000e-01,  -2.0427352200e-01
     111,  -5.0000000000e-01,  -1.5434953600e-01
     112,  -5.0000000000e-01,  -1.2994298300e-01
     113,  -5.0000000000e-01,  -8.0433517700e-02
     114,  -5.0000000000e-01,  -5.4076492800e-02
     115,  -4.6049988300e-01,  -4.5487985000e-01
     116,   4.6070346200e-01,  -4.6677145400e-01
     117,   4.2831721900e-01,  -4.6206322300e-01
     118,   3.9007055800e-01,  -4.5683759500e-01
     119,   3.4734097100e-01,  -4.5639109600e-01
     120,   3.0197474400e-01,  -4.5560675900e-01
     121,   2.2987903700e-01,  -4.5307797200e-01
     122,   2.0372200000e-01,  -4.4990328000e-01
     123,   1.4383471000e-01,  -4.4895961900e-01
     124,   6.8267345400e-02,  -4.5804756900e-01
     125,   1.9308330500e-02,  -4.5764389600e-01
     126,  -3.1093966200e-02,  -4.5376756800e-01
     127,  -5.7754967400e-02,  -4.5118081600e-01
     128,  -1.1190015100e-01,  -4.5107278200e-01
     129,  -1.3832368000e-01,  -4.5080289200e-01
     130,  -1.8972362600e-01,  -4.5067939200e-01
     131,  -2.3681852200e-01,  -4.5152303600e-01
     132,  -2.7384430200e-01,  -4.6712452200e-01
     133,  -3.1101250600e-01,  -4.5035219200e-01
     134,  -3.5729205600e-01,  -4.5870935900e-01
     135,  -4.0274027000e-01,  -4.6359470500e-01
     136,  -4.3824517700e-01,  -4.6898242800e-01
     137,   4.6052146000e-01,  -4.2386835800e-01
     138,   4.3044230300e-01,  -4.1934666000e-01
     139,   3.8575685000e-01,  -4.1014689200e-01
     140,   3.4522256300e-01,  -4.1261899500e-01
     141,   3.0256700500e-01,  -4.1004234600e-01
     142,   2.3029071100e-01,  -4.0926015400e-01
     143,   2.0352217600e-01,  -4.0232929600e-01
     144,   1.2588043500e-01,  -4.0338182400e-01
     145,   6.4022533600e-02,  -4.1811221800e-01
     146,   2.0647060100e-02,  -4.1567900800e-01
     147,  -5.6222293500e-02,  -4.2392140600e-01
     148,  -1.1205309600e-01,  -4.2662638400e-01
     149,  -1.3798917800e-01,  -4.2579245600e-01
     150,  -1.9130329800e-01,  -4.2244872500e-01
     151,  -2.1554726400e-01,  -4.3040552700e-01
     152,  -2.7197271600e-01,  -4.2711946400e-01
     153,  -3.0027002100e-01,  -4.2179843800e-01
     154,  -3.3900034400e-01,  -4.3392145600e-01
     155,  -3.6777764600e-01,  -4.0660199500e-01
     156,  -4.0704208600e-01,  -4.2263910200e-01
     157,  -4.5292753000e-01,  -4.1354078100e-01
     158,   4.6061193900e-01,  -3.7222680400e-01
     159,   3.7900012700e-01,  -3.6679229100e-01
     160,   3.4469166400e-01,  -3.9084664000e-01
     161,   3.0519488500e-01,  -3.8773191000e-01
     162,   2.6490467800e-01,  -3.7618774200e-01
     163,   2.1959888900e-01,  -3.9099413200e-01
     164,   1.7816138300e-01,  -3.6864104900e-01
     165,   1.3342525100e-01,  -3.7423384200e-01
     166,   1.0747907300e-01,  -3.6561214900e-01
     167,   4.4475913000e-02,  -3.8624358200e-01
     168,   1.7295213400e-02,  -3.6699503700e-01
     169,  -2.4602603200e-02,  -3.7114676800e-01
     170,  -5.3099665800e-02,  -3.9355915800e-01
     171,  -8.8097870300e-02,  -3.7955030800e-01
     172,  -1.2943594200e-01,  -3.5286966000e-01
     173,  -1.8266199500e-01,  -3.7288516800e-01
     174,  -2.1998238600e-01,  -3.8757973900e-01
     175,  -2.6473912600e-01,  -3.7985661600e-01
     176,  -3.0501154100e-01,  -3.8423812400e-01
     177,  -3.7943616500e-01,  -3.9043855700e-01
     178,  -4.1782566900e-01,  -3.7973323500e-01
     179,  -4.3945556900e-01,  -3.7076702700e-01
     180,   4.5334687800e-01,  -3.2251977900e-01
     181,   4.1406333400e-01,  -3.3945137300e-01
     182,   3.8123133800e-01,  -3.4034758800e-01
     183,   2.9530561000e-01,  -3.4208181500e-01
     184,   2.5410929300e-01,  -3.4593308000e-01
     185,   2.1122355800e-01,  -3.4415108000e-01
     186,   1.8148919900e-01,  -3.3625584800e-01
     187,   1.2299519800e-01,  -3.2859498300e-01
     188,   9.7533978500e-02,  -3.2693225100e-01
     189,   4.9740139400e-02,  -3.4062284200e-01
     190,   1.6415562500e-02,  -3.3816400200e-01
     191,  -2.9103916100e-02,  -3.3891454300e-01
     192,  -5.7992186400e-02,  -3.3032557400e-01
     193,  -1.0658806600e-01,  -3.3804056000e-01
     194,  -1.3537675100e-01,  -3.0267956900e-01
     195,  -1.7574411600e-01,  -3.2360658000e-01
     196,  -2.2328719500e-01,  -3.3124885000e-01
     197,  -2.5264975400e-01,  -3.3252021700e-01
     198,  -4.0968498600e-01,  -3.3698049200e-01
     199,  -4.4932135900e-01,  -3.1985998200e-01
     200,   4.4671127200e-01,  -2.9612055400e-01
     201,   4.2109420900e-01,  -3.0390349000e-01
     202,   3.8270247000e-01,  -2.9753676100e-01
     203,   3.4600469500e-01,  -3.0338865500e-01
     204,   2.9162529100e-01,  -3.0257466400e-01
     205,   2.4972534200e-01,  -2.8966063300e-01
     206,   2.2440290500e-01,  -2.8320497300e-01
     207,   1.8260282300e-01,  -2.9910033900e-01
     208,   1.3051149200e-01,  -2.8316482900e-01
     209,   8.8316232000e-02,  -3.0092725200e-01
     210,   5.9602823100e-02,  -3.0400469900e-01
     211,   1.8778175100e-02,  -3.0599448100e-01
     212,  -6.3373975500e-02,  -3.0445000500e-01
     213,  -1.0163849600e-01,  -2.9532131600e-01
     214,  -2.2832194000e-01,  -3.0056211400e-01
     215,  -2.7902472000e-01,  -3.0857875900e-01
     216,  -2.9918387500e-01,  -3.1822687400e-01
     217,  -3.3910346000e-01,  -3.0031782400e-01
     218,  -3.8956233900e-01,  -3.0536419200e-01
     219,  -4.0926721700e-01,  -3.0396315500e-01
     220,  -4.5426252500e-01,  -2.9810673000e-01
     221,   4.4044068500e-01,  -2.4219892900e-01
     222,   3.6928981500e-01,  -2.4965293700e-01
     223,   3.4054267400e-01,  -2.5414332700e-01
     224,   2.8814518500e-01,  -2.4180485300e-01
     225,   2.5022643800e-01,  -2.4410229900e-01
     226,   2.0345379400e-01,  -2.4544800800e-01
     227,   1.8159356700e-01,  -2.5482952600e-01
     228,   1.4505495100e-01,  -2.6537677600e-01
     229,   3.7736259400e-02,  -2.5693190100e-01
     230,   1.3429615600e-02,  -2.5995543600e-01
     231,  -2.4472365200e-02,  -2.7234602000e-01
     232,  -6.5042346700e-02,  -2.7849900700e-01
     233,  -9.6051000100e-02,  -2.5296682100e-01
     234,  -1.4170284600e-01,  -2.4786676500e-01
     235,  -1.6823674700e-01,  -2.5853401400e-01
     236,  -2.3324994700e-01,  -2.7192968100e-01
     237,  -2.6103651500e-01,  -2.7261334700e-01
     238,  -3.1005787800e-01,  -2.5790256300e-01
     239,  -3.5166895400e-01,  -2.5952467300e-01
     240,  -3.8334971700e-01,  -2.6135444600e-01
     241,  -4.1012248400e-01,  -2.6471811500e-01
     242,  -4.5876985800e-01,  -2.5120747100e-01
     243,   4.3816882400e-01,  -2.1707999700e-01
     244,   4.0545859900e-01,  -2.0677992700e-01
     245,   3.6683669700e-01,  -1.9916291500e-01
     246,   3.4778776800e-01,  -2.1594612300e-01
     247,   3.1020149600e-01,  -2.1177966900e-01
     248,   2.5882148700e-01,  -2.0860374000e-01
     249,   2.0107084500e-01,  -2.1156482400e-01
     250,   1.8114289600e-01,  -2.3098109700e-01
     251,   1.4001570600e-01,  -2.2489500000e-01
     252,   1.0459978900e-01,  -2.2402542800e-01
     253,   7.4727363900e-02,  -2.1902705700e-01
     254,   4.8884335000e-03,  -2.3732486400e-01
     255,  -2.8319079400e-02,  -2.2738258500e-01
     256,  -7.3354393200e-02,  -2.2143387800e-01
     257,  -1.0283309200e-01,  -2.2385111500e-01
     258,  -1.3209439800e-01,  -2.2913084900e-01
     259,  -1.8159799300e-01,  -2.2803799800e-01
     260,  -2.2743250400e-01,  -2.4446721400e-01
     261,  -2.8779888200e-01,  -2.0901727700e-01
     262,  -3.3831411600e-01,  -2.1830657100e-01
     263,  -3.9307856600e-01,  -2.1403344000e-01
     264,  -4.1614416200e-01,  -2.1963854100e-01
     265,  -4.6030196500e-01,  -2.2697936000e-01
     266,   4.2487987900e-01,  -1.5243707600e-01
     267,   3.9410045700e-01,  -1.6351017400e-01
     268,   3.4722802000e-01,  -1.6257304000e-01
     269,   3.2324051900e-01,  -1.8869420900e-01
     270,   2.8393364000e-01,  -1.6846689600e-01
     271,   2.2937069800e-01,  -1.5488924100e-01
     272,   2.0516729400e-01,  -1.7194908900e-01
     273,   1.8273402800e-01,  -1.8935053100e-01
     274,   1.4283585500e-01,  -1.8496239200e-01
     275,   1.0023076100e-01,  -1.6431808500e-01
     276,   6.8123117100e-02,  -1.8152135600e-01
     277,   9.1056842400e-03,  -1.8517248300e-01
     278,  -1.9069431300e-02,  -1.7363692800e-01
     279,  -5.0254337500e-02,  -1.9397853300e-01
     280,  -7.8831106400e-02,  -1.9219347800e-01
     281,  -1.2740765500e-01,  -1.7915934300e-01
     282,  -1.8240103100e-01,  -1.7042507200e-01
     283,  -2.2597578200e-01,  -1.7941886200e-01
     284,  -2.5449430900e-01,  -1.8469823900e-01
     285,  -2.9823011200e-01,  -1.6038385000e-01
     286,  -3.3075454800e-01,  -1.6446618700e-01
     287,  -3.8688448100e-01,  -1.7146410000e-01
     288,  -4.2373505200e-01,  -1.7053538600e-01
     289,   4.4960138200e-01,  -1.2655043600e-01
     290,   4.2050850400e-01,  -1.2788872400e-01
     291,   3.6173313900e-01,  -9.3703456200e-02
     292,   3.2098716500e-01,  -1.1027445600e-01
     293,   2.7366524900e-01,  -1.1428250400e-01
     294,   2.2748541800e-01,  -1.1212634300e-01
     295,   2.0637172500e-01,  -1.2998037000e-01
     296,   1.8459036900e-01,  -1.4829835300e-01
     297,   1.3950181000e-01,  -1.4326748300e-01
     298,   1.1101685500e-01,  -1.3655091800e-01
     299,   6.4251028000e-02,  -1.4418588600e-01
     300,   2.2371485800e-02,  -1.4636708800e-01
     301,  -1.7396040300e-02,  -1.4538852900e-01
     302,  -9.6207596400e-02,  -1.4413289700e-01
     303,  -1.3021020600e-01,  -1.4520058000e-01
     304,  -1.8347862400e-01,  -1.3409660800e-01
     305,  -2.2368866200e-01,  -1.2738201000e-01
     306,  -2.6241800200e-01,  -1.2946488000e-01
     307,  -2.9759281900e-01,  -1.2504884600e-01
     308,  -3.3396619600e-01,  -1.2619096000e-01
     309,  -3.7653937900e-01,  -1.3127833600e-01
     310,  -4.1118851300e-01,  -1.2967570100e-01
     311,  -4.6529412300e-01,  -1.5686146900e-01
     312,   4.4844970100e-01,  -1.0231010600e-01
     313,   3.9518198400e-01,  -7.3355361800e-02
     314,   3.6990436900e-01,  -6.6644556800e-02
     315,   3.3407732800e-01,  -8.1990025900e-02
     316,   2.9097786500e-01,  -8.9406780900e-02
     317,   2.4556602500e-01,  -9.1374769800e-02
     318,   2.0490728300e-01,  -9.0845622100e-02
     319,   1.8269206600e-01,  -1.0434789200e-01
     320,   1.6374844300e-01,  -1.2623991100e-01
     321,   1.1939072600e-01,  -1.0754410200e-01
     322,   6.6717527800e-02,  -1.0805700000e-01
     323,   2.3950630800e-02,  -1.0865896200e-01
     324,  -1.4237493300e-02,  -1.1794589500e-01
     325,  -7.7251821800e-02,  -9.4225160800e-02
     326,  -9.4928681900e-02,  -1.0948114800e-01
     327,  -1.3069990300e-01,  -1.0751047700e-01
     328,  -1.8077521000e-01,  -1.0227759900e-01
     329,  -2.2928190200e-01,  -9.5948986700e-02
     330,  -2.6264128100e-01,  -9.6056670000e-02
     331,  -2.9980489600e-01,  -8.2055628300e-02
     332,  -3.4420612500e-01,  -1.0765979400e-01
     333,  -3.6831867700e-01,  -1.0102108900e-01
     334,  -4.0387630500e-01,  -1.1177863900e-01
     335,  -4.6216762100e-01,  -1.1041871500e-01
     336,   4.4922894200e-01,  -5.2941661300e-02
     337,   3.9818999200e-01,  -4.7611955600e-02
     338,   3.6842578600e-01,  -3.0246989800e-02
     339,   3.4578520100e-01,  -5.0447784400e-02
     340,   3.0811861200e-01,  -6.7118994900e-02
     341,   2.6216596400e-01,  -6.3749171800e-02
     342,   2.1890580700e-01,  -7.1226783100e-02
     343,   1.9109270000e-01,  -5.9953715700e-02
     344,   1.6081243800e-01,  -7.1237646000e-02
     345,   1.1059228300e-01,  -6.6448099900e-02
     346,   7.7043198000e-02,  -5.6988880000e-02
     347,   2.6293272200e-02,  -6.7812666300e-02
     348,  -1.5357583800e-02,  -6.4203500700e-02
     349,  -5.6179452700e-02,  -6.2142591900e-02
     350,  -1.0655543200e-01,  -6.6948339300e-02
     351,  -1.4016944200e-01,  -6.9051779800e-02
     352,  -1.8856795100e-01,  -6.4585156700e-02
     353,  -2.5413569800e-01,  -4.5188911300e-02
     354,  -3.0334076300e-01,  -5.0240397500e-02
     355,  -3.6621916300e-01,  -7.5464099600e-02
     356,  -4.2967620500e-01,  -6.7201688900e-02
     357,  -4.5791989600e-01,  -8.5849247900e-02
     358,   4.5315691800e-01,  -1.0613846600e-02
     359,   4.1055759800e-01,   2.3303777000e-03
     360,   3.7685260200e-01,   1.0247033100e-02
     361,   3.5491356300e-01,  -5.4779443900e-03
     362,   3.1168782700e-01,  -3.1253621000e-02
     363,   2.8666564800e-01,  -4.2657103400e-02
     364,   2.4899485700e-01,  -3.1367093300e-02
     365,   1.7416092800e-01,  -2.4146005500e-02
     366,   1.5124799300e-01,  -2.4291150300e-02
     367,   1.2481372800e-01,  -1.6490483700e-02
     368,   8.1456646300e-02,  -2.3188270600e-02
     369,   3.1002124800e-02,  -2.3946326200e-02
     370,  -1.8998617300e-02,  -3.1924866100e-02
     371,  -6.0550812600e-02,  -2.9510598600e-02
     372,  -1.0812276600e-01,  -3.1125614400e-02
     373,  -1.4437019800e-01,  -2.4004789100e-02
     374,  -1.8367718200e-01,  -2.1080015200e-02
     375,  -2.3047886800e-01,  -2.1329622700e-02
     376,  -2.8134104600e-01,  -2.3130105800e-02
     377,  -3.0710384200e-01,  -2.3981349500e-02
     378,  -3.3299484800e-01,  -2.4520089800e-02
     379,  -3.8615739300e-01,  -2.9451232400e-02
     380,  -4.4664782300e-01,  -3.1348034700e-02
     381,  -4.7371664600e-01,  -2.8259487800e-02
     382,   4.5699209000e-01,   2.6758568400e-02
     383,   4.1430079900e-01,   4.2914819000e-02
     384,   3.5989609400e-01,   4.3387632800e-02
     385,   3.3829629400e-01,   1.8590699900e-02
     386,   3.2075488600e-01,   5.5026775200e-04
     387,   3.0355769400e-01,  -1.1950128700e-02
     388,   2.3377192000e-01,  -2.7811821200e-04
     389,   1.8009486800e-01,   7.5916526800e-03
     390,   1.6075210300e-01,   4.3694428200e-03
     391,   1.2121719900e-01,   2.1532077300e-02
     392,   8.6589060700e-02,   3.8734547800e-02
     393,   1.9418299200e-02,   2.8682060500e-02
     394,  -1.6709871600e-02,   2.4740967900e-02
     395,  -5.8121707300e-02,   3.0665151800e-02
     396,  -9.5689803400e-02,   1.6695551600e-02
     397,  -1.4329773200e-01,   1.7676999800e-02
     398,  -1.8275298200e-01,   1.8660482000e-02
     399,  -2.2959943100e-01,   2.2207398000e-02
     400,  -2.8100043500e-01,   2.7934260700e-02
     401,  -3.0741098500e-01,   2.9932964600e-02
     402,  -3.3480763400e-01,   2.8383478500e-02
     403,  -3.8991648000e-01,   2.7608953400e-02
     404,  -4.1955867400e-01,   3.1430430700e-02
     405,  -4.4868230800e-01,   2.5643046900e-02
     406,   4.5162755300e-01,   6.7397043100e-02
     407,   3.9547196000e-01,   7.5209647400e-02
     408,   3.6638382100e-01,   8.0830574000e-02
     409,   3.2887396200e-01,   5.8911770600e-02
     410,   3.1663799300e-01,   3.5172592800e-02
     411,   2.6832687900e-01,   5.2518710500e-02
     412,   2.2031649900e-01,   6.4183190500e-02
     413,   1.9197791800e-01,   4.5954205100e-02
     414,   1.4699155100e-01,   5.5608723300e-02
     415,   1.2213141500e-01,   5.8854114300e-02
     416,   6.6071778500e-02,   7.7627666300e-02
     417,   2.4667965200e-02,   6.6986717300e-02
     418,  -2.6122139800e-02,   6.8364664900e-02
     419,  -5.8093525500e-02,   6.5301038300e-02
     420,  -1.0114705600e-01,   5.3463537200e-02
     421,  -1.4878641100e-01,   5.4128162600e-02
     422,  -1.8373656300e-01,   5.5566657300e-02
     423,  -2.2182795400e-01,   6.7477174100e-02
     424,  -2.6581919200e-01,   8.4314130200e-02
     425,  -3.0488675800e-01,   6.5244525700e-02
     426,  -3.3494460600e-01,   5.5515889100e-02
     427,  -3.8586801300e-01,   5.2830036700e-02
     428,  -4.0838405500e-01,   5.7905893800e-02
     429,  -4.5249909200e-01,   4.8897020500e-02
     430,   4.0484768200e-01,   1.0176718200e-01
     431,   3.7459421200e-01,   1.1205401300e-01
     432,   3.3680269100e-01,   8.8816538500e-02
     433,   3.0780673000e-01,   9.2902660400e-02
     434,   1.9988657500e-01,   9.4638139000e-02
     435,   1.5346972600e-01,   9.5863677600e-02
     436,   1.1754839100e-01,   1.0677765300e-01
     437,   6.7738279700e-02,   1.0272035700e-01
     438,   2.5783080600e-02,   9.4305917600e-02
     439,  -9.2442985600e-03,   1.0716646900e-01
     440,  -6.8533912300e-02,   1.1254146700e-01
     441,  -1.0447663100e-01,   9.3618154500e-02
     442,  -1.4496362200e-01,   1.1472217700e-01
     443,  -1.7530898700e-01,   1.0295485000e-01
     444,  -2.0767284900e-01,   1.1075691900e-01
     445,  -2.5331568700e-01,   1.0926051400e-01
     446,  -3.0644518100e-01,   1.1054870500e-01
     447,  -3.4586817000e-01,   9.1137275100e-02
     448,  -3.9753586100e-01,   1.0004455600e-01
     449,  -4.4671443100e-01,   9.4781711700e-02
     450,   4.4432458300e-01,   1.4569485200e-01
     451,   4.0861338400e-01,   1.6583581300e-01
     452,   3.8798710700e-01,   1.3952161400e-01
     453,   3.4060376900e-01,   1.2496138400e-01
     454,   2.6514193400e-01,   1.2830390000e-01
     455,   2.1723783000e-01,   1.4945514500e-01
     456,   1.8410688600e-01,   1.4592419600e-01
     457,   1.4847964000e-01,   1.3049764900e-01
     458,   1.1625231100e-01,   1.3277095600e-01
     459,   6.4022325000e-02,   1.2796209800e-01
     460,   3.0087869600e-02,   1.3520564100e-01
     461,  -2.3112646300e-03,   1.5030175400e-01
     462,  -6.2210779600e-02,   1.4324615900e-01
     463,  -8.9721649900e-02,   1.4908178200e-01
     464,  -1.4929071100e-01,   1.3585583900e-01
     465,  -1.7977072300e-01,   1.3622444900e-01
     466,  -2.0748488600e-01,   1.3017092600e-01
     467,  -2.5712910300e-01,   1.4764638200e-01
     468,  -2.9369086000e-01,   1.3611194500e-01
     469,  -3.4842512000e-01,   1.3139912500e-01
     470,  -3.8885968900e-01,   1.3826932000e-01
     471,  -4.2556339500e-01,   1.3125154400e-01
     472,  -4.6431887100e-01,   1.3171616200e-01
     473,   4.4082376400e-01,   1.9161216900e-01
     474,   3.7874162200e-01,   1.8207053800e-01
     475,   3.3485370900e-01,   1.7407693000e-01
     476,   3.0891349900e-01,   1.9094157200e-01
     477,   2.6877203600e-01,   1.8322849300e-01
     478,   2.2596526100e-01,   1.7715607600e-01
     479,   1.9385637300e-01,   1.7650689200e-01
     480,   1.6330911200e-01,   1.7834726000e-01
     481,   1.0264793800e-01,   1.8250232900e-01
     482,   6.8911850500e-02,   1.7398060900e-01
     483,   2.6076110100e-02,   1.7889906500e-01
     484,  -2.1461324800e-02,   1.8329656100e-01
     485,  -8.0246418700e-02,   1.9029270100e-01
     486,  -1.0450345300e-01,   1.7205616800e-01
     487,  -1.4696785800e-01,   1.7839607600e-01
     488,  -1.6727647200e-01,   1.5856801000e-01
     489,  -2.1632435900e-01,   1.8721470200e-01
     490,  -2.5478279600e-01,   1.8816523300e-01
     491,  -3.0571600800e-01,   1.8858689100e-01
     492,  -3.6432996400e-01,   1.7550014000e-01
     493,  -3.9626008300e-01,   1.8057802300e-01
     494,  -4.1923505100e-01,   1.7353352900e-01
     495,  -4.4383725500e-01,   1.6738867800e-01
     496,   4.6129891300e-01,   2.2798812400e-01
     497,   4.1432374700e-01,   2.2324433900e-01
     498,   3.7084031100e-01,   2.2983163600e-01
     499,   3.3626225600e-01,   2.4179431800e-01
     500,   2.9580339800e-01,   2.2776258000e-01
     501,   2.6900002400e-01,   2.3758277300e-01
     502,   2.1559004500e-01,   2.3361328200e-01
     503,   1.8214751800e-01,   2.3632225400e-01
     504,   1.3804747200e-01,   2.1520358300e-01
     505,   1.1046297800e-01,   2.1286454800e-01
     506,   7.0866152600e-02,   2.1663671700e-01
     507,   2.6147151400e-02,   2.1117614200e-01
     508,  -3.0570598300e-02,   2.2982865600e-01
     509,  -6.9488026200e-02,   2.3288129300e-01
     510,  -1.0559794300e-01,   1.9746226100e-01
     511,  -1.2716516900e-01,   2.1472992000e-01
     512,  -1.7988964900e-01,   2.2712479500e-01
     513,  -2.1555136100e-01,   2.2706653200e-01
     514,  -2.5093764100e-01,   2.2828675800e-01
     515,  -2.8693527000e-01,   2.3284407000e-01
     516,  -3.6351326100e-01,   2.0297473700e-01
     517,  -3.8727465300e-01,   2.0543028400e-01
     518,  -4.4513267300e-01,   2.1763539300e-01
     519,  -4.7393307100e-01,   2.1395875500e-01
     520,   4.4260171100e-01,   2.6473319500e-01
     521,   3.9971172800e-01,   2.8112506900e-01
     522,   3.7762573400e-01,   2.6582399000e-01
     523,   3.4387794100e-01,   2.6862913400e-01
     524,   3.0502632300e-01,   2.5218701400e-01
     525,   2.5125783700e-01,   2.6512026800e-01
     526,   2.1894162900e-01,   2.6625049100e-01
     527,   1.7463249000e-01,   2.6620078100e-01
     528,   1.4519351700e-01,   2.6422208500e-01
     529,   1.1596114200e-01,   2.5976812800e-01
     530,   7.0803873200e-02,   2.6158735200e-01
     531,   2.6897177100e-02,   2.5581252600e-01
     532,  -1.4022536600e-02,   2.5969332500e-01
     533,  -7.9624407000e-02,   2.5510209800e-01
     534,  -1.1771217000e-01,   2.5926625700e-01
     535,  -1.4800757200e-01,   2.6362910900e-01
     536,  -1.8149744000e-01,   2.6591157900e-01
     537,  -2.1642689400e-01,   2.6708096300e-01
     538,  -2.5082537500e-01,   2.6644602400e-01
     539,  -3.0684140300e-01,   2.5563219200e-01
     540,  -3.4816664500e-01,   2.6171341500e-01
     541,  -3.9527803700e-01,   2.5620165500e-01
     542,  -4.1534638400e-01,   2.5667259100e-01
     543,  -4.5295104400e-01,   2.4155385800e-01
     544,   4.5512533200e-01,   3.0955272900e-01
     545,   4.2051804100e-01,   3.2052588500e-01
     546,   3.7349718800e-01,   2.9458734400e-01
     547,   3.2666185500e-01,   2.9541799400e-01
     548,   3.0037102100e-01,   3.0848863700e-01
     549,   2.5549110800e-01,   3.0679699800e-01
     550,   2.1807034300e-01,   3.0817794800e-01
     551,   1.8977025200e-01,   2.9117056700e-01
     552,   1.4131014000e-01,   2.9659906000e-01
     553,   1.1004065700e-01,   2.9199847600e-01
     554,   7.1531824800e-02,   3.1138464800e-01
     555,   2.6202598600e-02,   3.0678594100e-01
     556,   4.2617498500e-04,   2.9443773600e-01
     557,  -8.1571906800e-02,   3.0719697500e-01
     558,  -1.1021819000e-01,   2.9296758800e-01
     559,  -1.4746084800e-01,   2.9864484100e-01
     560,  -1.8274921200e-01,   3.0493697500e-01
     561,  -2.1961483400e-01,   3.0850461100e-01
     562,  -2.5634211300e-01,   3.0480390800e-01
     563,  -3.1694531400e-01,   3.1065714400e-01
     564,  -3.4555158000e-01,   3.1038907200e-01
     565,  -3.9128950200e-01,   3.0074116600e-01
     566,  -4.1998022800e-01,   2.9715901600e-01
     567,  -4.4935923800e-01,   2.8749230500e-01
     568,   4.5478424400e-01,   3.5246405000e-01
     569,   4.1234347200e-01,   3.3555132200e-01
     570,   3.8794460900e-01,   3.3880698700e-01
     571,   3.4372946600e-01,   3.3564209900e-01
     572,   2.6726469400e-01,   3.5180395800e-01
     573,   2.2339759800e-01,   3.5544475900e-01
     574,   1.9720861300e-01,   3.2831203900e-01
     575,   1.4746402200e-01,   3.2974720000e-01
     576,   1.0014916200e-01,   3.2372921700e-01
     577,   4.9501914500e-02,   3.7066072200e-01
     578,   2.2149533000e-02,   3.5668295600e-01
     579,  -4.5293388000e-03,   3.4296199700e-01
     580,  -9.0410575300e-02,   3.3584177500e-01
     581,  -1.1688338200e-01,   3.2726270000e-01
     582,  -1.4714315500e-01,   3.3403888300e-01
     583,  -1.8222710500e-01,   3.4517759100e-01
     584,  -2.2697255000e-01,   3.5696768800e-01
     585,  -2.6706111400e-01,   3.4350848200e-01
     586,  -3.0056989200e-01,   3.3354270500e-01
     587,  -3.8673743600e-01,   3.4293848300e-01
     588,  -4.4321253900e-01,   3.4041383900e-01
     589,  -4.6681577000e-01,   3.2355964200e-01
     590,   4.0607878600e-01,   3.7045490700e-01
     591,   3.6877572500e-01,   3.7308260800e-01
     592,   3.5329231600e-01,   3.8285863400e-01
     593,   3.1604424100e-01,   4.0200519600e-01
     594,   2.6715710800e-01,   3.8472876000e-01
     595,   2.0888273400e-01,   3.8631635900e-01
     596,   1.8179976900e-01,   3.7861180300e-01
     597,   1.5706874400e-01,   3.6632314300e-01
     598,   9.9213376600e-02,   3.7784126400e-01
     599,   5.6989416500e-02,   3.9314293900e-01
     600,   3.6940403300e-02,   3.9936384600e-01
     601,  -1.1650530600e-02,   3.9658919000e-01
     602,  -5.8594003300e-02,   3.7986090800e-01
     603,  -9.9103927600e-02,   3.7893194000e-01
     604,  -1.3962708400e-01,   3.6714622400e-01
     605,  -1.7049488400e-01,   3.8224640500e-01
     606,  -2.3226113600e-01,   3.8778850400e-01
     607,  -2.5848102600e-01,   3.6805889000e-01
     608,  -3.1228104200e-01,   3.6711010300e-01
     609,  -3.5433039100e-01,   3.8518661300e-01
     610,  -4.1467177900e-01,   3.6859983200e-01
     611,  -4.5285299400e-01,   3.5980150100e-01
     612,   4.4809728900e-01,   4.2320478000e-01
     613,   3.7997904400e-01,   4.2224207500e-01
     614,   3.5607776000e-01,   4.2628720400e-01
     615,   3.2528713300e-01,   4.3409276000e-01
     616,   2.6779961600e-01,   4.3481823800e-01
     617,   2.2340399000e-01,   4.2154866500e-01
     618,   1.4579060700e-01,   4.3348646200e-01
     619,   9.1600708700e-02,   4.3825307500e-01
     620,   6.3644625200e-02,   4.1685766000e-01
     621,   4.2888242800e-02,   4.2234957200e-01
     622,  -1.3686229500e-02,   4.1935220400e-01
     623,  -5.6352652600e-02,   4.2504158600e-01
     624,  -1.0454104100e-01,   4.2460659100e-01
     625,  -1.5373829000e-01,   4.1625720300e-01
     626,  -1.7681640400e-01,   4.0725836200e-01
     627,  -2.2222650100e-01,   4.1490316400e-01
     628,  -2.5471752900e-01,   3.9386656900e-01
     629,  -3.0043828500e-01,   4.1470566400e-01
     630,  -3.4863793800e-01,   4.0673628400e-01
     631,  -3.8745698300e-01,   4.1550040200e-01
     632,  -4.2509087900e-01,   4.1265320800e-01
     633,  -4.6737638100e-01,   4.2480891900e-01
     634,   4.5647591400e-01,   4.6680614400e-01
     635,   4.2093363400e-01,   4.4729694700e-01
     636,   3.9262127900e-01,   4.6772685600e-01
     637,   3.4213477400e-01,   4.6381518200e-01
     638,   3.0545374800e-01,   4.6228775400e-01
     639,   2.6343292000e-01,   4.5651799400e-01
     640,   2.4055154600e-01,   4.5236235900e-01
     641,   1.9420325800e-01,   4.4278615700e-01
     642,   1.5857528200e-01,   4.6214512000e-01
     643,   1.2467306900e-01,   4.4499111200e-01
     644,   7.8499831300e-02,   4.6667289700e-01
     645,   4.6874258700e-02,   4.4623720600e-01
     646,  -2.0006694800e-03,   4.7287175100e-01
     647,  -2.9783953000e-02,   4.4792309400e-01
     648,  -1.0587582000e-01,   4.4932878000e-01
     649,  -1.3218401400e-01,   4.7436744000e-01
     650,  -1.8200789400e-01,   4.5938557400e-01
     651,  -2.1995905000e-01,   4.4520881800e-01
     652,  -2.6141426000e-01,   4.6166816400e-01
     653,  -2.9572093500e-01,   4.4097757300e-01
     654,  -3.4395107600e-01,   4.5217573600e-01
     655,  -3.8999274400e-01,   4.5712387600e-01
     656,  -4.2944598200e-01,   4.5836016500e-01
     657,  -4.6549919200e-01,   4.4867458900e-01
     658,   4.9254465100e-01,  -5.0000000000e-01
     659,   4.8508930200e-01,  -5.0000000000e-01
     660,   4.7739288200e-01,  -5.0000000000e-01
     661,   4.6903187000e-01,  -5.0000000000e-01
     662,   4.4755226400e-01,  -5.0000000000e-01
     663,   4.3243956600e-01,  -5.0000000000e-01
     664,   3.7219637600e-01,  -5.0000000000e-01
     665,   3.2946074000e-01,  -5.0000000000e-01
     666,   2.5382953900e-01,  -5.0000000000e-01
     667,   1.7517334200e-01,  -5.0000000000e-01
     668,   9.7017526600e-02,  -5.0000000000e-01
     669,   2.1046221300e-02,  -5.0000000000e-01
     670,  -5.8041870600e-02,  -5.0000000000e-01
     671,  -1.3896948100e-01,  -5.0000000000e-01
     672,  -2.4587619300e-01,  -5.0000000000e-01
     673,  -3.2905817000e-01,  -5.0000000000e-01
     674,  -4.0281182500e-01,  -5.0000000000e-01
     675,  -4.3775951900e-01,  -5.0000000000e-01
     676,  -4.5038104100e-01,  -5.0000000000e-01
     677,  -4.6947395800e-01,  -5.0000000000e-01
     678,  -4.7748452400e-01,  -5.0000000000e-01
     679,  -4.8508930200e-01,  -5.0000000000e-01
     680,  -4.9254465100e-01,  -5.0000000000e-01
     681,   5.0000000000e-01,   4.9229061600e-01
     682,   5.0000000000e-01,   4.8401311000e-01
     683,   5.0000000000e-01,   4.7420868300e-01
     684,   5.0000000000e-01,   4.4029232900e-01
     685,   5.0000000000e-01,   3.6130505800e-01
     686,   5.0000000000e-01,   2.8434515000e-01
     687,   5.0000000000e-01,   1.7366743100e-01
     688,   5.0000000000e-01,   9.4867199700e-02
     689,   5.0000000000e-01,   2.2400856000e-02
     690,   5.0000000000e-01,  -1.0500431100e-02
     691,   5.0000000000e-01,  -5.1607310800e-02
     692,   5.0000000000e-01,  -1.2955975500e-01
     693,   5.0000000000e-01,  -2.0785921800e-01
     694,   5.0000000000e-01,  -2.9074215900e-01
     695,   5.0000000000e-01,  -3.7176710400e-01
     696,   5.0000000000e-01,  -4.4454443500e-01
     697,   5.0000000000e-01,  -4.7420656700e-01
     698,   5.0000000000e-01,  -4.8388505000e-01
     699,   5.0000000000e-01,  -4.9225980000e-01
     700,  -4.9253559100e-01,   5.0000000000e-01
     701,  -4.8507115200e-01,   5.0000000000e-01
     702,  -4.7746321600e-01,   5.0000000000e-01
     703,  -4.6946731200e-01,   5.0000000000e-01
     704,  -4.5015159200e-01,   5.0000000000e-01
     705,  -4.3678370100e-01,   5.0000000000e-01
     706,  -3.9794224500e-01,   5.0000000000e-01
     707,  -3.2132607700e-01,   5.0000000000e-01
     708,  -2.1328219800e-01,   5.0000000000e-01
     709,  -1.3158667100e-01,   5.0000000000e-01
     710,  -5.3405433900e-02,   5.0000000000e-01
     711,   5.2268564700e-02,   5.0000000000e-01
     712,   1.3104301700e-01,   5.0000000000e-01
     713,   2.0972478400e-01,   5.0000000000e-01
     714,   2.8580671500e-01,   5.0000000000e-01
     715,   3.2832372200e-01,   5.0000000000e-01
     716,   3.6104321500e-01,   5.0000000000e-01
     717,   3.9308774500e-01,   5.0000000000e-01
     718,   4.0894699100e-01,   5.0000000000e-01
     719,   4.3763613700e-01,   5.0000000000e-01
     720,   4.4978553100e-01,   5.0000000000e-01
     721,   4.6925514900e-01,   5.0000000000e-01
     722,   4.7741890000e-01,   5.0000000000e-01
     723,   4.8507118200e-01,   5.0000000000e-01
     724,   4.9253559100e-01,   5.0000000000e-01
     725,  -5.0000000000e-01,   2.6564955700e-02
     726,  -5.0000000000e-01,   1.0570889700e-01
     727,  -5.0000000000e-01,   1.8501281700e-01
     728,  -5.0000000000e-01,   2.6809620900e-01
     729,  -5.0000000000e-01,   3.5010516600e-01
     730,  -5.0000000000e-01,   3.9898204800e-01
     731,  -5.0000000000e-01,   4.3886452900e-01
     732,  -5.0000000000e-01,   4.6596700000e-01
     733,  -5.0000000000e-01,   4.7530698800e-01
     734,  -5.0000000000e-01,   4.8408222200e-01
     735,  -5.0000000000e-01,   4.9230694800e-01
     736,  -4.7310942400e-01,   0.0000000000e+00
     737,  -3.9152494100e-01,   0.0000000000e+00
     738,  -3.1003484100e-01,   0.0000000000e+00
     739,  -2.2946308600e-01,   0.0000000000e+00
     740,  -1.7946195600e-01,   0.0000000000e+00
     741,  -1.3940899100e-01,   0.0000000000e+00
     742,  -1.0679321700e-01,   0.0000000000e+00
     743,  -9.1964468400e-02,   0.0000000000e+00
     744,  -6.3666194700e-02,   0.0000000000e+00
     745,  -5.1733493800e-02,   0.0000000000e+00
     746,  -3.1469807000e-02,   0.0000000000e+00
     747,  -2.2814281300e-02,   0.0000000000e+00
     748,  -1.5007443700e-02,   0.0000000000e+00
     749,  -7.5037181400e-03,   0.0000000000e+00
     750,  -5.0000000000e-01,  -4.9239864900e-01
     751,  -5.0000000000e-01,  -4.8428231500e-01
     752,  -5.0000000000e-01,  -4.7544342300e-01
     753,  -5.0000000000e-01,  -4.6556493600e-01
     754,  -5.0000000000e-01,  -4.3290439200e-01
     755,  -5.0000000000e-01,  -3.6205446700e-01
     756,  -5.0000000000e-01,  -3.1097936600e-01
     757,  -5.0000000000e-01,  -2.3020583400e-01
     758,  -5.0000000000e-01,  -1.7903721300e-01
     759,  -5.0000000000e-01,  -1.0550448300e-01
     760,  -5.0000000000e-01,  -2.6936948300e-02
     761,  -4.9226304900e-01,  -4.9216288300e-01
     762,   4.9166366500e-01,  -4.9127739700e-01
     763,   4.9170747400e-01,   4.9187699000e-01
     764,  -4.8381266000e-01,   4.9271616300e-01
     765,  -5.4162638300e-03,  -9.5130046800e-03
     766,   9.3332643200e-04,   1.1344920800e-02
     767,  -1.3883668900e-02,  -1.0370148300e-02
     768,  -7.8350538400e-03,   1.2041484000e-02
     769,  -4.8478901400e-01,  -4.9205839600e-01
     770,  -4.7654980400e-01,   4.9492284700e-01
     771,   4.8470649100e-01,   4.9249035100e-01
     772,   4.8415908200e-01,  -4.9112561300e-01
     773,  -2.2452738100e-02,  -1.1030401100e-02
     774,  -1.6279246700e-02,   1.2619223400e-02
     775,  -4.7748172300e-01,  -4.9091479200e-01
     776,   4.7823038700e-01,   4.9158009900e-01
     777,   4.7647377800e-01,  -4.9066844600e-01
     778,  -3.1501948800e-02,  -1.1646393700e-02
     779,  -2.4933164900e-02,   1.3120194900e-02
     780,  -4.8963719600e-01,   4.7415307200e-01
     781,  -4.7097170400e-01,  -4.8237061500e-01
     782,  -4.6842902900e-01,   4.8691383000e-01
     783,  -4.8898804200e-01,  -4.7567018900e-01
     784,   4.7006738200e-01,   4.8828995200e-01
     785,  -4.8868978000e-01,   4.6397239000e-01
     786,   4.6804598000e-01,  -4.8831674500e-01
     787,   4.8915228200e-01,  -4.7195518000e-01
     788,  -4.1224803800e-02,  -1.2391995600e-02
     789,  -3.4269500500e-02,   1.3651502300e-02
     790,   4.8994550100e-01,   4.8320883500e-01
     791,  -4.8537075500e-01,  -4.6460855000e-01
     792,  -4.6069994600e-01,  -4.8833853000e-01
     793,   4.6009433300e-01,   4.8559907100e-01
     794,  -4.5873823800e-01,   4.8375922400e-01
     795,  -5.1734119700e-02,  -1.3458688700e-02
     796,  -4.4515248400e-02,   1.4283715700e-02
     797,  -4.8821240700e-01,   4.5211488000e-01
     798,   4.5739984500e-01,  -4.8496833400e-01
     799,  -5.5643860300e-02,   1.4901614700e-02
     800,   4.4683009400e-01,   4.7940579100e-01
     801,   4.8701497900e-01,  -4.5917469300e-01
     802,  -4.4990322000e-01,  -4.8597252400e-01
     803,  -4.8154115700e-01,  -4.5021605500e-01
     804,  -4.4629883800e-01,   4.8132154300e-01
     805,   4.8680266700e-01,   4.7251886100e-01
     806,  -7.6254010200e-02,  -1.7826441700e-02
     807,  -6.7849554100e-02,   1.5469150600e-02
     808,   4.3352356600e-01,   4.8351538200e-01
     809,  -8.1305585800e-02,   1.6086963900e-02
     810,   4.2078885400e-01,   4.8636078800e-01
     811,   4.4455313700e-01,  -4.8305240300e-01
     812,  -4.3645459400e-01,  -4.8418164300e-01
     813,  -4.8695752000e-01,   4.3784165400e-01
     814,   4.7684049600e-01,   6.5077547900e-03
     815,  -1.2666259700e-01,  -2.6903661000e-02
     816,   3.5988500700e-01,   4.8200064900e-01
     817,   4.0696299100e-01,   4.8587539800e-01
     818,   3.7602642200e-01,   4.8284933000e-01
     819,   3.9189404200e-01,   4.8430407000e-01
     820,  -1.2642405900e-01,   1.7408838500e-02
     821,   3.4327560700e-01,   4.8169904900e-01
     822,   4.7766244400e-01,   2.5251248900e-02
     823,  -4.3168890500e-01,   4.8020046900e-01
     824,   4.8472049800e-01,  -4.4173771100e-01
     825,   4.7601470400e-01,  -1.1583987600e-02
     826,   4.2890650000e-01,  -4.8161587100e-01
     827,  -4.8407024100e-01,   4.2034530600e-01
     828,  -4.2044726000e-01,  -4.8252591500e-01
     829,  -4.7890308500e-01,  -4.3177431800e-01
     830,   3.2549488500e-01,   4.8153725300e-01
     831,   4.8327878100e-01,   4.5765444600e-01
     832,   4.1089096700e-01,  -4.8023834800e-01
     833,   3.6439651200e-03,  -8.1926547000e-03
     834,   1.1925401200e-02,   1.1556575100e-02
     835,  -7.7318856500e-03,   2.3465706000e-02
     836,  -3.0644673400e-03,  -1.8634669500e-02
     837,  -1.2116742300e-02,  -2.0172879100e-02
     838,  -4.8064240800e-01,   4.8359102000e-01
     839,  -4.8529374600e-01,  -4.8542320700e-01
     840,   4.8229163900e-01,   4.8541525000e-01
     841,   4.8294118000e-01,  -4.8226460800e-01
     842,  -4.9153018000e-01,  -4.8405683000e-01
     843,  -2.1127352500e-02,  -2.1629149100e-02
     844,  -4.7982552600e-01,   4.7442099500e-01
     845,  -3.5665530700e-02,   2.7441462500e-02
     846,  -3.0360313100e-02,  -2.3092640600e-02
     847,  -4.7226429000e-01,  -4.6881344900e-01
     848,  -4.6421709700e-01,  -4.7719663400e-01
     849,  -4.6282604300e-01,   4.6621871000e-01
     850,   4.6373006700e-01,   4.7619062700e-01
     851,  -4.9044480900e-01,   4.8324784600e-01
     852,   4.9072185200e-01,  -4.8212072300e-01
     853,  -3.9917521200e-02,  -2.4694712800e-02
     854,  -4.6473134300e-02,   2.9130263300e-02
     855,  -6.3363082700e-02,  -1.5128267000e-02
     856,   4.7131642700e-01,  -4.7781086000e-01
     857,   4.3476396800e-01,   4.6144017600e-01
     858,  -7.0721998800e-02,   3.2142575800e-02
     859,  -8.3691641700e-02,  -4.0328886400e-02
     860,  -9.0560175500e-02,  -2.2486262000e-02
     861,  -4.5309692600e-01,  -4.7148457200e-01
     862,  -1.2961687100e-01,   3.5554315900e-02
     863,   4.2525404700e-01,   4.6932247300e-01
     864,  -4.4623136500e-01,   4.6035897700e-01
     865,   3.5941809400e-01,   4.6380642100e-01
     866,   4.0732741400e-01,   4.7181978800e-01
     867,   4.5556345600e-01,   8.0619026000e-03
     868,  -1.1939328900e-01,  -5.7123601400e-02
     869,   4.8179277800e-01,  -4.2080774900e-01
     870,  -4.7462073000e-01,   4.4021731600e-01
     871,  -8.4316127000e-02,   3.3463668100e-02
     872,   4.7741901900e-01,   4.6375028800e-02
     873,  -4.8128068400e-01,   3.9997312400e-01
     874,  -4.0161091100e-01,  -4.8174780600e-01
     875,   3.0602639900e-01,   4.8111385100e-01
     876,   4.7825205300e-01,   4.3723145100e-01
     877,   6.6292220700e-03,  -1.6902534300e-02
     878,   1.3364272200e-02,   2.4640045600e-03
     879,  -9.7932936600e-03,  -2.9818002100e-02
     880,   1.4290052900e-03,   2.2055508600e-02
     881,  -3.5423036700e-02,   4.1527234000e-02
     882,  -3.7474986200e-02,  -3.7045303700e-02
     883,  -1.6237320400e-02,   3.7275444700e-02
     884,  -7.2191007400e-02,   4.9959581300e-02
     885,  -7.5066439800e-02,  -5.5742636300e-02
     886,  -5.9045504800e-02,   4.7506835300e-02
     887,  -4.7676551300e-01,   4.5174911600e-01
     888,   4.1257634800e-01,   4.5895305300e-01
     889,  -1.4626276500e-01,   3.5665880900e-02
     890,   4.3573555400e-01,   1.0827804900e-02
     891,   4.7943300000e-01,  -4.7296878700e-01
     892,  -1.1388295900e-01,   3.5228468500e-02
     893,  -9.5812037600e-02,  -5.0183583100e-02
     894,  -5.6073989700e-02,  -4.2812634300e-02
     895,  -4.6743333300e-02,   4.4642258400e-02
     896,   4.7440642100e-01,   4.7592619100e-01
     897,   4.7520467600e-01,   7.0213101800e-02
     898,   1.5697788400e-02,  -5.8088637900e-03
     899,   1.8040062900e-02,  -1.4888158100e-02
     900,   2.3623026900e-02,   1.3041869700e-02
     901,  -4.9479259200e-04,  -2.7885546900e-02
     902,   1.1335961500e-02,   2.1090906100e-02
     903,  -1.5996653600e-02,  -4.2006712400e-02
     904,  -4.2586244600e-02,  -5.3572583900e-02
     905,  -4.4881012300e-02,   6.0776770100e-02
     906,  -8.5502766100e-02,  -6.5179385200e-02
     907,  -2.5519799400e-02,   3.9322916400e-02
     908,  -1.1066076900e-01,   1.7150552900e-02
     909,   4.4476306400e-01,  -4.6477055500e-01
     910,  -1.3256079000e-01,   5.4422631900e-02
     911,  -1.6182848800e-01,   1.8050953700e-02
     912,  -3.4016557000e-02,  -4.9944415700e-02
     913,   3.1087486100e-02,  -1.3299956900e-02
     914,   2.1995216600e-02,   2.1752946100e-02
     915,   9.1912252800e-03,  -2.5981249300e-02
     916,   2.6314524900e-02,   4.8877187100e-03
     917,  -6.9937747900e-03,  -3.9353761800e-02
     918,  -6.9169038900e-03,   3.5134803500e-02
     919,  -2.4883439800e-02,  -4.5628711600e-02
     920,  -1.4909891400e-02,   5.0753947300e-02
     921,   2.4741906700e-03,   3.2692469700e-02
     922,  -2.8950026300e-02,  -6.2120556800e-02
     923,  -3.3229678900e-02,   5.5703125900e-02
     924,  -3.9043847500e-02,  -7.4917271700e-02
     925,   4.4500049900e-01,  -4.4700747700e-01
     926,  -1.6433771000e-01,   3.6124087900e-02
     927,   2.8861101700e-02,  -3.0149703400e-03
     928,   2.2706259000e-03,  -3.7325531200e-02
     929,   1.9649311900e-02,  -2.4225926000e-02
     930,   3.3682845500e-02,   1.5170894600e-02
     931,   1.1766723400e-02,   3.0367488000e-02
     932,  -5.0090844700e-03,   4.7314129800e-02
     933,  -1.2276573100e-02,  -5.1489159500e-02
     934,  -2.4106003300e-02,   5.3175069400e-02
     935,   4.8765279400e-03,   4.3385777600e-02
     936,  -2.0377846400e-02,  -5.5696357000e-02
     937,   1.4626710700e-02,   3.9181847100e-02
     938,   1.1896978100e-02,  -3.5581573800e-02
     939,   4.5141443600e-02,  -1.2119387300e-02
     940,   2.1414985900e-02,  -3.3742163300e-02
     941,   3.4440521200e-02,   2.5826398300e-02
     942,  -3.9282725200e-03,  -4.8585981100e-02
     943,  -1.3235133100e-02,   6.4533203800e-02
     944,  -8.0180550000e-03,  -6.0422476400e-02
     945,   8.6216069800e-03,   5.3596340100e-02
     946,   4.3052021400e-02,   5.4558203600e-03
     947,  -4.0362574200e-02,   7.7185757500e-02
     948,   1.4977309900e-02,  -4.5657612400e-02
     949,   2.4312023100e-02,   3.4626986800e-02
     950,   4.4751174700e-02,  -2.8082190100e-02
     951,   4.9880109700e-03,  -4.6832907900e-02
     952,  -1.9185453400e-03,   5.9394657600e-02
     953,   1.8218772500e-02,   4.7267988300e-02
     954,   6.4795926200e-02,   2.1241970800e-03
     955,  -3.2856382900e-03,  -6.8677239100e-02
     956,   5.0270177400e-02,   2.2902207400e-02
     957,  -2.0251534900e-02,   8.7095320200e-02
     958,  -7.9993967700e-04,  -5.7318136100e-02
     959,  -8.4017887700e-03,   7.8795649100e-02
     960,   1.7032142700e-02,  -5.6451842200e-02
     961,   2.2957475900e-02,   5.3221736100e-02
     962,   1.4292877200e-02,   6.3537783900e-02
     963,   4.8208553300e-03,  -6.5191768100e-02
     964,   1.5192885000e-02,   7.3586203200e-02
     965,   6.1734035600e-02,  -1.3952026100e-02
     966,   3.7713609600e-02,   3.6142643500e-02
     967,   2.8864223500e-02,   4.3766465000e-02
     968,   3.5523507700e-02,  -3.8446933000e-02
     969,  -3.4411013100e-02,   9.4929277900e-02
     970,   8.1235297000e-02,  -5.0256797100e-03
     971,   3.5881167300e-03,  -7.5126379700e-02
     972,   1.6219174500e-02,  -6.7343458500e-02
     973,   2.5700431300e-02,  -4.3790251000e-02
     974,   7.2516761700e-02,   2.1767299600e-02
     975,  -1.2628248900e-02,  -9.2758901400e-02
     976,   2.9648156800e-02,   5.7747624800e-02
     977,   5.3621646000e-02,  -4.1496142700e-02
     978,   8.3496682300e-03,   8.0239780200e-02
     979,   6.6665925100e-02,  -3.4415841100e-02
     980,   4.9679826900e-02,   4.0541496100e-02
     981,  -5.0312239700e-02,   1.0281565000e-01
     982,   3.1110541900e-02,  -5.7065077100e-02
     983,   1.1526715000e-02,  -9.2382982400e-02
     984,   2.2665947700e-02,   7.6896622800e-02
     985,   4.2747397000e-02,  -4.9149569100e-02
     986,   3.7607565500e-02,   5.0271697300e-02
     987,   6.1278201600e-02,  -5.3297139700e-02
     988,   1.5782000500e-02,  -7.9309225100e-02
     989,   8.9248381600e-02,  -4.2842280100e-02
     990,   1.6911378100e-02,   8.7328001900e-02
     991,  -5.7721603700e-02,   1.2484158600e-01
     992,   3.2769065400e-02,  -8.0185979600e-02
     993,   4.2265128300e-02,  -6.7853957400e-02
     994,   5.2079454100e-02,   7.3186568900e-02
     995,   7.3865503100e-02,   5.6259792300e-02
     996,  -2.7380624800e-02,  -9.9373906900e-02
     997,   3.3637750900e-02,   8.0067969900e-02
     998,   9.6143437500e-03,   9.5907487000e-02
     999,   4.5081578200e-02,   8.6557209500e-02
    1000,   5.6801557500e-02,  -7.3532566400e-02
    1001,   4.6125231300e-03,  -1.0919360800e-01
    1002,  -5.5612515700e-02,  -8.6966767900e-02
    1003,   2.8565993500e-02,  -9.6503615400e-02
    1004,   3.7026617700e-02,   9.9951177800e-02
    1005,   5.6561894700e-02,   9.3205720200e-02
    1006,  -4.4036749800e-02,  -1.0753776900e-01
    1007,   5.0242260100e-02,  -8.7272718500e-02
    1008,   4.6139776700e-02,  -1.0378144700e-01
    1009,  -2.8058008800e-03,  -1.3533946900e-01
    1010,   8.0575458700e-02,   8.7568327800e-02
    1011,  -3.1014049400e-02,  -1.2707601500e-01
    1012,  -6.2055978900e-02,  -1.1720769100e-01
    1013,   6.8462535700e-02,  -8.8418878600e-02
    1014,   3.8041435200e-02,  -1.2271552500e-01
    1015,   9.6235930900e-02,   6.8897388900e-02
    1016,   4.5446183500e-02,   1.2203482500e-01
    1017,   1.5449328300e-02,  -1.2872771900e-01
    1018,   1.3494894800e-02,   1.1008078600e-01
    1019,   8.5058167600e-02,  -9.4032995400e-02
    1020,   9.8095931100e-02,   5.0125926700e-02
    1021,   1.0854392500e-01,   8.9390993100e-02
    1022,  -9.5288995700e-03,   1.3453358400e-01
    1023,   4.7655712800e-02,   1.3572943200e-01
    1024,   4.6556472800e-02,   1.0584372300e-01
    1025,   2.9541846400e-02,   1.5520760400e-01
    1026,   7.8560903700e-02,   1.1605189700e-01
    1027,  -4.0178038200e-02,   1.4231479200e-01
    1028,  -7.5777620100e-02,   1.3343891500e-01
    1029,  -4.6344302600e-02,   1.6348266600e-01
    1030,   1.1466028200e-02,   1.5218865900e-01
    1031,   5.2578352400e-02,   1.5651719300e-01
    1032,   1.1464818400e-02,   1.3270123300e-01
    1033,  -4.7868973000e-01,   3.7720090200e-01
    1034,   3.9645880500e-01,   4.5086661000e-01
    1035,  -8.6262896700e-02,   5.1994487600e-02
    1036,   3.7034633800e-01,  -4.7866645500e-01
    1037,   4.7180178800e-01,   9.4808451800e-02
    1038,   4.8087447900e-01,  -3.9640575600e-01
    1039,   9.0906247500e-02,  -1.1035102600e-01
    1040,   3.9126768700e-01,  -4.7928139600e-01
    1041,   3.4889382100e-01,  -4.7828051400e-01
    1042,   2.8451612600e-01,   4.8010179400e-01
    1043,  -4.1406187400e-01,   4.7965151100e-01
    1044,   9.2739060500e-02,   1.0245346300e-01
    1045,  -3.7933635700e-01,  -4.8066422300e-01
    1046,  -2.5477603100e-01,   2.4939293000e-02
    1047,  -4.4957578200e-01,   4.3573126200e-01
    1048,   4.6051722800e-01,   4.4262397300e-01
    1049,  -4.7623500200e-01,  -4.1033926600e-01
    1050,   8.9633703200e-02,  -5.9951040900e-02
    1051,  -7.9154178500e-02,  -1.2947799300e-01
    1052,   4.7549381900e-01,  -3.1054744500e-02
    1053,   4.3817058200e-01,   2.8008490800e-02
    1054,   9.6230514300e-02,   5.4143574100e-03
    1055,  -1.0360868600e-02,   1.6423307400e-01
    1056,  -7.7135607600e-02,   1.4815038400e-01
    1057,  -4.7237947600e-01,  -3.8651475300e-01
    1058,   3.7766468500e-01,   4.4537559200e-01
    1059,  -4.3874651200e-01,  -4.5504862100e-01
    1060,  -4.7465139600e-01,   2.5424040900e-02
    1061,   3.2680687300e-01,  -4.7813195000e-01
    1062,  -1.6569124200e-01,   5.3888671100e-02
    1063,   4.4605109100e-01,   4.5165336100e-01
    1064,   4.3089205000e-01,  -6.6503705500e-03
    1065,  -4.8258799300e-01,  -1.5568941800e-01
    1066,  -4.8212099100e-01,  -1.3159562600e-01
    1067,  -4.8220834100e-01,  -1.7966562500e-01
    1068,  -4.5824933100e-01,   3.8178893900e-01
    1069,  -4.6539381100e-01,  -3.5785487300e-01
    1070,   4.8018372100e-01,  -3.7148562100e-01
    1071,  -4.8076337600e-01,  -1.0723099900e-01
    1072,  -3.9301958700e-01,   4.7896739800e-01
    1073,   6.5362961000e-03,  -1.4884749100e-01
    1074,  -4.7304740500e-01,  -3.3062708400e-01
    1075,   7.0119306400e-02,  -4.7885930500e-01
    1076,  -4.8147589000e-01,  -2.0406833300e-01
    1077,   4.3788999300e-02,  -4.5835012200e-01
    1078,  -3.5919153700e-01,  -2.5770958500e-02
    1079,   2.6146936400e-01,   4.7850555200e-01
    1080,   9.5404051200e-02,  -4.7801119100e-01
    1081,   4.7740942200e-01,   3.5780358300e-01
    1082,   2.5373464800e-01,  -4.7720247500e-01
    1083,  -4.7484549900e-01,   3.5229289500e-01
    1084,   4.7823232400e-01,   3.3345249300e-01
    1085,  -2.0555889600e-01,   1.9983537500e-02
    1086,  -3.5522282100e-01,  -4.7936505100e-01
    1087,  -3.4441781000e-01,   4.7590684900e-01
    1088,   1.2108058500e-01,  -4.7642889600e-01
    1089,  -5.6106951100e-03,  -4.7805470200e-01
    1090,   2.7867844700e-01,  -4.7782322800e-01
    1091,   4.7468718900e-01,   3.8241908000e-01
    1092,  -3.1908968100e-01,   4.7305479600e-01
    1093,   4.7521230600e-01,  -5.3269859400e-02
    1094,  -3.6928677600e-01,   4.7781708800e-01
    1095,   4.7137180000e-01,   1.2012969000e-01
    1096,   1.4743001800e-01,  -4.7425511500e-01
    1097,   3.0334556100e-01,  -4.7807440200e-01
    1098,   4.5225697800e-01,  -1.4899827500e-01
    1099,   4.7542730000e-01,  -1.0267347100e-01
    1100,  -7.9893708200e-02,   4.7476452600e-01
    1101,  -1.0594611600e-01,   4.7458732100e-01
    1102,  -5.3957920500e-02,   4.7457867900e-01
    1103,   1.3063451600e-01,   4.6975278900e-01
    1104,   4.7884368900e-01,  -3.4587496500e-01
    1105,   1.8666881300e-01,   4.7003427100e-01
    1106,   4.7508862600e-01,  -7.7680178000e-02
    1107,  -2.7940420400e-02,   4.7385129300e-01
    1108,   1.0485762400e-01,   4.7216680600e-01
    1109,  -4.7164928900e-01,   1.0256283700e-01
    1110,  -1.6470077600e-01,  -4.7559648800e-01
    1111,  -4.7860196200e-01,  -8.1985563000e-02
    1112,   1.2835468400e-01,   8.0541662900e-02
    1113,  -2.9251435400e-01,   4.6875670600e-01
    1114,   4.6237057400e-01,  -1.9072392600e-01
    1115,   5.0703920400e-02,   4.7157388900e-01
    1116,   2.4305092200e-02,   4.7309148300e-01
    1117,  -3.3031067300e-01,  -4.7740966100e-01
    1118,   2.1216660700e-01,   4.7376337600e-01
    1119,  -4.7046148800e-01,   1.6088801600e-01
    1120,   1.7429897200e-01,  -4.7262001000e-01
    1121,  -2.1620051600e-01,  -4.7602042600e-01
    1122,  -4.8000302900e-01,  -2.5455585100e-01
    1123,  -1.6291359100e-01,  -2.2074297100e-02
    1124,   4.7097203100e-01,   1.7211855900e-01
    1125,   4.7436177700e-01,   2.8410935400e-01
    1126,  -1.3856867000e-01,  -4.7559508700e-01
    1127,   4.6920475400e-01,   4.0924942500e-01
    1128,  -4.7293597500e-01,   1.8755342100e-01
    1129,  -5.8247629600e-02,  -4.7607654300e-01
    1130,   1.0367407600e-01,   2.6686951500e-02
    1131,   2.0171479900e-01,  -4.7436031700e-01
    1132,  -8.5064791100e-02,  -4.7573217700e-01
    1133,  -4.7598502000e-01,  -5.5540178000e-02
    1134,  -4.7891029700e-01,  -2.8010815400e-01
    1135,  -4.7345838000e-01,   2.9406422400e-01
    1136,  -1.1934123900e-01,   7.4166156400e-02
    1137,  -2.4331115200e-01,  -4.7423547500e-01
    1138,   4.7129929100e-01,  -2.6527020300e-01
    1139,   4.6966221900e-01,   2.5798267100e-01
    1140,  -3.0415475400e-01,  -4.7406598900e-01
    1141,   1.0327449400e-01,   1.4783290000e-01
    1142,  -1.8273039200e-01,   4.7817251100e-01
    1143,  -4.7621470700e-01,   2.6695999500e-01
    1144,   6.4470551900e-02,  -1.2607486500e-01
    1145,  -5.5252656300e-02,   8.4028385600e-02
    1146,   6.1142384100e-03,   1.7143942400e-01
    1147,   3.2415843000e-01,   4.6370133800e-01
    1148,  -8.7595373400e-02,   1.1253043300e-01
    1149,   5.3666915700e-02,   1.8654812900e-01
    1150,  -2.0648992100e-01,  -2.0908035300e-02
    1151,   1.0401729500e-01,  -1.9946211900e-02
    1152,  -1.8424798500e-01,   3.7487909200e-02
    1153,  -4.1570776700e-01,  -3.7939477700e-02
    1154,   4.5629200300e-01,   4.6063166100e-02
    1155,  -2.5550499600e-01,  -2.2095864600e-02
    1156,  -3.2829660200e-01,  -4.9459490900e-02
    1157,  -3.6132547300e-01,   5.1871072500e-02
    1158,   1.3799640500e-01,  -4.0428474500e-02
    1159,  -4.3396085500e-01,   4.9446489700e-02
    1160,  -4.5219570400e-01,  -5.9485990600e-02
    1161,  -2.7885678400e-01,  -4.7862708600e-02
    1162,  -2.7631595700e-01,   5.6834548700e-02
    1163,  -7.4882637700e-03,   2.0309458700e-01
    1164,  -2.0172089300e-01,   6.1144467400e-02
    1165,   4.2502221500e-01,  -2.6727248000e-02
    1166,   3.2306890400e-04,  -1.6397967900e-01
    1167,  -4.3882468300e-01,   3.8703206200e-01
    1168,   4.6199858200e-01,  -3.9639949800e-01
    1169,   1.0374245000e-01,   1.1818652600e-01
    1170,   4.3254229400e-01,   4.3555229900e-01
    1171,  -1.5010514900e-01,  -4.5740447900e-02
    1172,  -2.2719779600e-01,   4.4807821500e-02
    1173,  -8.0204233500e-02,   4.4994583700e-01
    1174,   6.3187457600e-02,   2.0102846600e-01
    1175,   2.7815130400e-01,  -4.5483404400e-01
    1176,   4.0349432800e-01,   4.3501338400e-01
    1177,   2.8527966100e-01,   4.5992207500e-01
    1178,   3.0723843000e-01,   4.4380530700e-01
    1179,   3.4114816800e-01,   4.4672322300e-01
    1180,  -1.8698096300e-01,  -4.2623158500e-02
    1181,   8.7886482500e-02,  -1.2980325500e-01
    1182,   1.3410715800e-01,   9.9049821500e-02
    1183,  -1.0301789600e-01,   7.3323793700e-02
    1184,  -4.0959382100e-01,  -4.4483616900e-01
    1185,  -4.7505803400e-02,  -1.3704946600e-01
    1186,  -1.8112601300e-01,   6.9671474400e-02
    1187,  -1.3578255500e-01,   7.3952779200e-02
    1188,   4.2415063800e-02,  -1.4378172200e-01
    1189,  -4.6390578200e-01,  -1.7942248300e-01
    1190,   4.5073700000e-01,  -3.0563481200e-02
    1191,  -3.3399385200e-01,  -4.5543110400e-01
    1192,   9.2824839100e-02,  -4.5651701100e-01
    1193,  -6.0719560800e-02,   1.8417888900e-01
    1194,  -4.4366130200e-01,   4.0944126200e-01
    1195,  -7.1063235400e-02,   8.9422419700e-02
    1196,  -4.2186832400e-01,  -4.6354562000e-01
    1197,   3.8625478700e-02,   1.9736184200e-01
    1198,   1.7340202600e-01,  -4.4158914700e-01
    1199,  -4.1080880200e-01,   4.5780900100e-01
    1200,   2.3724100000e-01,   4.7643858200e-01
    1201,   4.5830062000e-01,  -3.4792709400e-01
    1202,   4.7716563900e-01,   3.0898827300e-01
    1203,  -1.0600754600e-01,   1.1361765900e-01
    1204,  -2.7401495000e-01,  -7.3109649100e-02
    1205,   4.7059556800e-01,  -4.4324338400e-01
    1206,  -4.2874071000e-01,   6.6599167900e-02
    1207,   4.3827524800e-01,   9.1540977400e-02
    1208,   4.7176441600e-01,   1.4626920200e-01
    1209,  -4.3847918500e-01,  -9.2181317500e-02
    1210,  -1.1197399300e-01,  -4.7565266500e-01
    1211,   2.2838643200e-01,  -4.7616097300e-01
    1212,  -3.6710518600e-01,   4.3339240600e-01
    1213,  -3.1693294600e-02,  -4.7703373400e-01
    1214,  -4.5372039100e-01,   2.6503115900e-01
    1215,   4.7649377600e-01,  -3.1922909600e-01
    1216,   4.6868443500e-01,   1.9871106700e-01
    1217,   4.0987908800e-01,  -4.5817515300e-01
    1218,   4.6963867500e-01,  -2.3860229600e-01
    1219,   1.1878645400e-01,   3.5998809600e-03
    1220,   4.7366151200e-01,  -2.9222148700e-01
    1221,   3.6899352100e-01,  -4.5653083900e-01
    1222,   4.4239732600e-01,   3.9152470200e-01
    1223,  -2.3398140100e-01,   4.7096699500e-01
    1224,  -4.7606736400e-01,   2.3993444400e-01
    1225,  -4.4781780200e-01,  -3.9201539800e-01
    1226,  -4.8073899700e-01,  -2.2909358100e-01
    1227,  -4.6468848000e-01,  -1.3380578200e-01
    1228,  -4.5675137600e-01,  -4.3421387700e-01
    1229,   3.2423266800e-01,  -4.3397805100e-01
    1230,   4.2868800500e-02,  -4.3799004000e-01
    1231,   1.1151076900e-01,   4.3452221900e-02
    1232,  -3.8080921800e-01,  -4.6104422200e-01
    1233,   1.1962749100e-01,  -8.5694588700e-02
    1234,   1.1776845900e-01,  -4.5358336000e-01
    1235,   4.4847333400e-01,  -7.7358834400e-02
    1236,  -4.4033402200e-01,  -3.3839169100e-01
    1237,  -3.2010713200e-01,   4.4747000900e-01
    1238,   4.5013746600e-01,   3.7291887400e-01
    1239,  -2.4321003300e-01,  -4.2370513100e-01
    1240,   2.0967871000e-01,  -4.2886591000e-01
    1241,  -4.3867594000e-01,  -2.2379504100e-01
    1242,   4.3191099200e-01,   2.4321758700e-01
    1243,   2.4624930300e-01,   4.2855665100e-01
    1244,  -2.0658543700e-01,   4.2296105600e-01
    1245,  -2.8397405500e-02,  -4.3115410200e-01
    1246,  -2.5094795200e-01,   5.0199236700e-02
    1247,  -8.5431359700e-02,  -4.2647746200e-01
    1248,   4.4202551200e-01,   1.6914223100e-01
    1249,  -2.8955730800e-01,  -4.4199281900e-01
    1250,   4.4107124200e-01,  -2.6863735900e-01
    1251,  -2.8701618300e-01,   9.5860101300e-02
    1252,  -1.5790838000e-01,   4.7533872700e-01
    1253,   1.3811108500e-01,   1.1441890200e-01
    1254,  -1.9297513400e-01,   8.3035156100e-02
    1255,  -3.8126725700e-02,   1.8424189100e-01
    1256,  -4.2024579600e-01,  -1.0133770100e-01
    1257,  -3.8226062100e-01,   7.5367763600e-02
    1258,  -3.4036889700e-01,   7.6791100200e-02
    1259,  -1.2503387000e-01,   1.1467232600e-01
    1260,  -1.3384240900e-01,  -5.0222378200e-02
    1261,  -1.6763737800e-01,  -4.3434422500e-02
    1262,   3.0158674700e-01,  -4.3273279100e-01
    1263,   1.4466929400e-01,   3.5325747000e-02
    1264,  -3.8361650700e-01,  -4.4203108500e-01
    1265,  -4.0875634600e-01,   4.3600490700e-01
    1266,  -4.2198911300e-01,  -3.2543838000e-01
    1267,  -4.9161817900e-02,  -1.6624853000e-01
    1268,   1.3008648200e-01,  -9.7047798300e-02
    1269,  -1.2227106100e-01,   9.4375878600e-02
    1270,  -7.4181899400e-02,   2.1186745200e-01
    1271,   4.4294020500e-01,  -3.9529851100e-01
    1272,   4.3134480700e-01,  -4.4401902000e-01
    1273,   3.9953410600e-01,   2.2331794700e-02
    1274,   3.6765420400e-01,  -4.3421790000e-01
    1275,  -4.4489508900e-01,  -1.7743957000e-01
    1276,   1.1243114600e-01,  -4.3156790700e-01
    1277,  -4.2489841600e-01,  -3.9843550300e-01
    1278,   3.3823290500e-01,   4.3041479600e-01
    1279,   4.4419226100e-01,  -4.1269311300e-01
    1280,   3.4617942600e-01,  -4.3440681700e-01
    1281,   1.3656130400e-01,  -6.4926989400e-02
    1282,  -4.4435805100e-01,  -1.1514110900e-01
    1283,   4.5529484700e-02,  -1.6291479800e-01
    1284,  -4.4796577100e-01,  -1.3649797400e-01
    1285,  -3.8839715700e-01,   4.3564274900e-01
    1286,   4.2175930700e-01,   3.7893220800e-01
    1287,  -5.4243207000e-03,  -4.5610272900e-01
    1288,  -4.3386131500e-01,  -4.3776318400e-01
    1289,   6.6190876100e-02,  -4.3774309800e-01
    1290,  -3.3002022700e-02,  -1.5559546600e-01
    1291,  -3.6034089300e-01,  -4.3886515500e-01
    1292,   1.3542375000e-01,  -4.2513063500e-01
    1293,  -1.2688462400e-01,   1.3466601100e-01
    1294,   7.9588040700e-02,   1.9102282800e-01
    1295,   3.9532753800e-01,  -1.8105281500e-02
    1296,  -2.0816341000e-01,  -4.2896617200e-02
    1297,   3.9110270100e-01,   4.7154560700e-02
    1298,   3.9695888800e-01,   4.0665811300e-01
    1299,  -4.3419662100e-01,   3.6724442200e-01
    1300,   4.9001719800e-02,   2.1091595300e-01
    1301,   2.1716164100e-01,   4.4763213400e-01
    1302,   4.3686708800e-01,   3.2865315700e-01
    1303,   1.3402226600e-01,   4.1606151500e-03
    1304,  -1.9747322800e-01,   4.0031403300e-01
    1305,   4.0584796700e-01,   2.5446221200e-01
    1306,   4.0528357000e-01,  -2.7185085400e-01
    1307,  -8.7826907600e-02,  -4.0242829900e-01
    1308,   2.5420451200e-01,  -4.5401555300e-01
    1309,  -2.3136757300e-02,  -4.0990132100e-01
    1310,  -4.0270438800e-01,   7.9935103700e-02
    1311,  -1.1224573100e-01,  -4.0229699000e-01
    1312,  -4.7482141900e-01,   7.6533041900e-02
    1313,  -2.4361555300e-01,   7.4861876700e-02
    1314,   2.8847259300e-01,   4.4000163700e-01
    1315,  -3.1878081000e-01,  -4.2823869000e-01
    1316,   1.3555931900e-02,   1.9838447900e-01
    1317,   4.2960172900e-01,   4.0677821600e-01
    1318,   4.5002543900e-01,   2.8731849800e-01
    1319,  -4.6198898600e-01,  -2.0284616900e-01
    1320,  -6.2925107800e-02,   1.6394379700e-01
    1321,  -2.5115114500e-01,  -6.7859798700e-02
    1322,   4.2290782900e-01,  -5.0493326000e-02
    1323,  -1.5622770800e-01,   9.1393582500e-02
    1324,   8.9715927800e-02,   1.3156311200e-01
    1325,   4.4207078200e-01,   1.2025684100e-01
    1326,  -4.3568533700e-01,   2.4637657400e-01
    1327,   4.3232390300e-01,  -3.2869067800e-01
    1328,  -3.8702473000e-01,  -2.3728083100e-01
    1329,   4.1880565900e-01,  -2.2162996200e-01
    1330,   2.3300603000e-01,   3.9590516700e-01
    1331,  -2.3744277700e-01,   4.3502029800e-01
    1332,  -3.2647505400e-01,  -7.3717802800e-02
    1333,  -1.6197674000e-01,   4.4595083600e-01
    1334,   4.3311727000e-01,   2.0924517500e-01
    1335,  -2.8041112400e-01,  -1.0840676700e-01
    1336,  -1.6435331100e-01,  -4.5039519700e-01
    1337,  -4.3219882200e-01,  -2.9087305100e-01
    1338,   4.6682524700e-01,  -2.1282899400e-01
    1339,  -3.2536852400e-01,  -4.0569213000e-01
    1340,   1.5674315400e-01,  -4.1549924000e-01
    1341,  -3.8372132200e-01,  -4.0581232300e-01
    1342,  -4.0363237300e-01,  -4.0345579400e-01
    1343,   4.2757922400e-01,   3.6250338000e-01
    1344,  -3.6047032500e-01,   9.3032501600e-02
    1345,  -4.0637880600e-01,   4.1487941100e-01
    1346,  -1.6346055300e-01,   1.1135585600e-01
    1347,  -4.2714333500e-01,  -1.2171710300e-01
    1348,   8.5985362500e-02,   2.0805953400e-01
    1349,  -3.8013729500e-01,  -1.0945650200e-01
    1350,  -2.1175570800e-02,  -3.8940107800e-01
    1351,   4.0523362200e-01,  -4.0594735700e-01
    1352,   3.1341478200e-01,   4.2423707200e-01
    1353,  -2.1420717200e-01,   8.9435637000e-02
    1354,   5.5903628500e-02,   2.2407394600e-01
    1355,  -3.9539998800e-01,  -6.4228154700e-02
    1356,  -8.2393460000e-02,   1.6591715800e-01
    1357,   2.7477473000e-01,   4.1444760600e-01
    1358,   4.2135796000e-01,  -7.6045163000e-02
    1359,   1.2631657700e-01,   1.2062530200e-01
    1360,  -4.4140943900e-01,  -2.0017844400e-01
    1361,  -4.8758648300e-02,   2.0430223600e-01
    1362,   4.2696973700e-01,  -1.9080542000e-01
    1363,   1.5380992000e-01,   1.1414989100e-01
    1364,  -1.8965107200e-01,   1.0816141200e-01
    1365,  -4.2481237600e-01,  -3.5198342800e-01
    1366,  -4.2865714400e-01,  -3.0992803000e-01
    1367,   2.7811256100e-01,  -4.3088784800e-01
    1368,  -3.6157622900e-01,   7.3559850500e-02
    1369,  -3.7845653300e-01,   9.5940820900e-02
    1370,  -1.0699421900e-01,   1.5233098000e-01
    1371,  -6.3873671000e-02,  -1.4847789700e-01
    1372,  -1.5487891400e-01,  -6.4568497200e-02
    1373,   8.9317925300e-02,  -4.3561714900e-01
    1374,  -4.2039564300e-01,   3.9072716200e-01
    1375,  -2.7173230100e-01,   4.3153670400e-01
    1376,  -4.4732770300e-01,   1.9044141500e-01
    1377,   1.3093128800e-01,  -1.1990431000e-01
    1378,  -2.8460657600e-01,  -4.1187149300e-01
    1379,  -2.8041046900e-01,  -1.4447335900e-01
    1380,   3.6573720000e-01,  -4.1204917400e-01
    1381,   2.4708089200e-01,   3.7168660800e-01
    1382,   2.1436110100e-01,  -4.1357371200e-01
    1383,  -3.4599086600e-01,  -8.6011208600e-02
    1384,   4.1748297200e-01,   1.9219848500e-01
    1385,   1.6631662800e-01,  -4.9534704500e-02
    1386,  -3.9940479400e-01,  -1.9254709800e-01
    1387,  -4.7689670300e-01,  -3.0539932800e-01
    1388,  -3.5514146100e-02,  -1.8352305900e-01
    1389,   4.8673834700e-02,  -1.8158257000e-01
    1390,  -4.2374193700e-01,   8.6756482700e-02
    1391,   4.2475942500e-02,  -4.1830766200e-01
    1392,   3.2426807300e-01,  -4.1191813300e-01
    1393,  -4.4876289400e-01,  -1.5732842700e-01
    1394,  -1.2595044100e-01,  -7.6666548800e-02
    1395,  -3.9353617500e-03,  -4.3440082700e-01
    1396,  -3.5268712000e-01,  -4.9922902100e-02
    1397,  -2.0860233900e-01,  -6.6270180000e-02
    1398,   4.1818520400e-01,   2.7312436700e-01
    1399,  -3.6371889700e-01,  -4.2046034300e-01
    1400,   4.4151416400e-01,  -4.3286106000e-01
    1401,  -3.6848604700e-01,   4.1275525100e-01
    1402,   4.4073197200e-01,  -3.7339097300e-01
    1403,  -1.9042894200e-01,  -4.7583282000e-01
    1404,   1.0578163000e-01,  -4.1052243100e-01
    1405,   3.8928544500e-01,  -4.3335524200e-01
    1406,  -8.1602865800e-03,  -1.9206371900e-01
    1407,   1.5620529700e-01,  -9.1898277400e-02
    1408,  -4.5119741600e-01,   7.2328448300e-02
    1409,  -1.4725863900e-01,   3.9072012900e-01
    1410,  -3.1535202300e-01,  -1.0638120000e-01
    1411,  -4.0946364400e-01,  -2.8573247800e-01
    1412,  -3.6144104600e-01,  -2.2982467700e-01
    1413,   3.8796147700e-01,  -2.2570757600e-01
    1414,   3.6561662000e-01,   4.0031960600e-01
    1415,   1.9885198800e-01,   4.1504550000e-01
    1416,   1.8892968100e-03,  -3.8646173500e-01
    1417,  -3.7191113800e-01,   3.9463535000e-01
    1418,   3.9952921900e-01,  -3.8392072900e-01
    1419,   4.2445322900e-01,  -3.5447582600e-01
    1420,  -4.0267339300e-01,   3.9463266700e-01
    1421,   2.8208786200e-01,   3.6764216400e-01
    1422,   2.8552052400e-01,   3.9582571400e-01
    1423,  -4.8612389700e-02,   2.4947564300e-01
    1424,  -2.0309777900e-02,   2.4823159000e-01
    1425,  -3.7358558200e-01,   1.1540608900e-01
    1426,  -1.6995179700e-01,  -8.6413860300e-02
    1427,  -3.8958919000e-01,  -1.2178248900e-01
    1428,   1.2965165100e-03,  -2.0923586200e-01
    1429,  -3.9600119000e-01,   3.7610605400e-01
    1430,  -2.7345922600e-01,  -3.9652657500e-01
    1431,  -3.0664280100e-01,  -4.0301141100e-01
    1432,  -3.9847266700e-01,  -3.8644027700e-01
    1433,  -4.1768434600e-01,   1.0574507700e-01
    1434,   8.5026368500e-02,  -4.1540020700e-01
    1435,   1.4442066800e-01,  -3.9380380500e-01
    1436,  -1.3458964200e-01,  -8.9545860900e-02
    1437,  -3.9245364100e-01,   1.1910966000e-01
    1438,   3.8179311200e-01,  -3.8823363200e-01
    1439,   3.6374974300e-01,  -3.9018431300e-01
    1440,   9.8504014300e-02,  -3.9078053800e-01
    1441,  -5.0203997600e-02,  -2.1687312400e-01
    1442,   1.6156534900e-01,  -3.8185840800e-01
    1443,  -4.0710461100e-01,  -3.6225321900e-01
    1444,   1.9497176600e-02,  -4.3666499900e-01
    1445,  -3.7614572800e-02,  -2.0988240800e-01
    1446,   9.4999499600e-02,   2.2466220000e-01
    1447,   4.0355607900e-01,   3.5359865400e-01
    1448,   9.9708765700e-02,   2.0155215300e-01
    1449,   1.5245317500e-02,   2.3050916200e-01
    1450,   3.2512626100e-01,  -3.8997167300e-01
    1451,  -1.4638592300e-01,  -8.5125222800e-02
    1452,  -4.2027339300e-01,  -1.9620129500e-01
    1453,  -2.3394964600e-01,   9.7695432600e-02
    1454,   4.2370429600e-01,  -3.9882767200e-01
    1455,   4.3032310900e-02,  -4.0030768500e-01
    1456,   3.4701976200e-01,   4.0809559800e-01
    1457,  -1.2572527600e-03,  -4.1209501000e-01
    1458,   7.9005323400e-02,   2.3413997900e-01
    1459,  -9.6457220600e-02,   2.1987296600e-01
    1460,   1.7333664000e-01,   7.2962775800e-02
    1461,   3.7901318100e-01,  -4.7992471600e-02
    1462,   1.6665089900e-02,  -2.0313634000e-01
    1463,   6.5620146700e-02,  -1.6294966600e-01
    1464,  -3.9698684200e-01,  -3.2271811400e-01
    1465,  -2.4623458100e-01,  -1.1337504500e-01
    1466,  -3.6981102800e-01,  -2.0492759300e-01
    1467,  -3.9968583000e-01,  -1.5332269700e-01
    1468,  -3.5631755000e-01,  -3.9175397200e-01
    1469,   1.3663339600e-01,   1.2702329500e-01
    1470,  -2.1402224900e-01,  -4.5264864000e-01
    1471,  -3.7593090500e-01,  -5.4503839500e-02
    1472,   2.3190368700e-01,  -4.3065816200e-01
    1473,  -1.6374692300e-01,  -4.2450368400e-01
    1474,   2.7955260900e-01,  -4.0648868700e-01
    1475,   1.6522984200e-01,   1.3768594000e-01
    1476,  -3.8090285700e-01,  -8.3891525900e-02
    1477,   4.2006704200e-01,  -1.0192515700e-01
    1478,  -2.3043158700e-01,  -4.3760404000e-02
    1479,  -3.4541770800e-01,   4.2896536000e-01
    1480,  -1.2318164900e-01,   1.8942126600e-01
    1481,  -3.1492665400e-01,  -1.4341825200e-01
    1482,  -3.6115369200e-01,  -2.8930169300e-01
    1483,  -3.2648089500e-01,  -2.4034027800e-01
    1484,   1.9263106600e-01,   3.5149571300e-01
    1485,   1.6798853900e-01,   4.1143348800e-01
    1486,   2.0160983500e-01,   1.2382696600e-01
    1487,  -3.5593593100e-01,  -1.1982769500e-01
    1488,   2.9918789900e-01,   3.5778820500e-01
    1489,  -3.2970649000e-01,  -3.7936961700e-01
    1490,   3.9121300000e-01,  -1.0005761700e-01
    1491,   1.2410315900e-01,   1.9736868100e-01
    1492,  -4.0899017500e-01,  -3.1696385100e-01
    1493,   8.4861107200e-02,  -1.6382071400e-01
    1494,   2.3985879500e-02,  -3.9548635500e-01
    1495,   2.5461831700e-01,  -4.2953085900e-01
    1496,  -1.5349875400e-01,  -1.0001780800e-01
    1497,   4.3946281100e-01,  -3.5136511900e-01
    1498,  -1.8316179500e-01,  -3.9589113000e-01
    1499,  -6.5398618600e-02,   2.5202977700e-01
    1500,  -4.0111586500e-01,   3.5213825100e-01
    1501,  -3.4774562700e-01,  -7.0946894600e-02
    1502,  -2.2300000500e-01,   1.1747025000e-01
    1503,   8.5619069600e-02,  -1.4675302800e-01
    1504,   3.8007244500e-02,   2.2610355900e-01
    1505,   1.4947168500e-01,  -3.6286085800e-01
    1506,   1.1648874000e-01,  -3.8354364000e-01
    1507,  -3.2319679900e-01,   4.2272004500e-01
    1508,   4.1800621200e-01,  -3.7340810900e-01
    1509,  -4.1074135900e-01,   1.2280279400e-01
    1510,   3.6236658700e-01,  -3.6856609600e-01
    1511,  -2.9376652800e-01,  -4.0092700700e-01
    1512,  -2.2618936000e-01,  -4.0885072900e-01
    1513,  -9.7735729100e-03,  -3.6600413900e-01
    1514,  -1.1976053000e-02,  -2.1858964900e-01
    1515,   6.1602313100e-02,  -3.9946496500e-01
    1516,   4.3272909500e-01,   3.4534016300e-01
    1517,  -3.9410734200e-01,  -3.4683761000e-01
    1518,  -3.7070795900e-01,  -1.2061154800e-01
    1519,  -6.3456244800e-02,  -2.0641090000e-01
    1520,  -4.5070657500e-05,   2.4844351400e-01
    1521,  -3.1435039600e-01,  -1.7698954000e-01
    1522,   2.3096008600e-01,   1.1470033200e-01
    1523,  -2.9163336800e-01,  -2.4093876800e-01
    1524,   1.0517592000e-01,   2.4157632900e-01
    1525,  -2.9915448300e-02,   2.6580718200e-01
    1526,  -3.6918214000e-01,   1.3405539100e-01
    1527,  -5.0982620600e-02,  -2.3469498800e-01
    1528,  -3.5661467900e-01,  -9.2944249500e-02
    1529,  -3.8051649900e-01,   3.8243448700e-01
    1530,   3.2512047900e-01,   3.7300044300e-01
    1531,   1.9844956700e-01,   1.5722413400e-01
    1532,  -3.2784846400e-01,   3.9914321900e-01
    1533,  -3.6233535400e-01,  -1.7140652200e-01
    1534,  -3.0715575800e-01,  -2.9043635700e-01
    1535,  -3.7006181500e-01,  -3.1204006100e-01
    1536,   3.9267337300e-01,   3.2331782600e-01
    1537,   2.0080320500e-01,   3.0804786100e-01
    1538,   1.6864302800e-01,   3.4257921600e-01
    1539,   1.9669732500e-01,   6.9348417200e-02
    1540,   1.3455964600e-01,   1.4303787100e-01
    1541,   1.3354007900e-01,   2.4665808700e-01
    1542,  -9.0837694700e-02,   2.4320216500e-01
    1543,   1.5354198200e-01,   1.5563240600e-01
    1544,  -1.6587933900e-01,  -1.1694562400e-01
    1545,   4.4544167800e-02,   2.4865400800e-01
    1546,  -3.1575787100e-01,  -3.6118936500e-01
    1547,   2.9176715000e-01,   3.3560013800e-01
    1548,   4.0158730700e-01,  -3.5479107500e-01
    1549,  -3.8703528000e-01,   3.5909530500e-01
    1550,   1.2258223400e-01,  -3.5633257000e-01
    1551,  -4.3257214100e-02,   2.8921800900e-01
    1552,  -2.8385445500e-01,  -1.7763398600e-01
    1553,   1.6531358700e-01,  -3.4988701300e-01
    1554,   3.4546482600e-01,  -3.4978592400e-01
    1555,   2.5332140900e-01,  -4.0072995400e-01
    1556,  -1.6612265300e-02,  -2.4604985100e-01
    1557,  -3.6037549400e-02,  -2.5477042800e-01
    1558,  -6.7574521500e-03,   2.7575689600e-01
    1559,  -4.0895956800e-01,   1.3825963400e-01
    1560,   1.7296358900e-01,   1.6370016300e-01
    1561,   8.8478058600e-02,  -1.8128465100e-01
    1562,   1.5488834700e-01,   2.0218783600e-01
    1563,  -3.6520889400e-01,   3.6363282800e-01
    1564,  -3.7811681600e-01,  -3.5713288200e-01
    1565,  -1.4793381100e-01,  -1.3040170100e-01
    1566,   3.2794695300e-02,  -3.7757840800e-01
    1567,  -2.3561809200e-02,  -3.5360202200e-01
    1568,  -2.0214301300e-01,  -3.9128509200e-01
    1569,  -1.6102638800e-01,  -3.9785683200e-01
    1570,  -6.4556561400e-02,  -1.7836162400e-01
    1571,  -3.8537132700e-01,   1.6083528100e-01
    1572,  -3.5490495000e-01,   1.1131996700e-01
    1573,  -2.8998705700e-01,  -3.6596879400e-01
    1574,   4.0147778400e-01,   3.0221748400e-01
    1575,   2.2513420900e-01,   8.9601300700e-02
    1576,   2.0278555200e-01,   2.9005682500e-01
    1577,   3.9979001900e-01,  -3.1957098800e-01
    1578,  -2.8318890900e-01,   3.7970784300e-01
    1579,  -3.1814670600e-01,  -3.1200951300e-01
    1580,  -3.7875670200e-01,  -1.5598665200e-01
    1581,   2.9193343600e-02,  -3.5177546700e-01
    1582,   3.2068628100e-01,   3.5413122200e-01
    1583,  -2.0673440400e-01,  -9.1074660400e-02
    1584,  -2.3196491600e-01,  -4.3499329700e-01
    1585,  -3.8102477800e-01,  -3.3092942800e-01
    1586,   9.1052033000e-02,  -3.7235018600e-01
    1587,   1.9076065700e-01,  -3.8664767100e-01
    1588,   1.0616108000e-01,  -1.5250486100e-01
    1589,   8.8238969400e-02,   2.5234103200e-01
    1590,   1.1276109500e-01,  -1.1971037100e-01
    1591,   2.1322168400e-01,   2.0173382800e-01
    1592,   2.5166040700e-01,   3.3348619900e-01
    1593,  -3.4117236700e-01,   3.5530853300e-01
    1594,   2.1520842600e-01,   3.8673684000e-02
    1595,  -2.3716613700e-01,   1.6850119800e-01
    1596,   3.4635508100e-01,   3.1537315200e-01
    1597,  -2.7292060900e-01,   1.2260107700e-01
    1598,   2.5333586300e-01,   1.6204273700e-01
    1599,   3.1945812700e-01,   3.3454269200e-01
    1600,  -7.9989954800e-02,  -1.6175009300e-01
    1601,   2.5007441600e-01,   8.2831196500e-02
    1602,   3.5910300900e-02,   2.7771240500e-01
    1603,  -2.8627347900e-01,  -3.1980273100e-01
    1604,  -2.7340441900e-01,  -2.2391605400e-01
    1605,  -3.2681104500e-01,   1.2325857600e-01
    1606,  -3.9108570700e-02,  -2.8170946200e-01
    1607,  -4.2298600100e-02,  -3.3607751100e-01
    1608,  -2.6507028900e-01,  -1.6395659700e-01
    1609,  -4.1300129900e-01,   1.5546660100e-01
    1610,   6.7831918600e-02,  -3.5907626200e-01
    1611,   8.0573387400e-02,   2.8154066200e-01
    1612,   2.0665270100e-01,  -3.7386077600e-01
    1613,   9.8571434600e-02,   2.7149406100e-01
    1614,   9.8933413600e-02,  -3.4989294400e-01
    1615,  -2.2930650400e-01,  -6.7657053500e-02
    1616,  -6.4910128700e-02,   2.7231302900e-01
    1617,  -2.4546485400e-02,   2.8335502700e-01
    1618,   4.7561582200e-02,  -3.6212733400e-01
    1619,  -3.6340174100e-01,  -3.4191718700e-01
    1620,   1.2783905900e-01,   2.7860888800e-01
    1621,   1.2204621000e-01,   2.2897566900e-01
    1622,  -1.9897897500e-01,  -1.1430787300e-01
    1623,   5.1919940900e-02,  -2.0095472000e-01
    1624,  -4.3597005300e-02,  -3.7271377400e-01
    1625,  -1.1306335800e-01,  -1.2604339400e-01
    1626,  -8.4371745600e-02,  -2.3689113600e-01
    1627,   3.2907131300e-01,  -3.4607613100e-01
    1628,  -8.6186379200e-03,  -3.3937528700e-01
    1629,   3.2237657900e-01,   3.1359607000e-01
    1630,  -3.4553504000e-01,   3.3295157600e-01
    1631,   1.9403901700e-01,  -6.0370992900e-03
    1632,  -3.2139691700e-01,   8.8912837200e-02
    1633,   2.7468550200e-01,   3.2459944500e-01
    1634,  -2.9129383000e-01,  -3.0172154300e-01
    1635,  -9.1294109800e-02,  -2.0763441900e-01
    1636,  -1.5977281300e-01,  -3.6834165500e-01
    1637,  -1.0797070700e-01,   2.4367369700e-01
    1638,   2.3658570600e-01,   3.0666774500e-01
    1639,   1.8398021200e-01,   3.0400988500e-01
    1640,  -1.3473388600e-01,  -3.7540918600e-01
    1641,  -3.6697232700e-01,   3.3784204700e-01
    1642,   3.5645771000e-01,   3.5861301400e-01
    1643,  -4.0277111500e-01,  -1.7198772700e-01
    1644,   2.4655818900e-01,   1.9725994800e-01
    1645,  -2.9060384600e-01,   3.5614883900e-01
    1646,   1.4814875100e-02,   3.3554485400e-01
    1647,   1.6534103500e-01,   2.9537815600e-02
    1648,  -2.7981507800e-01,   1.6686300900e-01
    1649,   3.6821492000e-02,  -3.3955645600e-01
    1650,  -1.2121670700e-01,  -2.1096375600e-01
    1651,   2.5593286800e-01,   2.8527584700e-01
    1652,  -2.9899689600e-01,  -3.3883455400e-01
    1653,   3.8991007000e-03,  -3.2421073300e-01
    1654,   2.7789568900e-01,   3.0518627200e-01
    1655,  -5.2525050900e-02,  -2.9123386700e-01
    1656,  -1.1247639400e-01,  -1.6104647500e-01
    1657,   4.3494212600e-01,   3.1223610000e-01
    1658,  -1.1612976300e-01,   2.3043429900e-01
    1659,  -1.0108766000e-01,   2.6726737600e-01
    1660,  -1.3260988900e-01,   2.4595440900e-01
    1661,  -9.5231756600e-02,  -1.7693536000e-01
    1662,  -2.8455579700e-02,  -3.0054673600e-01
    1663,  -3.5317659400e-02,  -3.1963408000e-01
    1664,   3.6836057900e-01,   3.4244892000e-01
    1665,   2.7522271900e-01,   7.5802579500e-02
    1666,  -2.0848346900e-02,  -3.2756486500e-01
    1667,  -8.5807539500e-02,   2.9113823200e-01
    1668,  -2.4822017600e-01,  -8.6755335300e-02
    1669,  -3.9940942100e-02,  -3.8933411200e-01
    1670,   2.3634638600e-02,  -2.1956050400e-01
    1671,  -1.0898710800e-01,  -1.9354598200e-01
    1672,   2.4438504900e-01,   5.8185078200e-02
    1673,   1.5717577900e-01,   2.8044125400e-01
    1674,  -4.3700704000e-01,   1.4719474300e-01
    1675,   2.3937641100e-01,   2.4566231700e-01
    1676,   2.3634144700e-01,   2.8840586500e-01
    1677,   2.2591203500e-03,   3.6455947200e-01
    1678,   2.3908707500e-01,   3.1509339800e-02
    1679,  -3.4968501300e-01,  -3.2308769200e-01
    1680,  -3.4545525900e-01,   1.5713529300e-01
    1681,  -3.7914416200e-01,  -1.8534605200e-01
    1682,   1.8468100600e-02,   2.8614014400e-01
    1683,   6.2463756700e-02,   2.9051870100e-01
    1684,  -1.0998313100e-01,  -3.5753172600e-01
    1685,  -3.3685213300e-01,   1.0376361800e-01
    1686,   3.5139247800e-01,  -3.3388665300e-01
    1687,  -2.4406543400e-01,  -1.4995780600e-01
    1688,  -1.6532447900e-01,  -1.5012197200e-01
    1689,   3.1114867300e-01,   2.7990222000e-01
    1690,  -5.5458679800e-02,   3.1526070800e-01
    1691,   1.5094363700e-01,   2.3307815200e-01
    1692,  -2.7194654900e-01,  -1.9409598400e-01
    1693,   2.8383731800e-01,   2.0483854400e-01
    1694,  -3.2244470700e-01,   2.8333053000e-01
    1695,  -4.1135263400e-01,   2.1675498800e-01
    1696,  -2.7894336000e-01,   3.1999287000e-01
    1697,   5.2759502100e-02,   3.1980094300e-01
    1698,   1.2434868500e-01,   3.1561678600e-01
    1699,   8.0343261400e-02,   3.3270153400e-01
    1700,  -9.9926173700e-02,   3.1527143700e-01
    1701,  -1.7849154800e-02,   3.7199258800e-01
    1702,  -7.2741925700e-02,   3.2395649000e-01
    1703,  -3.7280193000e-01,   3.1329062600e-01
    1704,  -2.8007292700e-01,  -3.3212876300e-01
    1705,   2.6259547500e-01,   2.7989633400e-02
    1706,  -3.2575905300e-01,  -3.3867800200e-01
    1707,   3.3444854600e-01,  -3.2412621400e-01
    1708,   3.0067125300e-02,  -3.2559680900e-01
    1709,  -1.4635154600e-01,  -1.6476951500e-01
    1710,  -1.1371382300e-01,  -2.4108745200e-01
    1711,   5.2292395400e-02,  -2.2498621000e-01
    1712,   1.6968108700e-01,   2.9400903000e-01
    1713,   2.8010994200e-01,   2.8166252400e-01
    1714,   4.2642119500e-01,   2.9312592700e-01
    1715,   1.6793696600e-01,   2.1976611000e-01
    1716,  -4.3646562800e-02,  -3.0193108300e-01
    1717,  -2.9968092200e-02,   3.2859358200e-01
    1718,  -7.6934322700e-02,  -2.9270464200e-01
    1719,   2.8161022100e-01,   9.8164998000e-02
    1720,  -1.4054346100e-01,  -1.9794286800e-01
    1721,  -2.3431100000e-01,  -2.1737544200e-01
    1722,  -1.3082449100e-01,   2.7877485800e-01
    1723,  -6.6285893300e-02,  -4.0045082600e-01
    1724,  -2.0149117300e-03,  -2.9844909900e-01
    1725,  -2.5254514800e-01,  -3.6335030200e-01
    1726,   6.9364704200e-02,   3.6317446800e-01
    1727,   4.1740421200e-02,   3.4902682900e-01
    1728,  -1.3962250900e-01,   1.9856631800e-01
    1729,  -3.4620490700e-01,  -1.9037245200e-01
    1730,  -3.0091053200e-01,   2.7640289100e-01
    1731,  -4.5002028300e-02,  -3.5398513100e-01
    1732,   3.6549830400e-01,  -3.1842428400e-01
    1733,  -1.4637751900e-01,   2.2977219500e-01
    1734,  -1.1352655500e-02,  -3.1276848900e-01
    1735,   3.2388892800e-01,   2.1539062300e-01
    1736,  -2.0379929200e-01,  -1.5313884600e-01
    1737,   2.7632513600e-01,   2.5890284800e-01
    1738,   2.7721667300e-01,   1.4886851600e-01
    1739,  -2.8155848400e-01,   2.6486000400e-01
    1740,   3.1259208900e-01,  -3.1630238900e-01
    1741,  -3.8180626900e-02,   3.7685295900e-01
    1742,  -2.7535203100e-01,  -2.9117426300e-01
    1743,  -3.1807684900e-01,  -2.0756512900e-01
    1744,  -2.3983795900e-01,  -3.1685262900e-01
    1745,   1.0753889400e-01,   3.4549325700e-01
    1746,  -4.9819428500e-02,  -3.1420701700e-01
    1747,  -1.6055035600e-01,   2.1016588800e-01
    1748,  -4.2324487100e-02,   3.5528713500e-01
    1749,  -6.4115025100e-02,  -3.7852460100e-01
    1750,  -2.3619957300e-01,  -3.7705400600e-01
    1751,  -6.7632578300e-02,  -3.5147872600e-01
    1752,   3.6050781600e-01,  -2.8177666700e-01
    1753,  -2.3790091300e-01,  -3.4688258200e-01
    1754,  -1.5168523800e-01,  -2.1736703800e-01
    1755,  -1.3087669000e-01,   3.1292602400e-01
    1756,  -1.6094233100e-01,  -1.8475846900e-01
    1757,   3.0480063000e-01,   1.6069954300e-02
    1758,   8.5784539600e-02,  -2.3541432600e-01
    1759,  -7.9564273400e-02,  -2.6541113900e-01
    1760,   2.5669431700e-01,   1.0601407300e-01
    1761,  -2.4564662600e-01,  -2.5630784000e-01
    1762,   2.8729552000e-01,   1.1871957800e-01
    1763,  -3.2610663800e-01,   2.5850558300e-01
    1764,  -1.2495338900e-01,   1.7346479000e-01
    1765,   4.1385598500e-02,  -3.0118978000e-01
    1766,  -8.7771467900e-02,  -3.0727109300e-01
    1767,   1.5815462200e-01,   3.1084728200e-01
    1768,  -3.6764636600e-01,   2.8827494400e-01
    1769,   2.4127049700e-01,   1.3886892800e-01
    1770,  -1.9723118800e-01,  -1.9372117500e-01
    1771,   4.8595659400e-02,  -3.1960094000e-01
    1772,  -3.9509302400e-01,   3.2719960800e-01
    1773,   1.8390241300e-01,   2.0654606800e-01
    1774,  -3.4581613500e-01,  -3.5768923200e-01
    1775,  -1.6475290100e-01,   2.8322273500e-01
    1776,   7.7609270800e-02,  -3.1759989300e-01
    1777,  -8.2757465500e-02,  -3.3358827200e-01
    1778,  -2.2385424400e-01,  -3.6104247000e-01
    1779,   1.2047428600e-01,   3.6709368200e-01
    1780,  -3.5002297200e-01,   2.3915728900e-01
    1781,  -4.0333890900e-01,   2.8743159800e-01
    1782,  -1.7297776000e-01,  -2.0580199400e-01
    1783,  -2.6962569400e-01,   2.8349727400e-01
    1784,  -3.0715423800e-01,   2.3662167800e-01
    1785,  -2.7638137300e-01,  -2.5667467700e-01
    1786,  -7.2991065700e-02,  -3.1943631200e-01
    1787,  -2.4500487700e-01,  -2.8701755400e-01
    1788,  -2.0528382100e-01,  -2.2018723200e-01
    1789,   3.2350468600e-01,  -2.8792733000e-01
    1790,  -3.5215362900e-02,   3.9946812400e-01
    1791,   1.2265025800e-01,   3.3771798000e-01
    1792,  -1.6401015200e-01,   2.4666625300e-01
    1793,   9.0660773200e-02,  -2.1342980900e-01
    1794,   1.8416507200e-02,  -2.8175681800e-01
    1795,  -1.6085006300e-01,  -2.3754547500e-01
    1796,   1.9793529800e-01,   2.5438371300e-01
    1797,  -1.9984565700e-01,   2.8686434000e-01
    1798,   3.1692978700e-01,   1.5150398000e-01
    1799,  -3.6400148300e-01,  -3.7095490100e-01
    1800,  -7.8411683400e-02,   3.6106148400e-01
    1801,  -1.7531579700e-01,   1.8358762600e-01
    1802,  -3.4591561600e-01,   2.8645584000e-01
    1803,  -9.1215044300e-02,  -2.8058698800e-01
    1804,  -1.4803822300e-01,   1.5674614900e-01
    1805,   3.0922368200e-01,   1.1644787300e-01
    1806,   1.7689503700e-01,   3.2187318800e-01
    1807,   2.6086974100e-01,   2.3758523200e-03
    1808,  -1.0672730200e-01,   3.3874884200e-01
    1809,  -1.6512204700e-01,   3.2060802000e-01
    1810,  -1.2993311900e-01,   3.4572145300e-01
    1811,  -4.1150200400e-01,   2.7327400400e-01
    1812,  -1.9831851100e-01,   2.4682046500e-01
    1813,  -2.0094709100e-01,  -3.7186071300e-01
    1814,  -2.5810647000e-01,  -2.3871533600e-01
    1815,  -1.2402179100e-01,  -2.5931572900e-01
    1816,  -9.5458790700e-02,   3.5833945900e-01
    1817,   1.3732102500e-01,   3.5027688700e-01
    1818,   9.1738835000e-02,  -3.3790338000e-01
    1819,   6.7411132200e-02,  -2.8256219600e-01
    1820,  -2.6677262800e-01,   2.4818983700e-01
    1821,  -1.1522422700e-01,  -2.8681957700e-01
    1822,  -1.1557992500e-01,  -3.0779108400e-01
    1823,  -2.0721489200e-01,  -2.4452836800e-01
    1824,  -8.9478030800e-02,  -3.5849261300e-01
    1825,  -2.3556162400e-01,   2.8688216200e-01
    1826,  -3.2637947800e-01,   2.3278720700e-01
    1827,  -3.7324184200e-01,   2.6427358400e-01
    1828,   1.3824397300e-01,   3.9246138900e-01
    1829,  -3.8904514900e-01,   2.7727282000e-01
    1830,  -2.0257961800e-01,   3.2909634700e-01
    1831,  -1.8730239600e-01,  -2.5064903500e-01
    1832,  -2.1114204800e-01,  -3.1361770600e-01
    1833,  -2.0980991400e-01,  -2.6523608000e-01
    1834,  -1.7578716600e-01,  -3.4619435700e-01
    1835,   3.1948483000e-01,  -2.6125341700e-01
    1836,  -3.9818048500e-01,   2.6866632700e-01
    1837,  -1.8529705700e-01,  -3.0263015600e-01
    1838,  -1.2334605300e-01,  -3.3085519100e-01
    1839,  -4.2862391500e-01,   2.8018659400e-01
    1840,   1.1892568300e-01,  -2.0240780700e-01
    1841,  -7.9023823100e-02,   3.8084346100e-01
    1842,  -2.3324328700e-01,   2.4727007700e-01
    1843,   8.6201846600e-02,  -2.7640053600e-01
    1844,   8.4905549900e-02,   4.1067358900e-01
    1845,   1.0682027800e-01,  -3.1400647800e-01
    1846,  -3.2027912100e-01,   1.9959493000e-01
    1847,  -1.6062088300e-01,   3.5734033600e-01
    1848,   1.1119103400e-01,  -3.4038129400e-01
    1849,  -1.3445355000e-01,  -2.7927693700e-01
    1850,  -4.4066736100e-01,   3.0818003400e-01
    1851,  -1.4016220000e-01,  -3.2434946300e-01
    1852,  -4.2044773700e-01,   2.3529589200e-01
    1853,  -1.5288743400e-01,  -2.8155416300e-01
    1854,  -2.7055895300e-01,   2.1051652700e-01
    1855,   3.2954847800e-01,  -2.3042094700e-01
    1856,  -1.7352201000e-01,  -2.8194221900e-01
    1857,  -1.5001277600e-01,  -2.6558858200e-01
    1858,  -5.7375904200e-02,   4.0186125000e-01
    1859,   1.1137020600e-01,  -2.6974922400e-01
    1860,  -2.0555108800e-01,  -3.4834557800e-01
    1861,  -3.0620047500e-01,   2.1814544500e-01
    1862,  -3.9440712300e-01,   2.3905839000e-01
    1863,   1.1821049500e-01,  -2.9970780000e-01
    1864,  -3.4898805600e-01,   1.9175636800e-01
    1865,   1.2044166000e-01,  -2.4576203500e-01
    1866,  -1.1285538200e-01,   3.5447698800e-01
    1867,  -2.2327686800e-01,  -2.6088583500e-01
    1868,   9.0623639500e-02,  -2.6171356400e-01
    1869,   2.9575005200e-01,  -2.8136575200e-01
    1870,   1.3529743300e-01,  -3.1484073400e-01
    1871,  -8.0192506300e-02,   4.2572212200e-01
    1872,  -1.5597888800e-01,  -3.1755566600e-01
    1873,   1.3689969500e-01,  -3.4493985800e-01
    1874,  -4.2650964900e-01,   3.2511240200e-01
    1875,  -3.7787881500e-01,   1.9040834900e-01
    1876,  -3.3144208800e-01,   1.7921663800e-01
    1877,   2.8458052900e-01,  -2.2690947400e-01
    1878,   9.7920969100e-02,  -2.4794553200e-01
    1879,  -4.3338018700e-01,   2.6217851000e-01
    1880,  -1.2474353600e-01,   3.9708468300e-01
    1881,  -2.1792163000e-01,  -2.8357449200e-01
    1882,  -2.3413796700e-01,   2.0782142900e-01
    1883,  -2.8987318300e-01,   1.9618314500e-01
    1884,   1.5127402500e-01,  -3.3166033000e-01
    1885,   1.4775627900e-01,  -2.9965871600e-01
    1886,  -4.1250681900e-01,   3.3948007200e-01
    1887,  -1.0219107600e-01,   4.0102464000e-01
    1888,  -3.7295621600e-01,   2.2414754300e-01
    1889,  -1.9850356900e-01,   1.6484893900e-01
    1890,  -1.6415822500e-01,  -3.3422321100e-01
    1891,  -3.6679232100e-01,   1.5003439800e-01
    1892,  -1.2934304800e-01,   4.2171040200e-01
    1893,   1.9444441800e-01,  -3.5563346700e-01
    1894,   1.5884620000e-01,  -2.8514689200e-01
    1895,  -3.0864122500e-01,   1.6962678700e-01
    1896,  -4.2654684200e-01,   3.5293048600e-01
    1897,  -1.9158017600e-01,  -3.2674410900e-01
    1898,  -1.9794696600e-01,   3.7403941200e-01
    1899,   2.2114630000e-01,  -3.6297637200e-01
    1900,   1.8262134500e-01,  -2.7486011400e-01
    1901,  -1.3252992900e-01,   4.4791716300e-01
    1902,   1.9835181500e-01,  -3.2336968200e-01
    1903,   1.9469443000e-01,  -2.5678077300e-01
    1904,   2.0587779600e-01,  -2.9199156200e-01
    1905,   2.3315675600e-01,  -3.5460868500e-01
    1906,   2.1686758100e-01,  -3.1278860600e-01
    1907,   1.9983658200e-01,  -2.7216655000e-01
    1908,   2.3369424000e-01,  -3.0114677500e-01
    1909,   2.1579146400e-01,  -2.6380330300e-01
    1910,   2.3515124600e-01,  -3.8004240400e-01
    1911,   2.7236780500e-01,  -3.5550102600e-01
    1912,   2.3222626700e-01,  -3.3477807000e-01
    1913,   2.4632786200e-01,  -3.1776031900e-01
    1914,   2.7854445600e-01,  -3.3701980100e-01
    1915,   2.4205014100e-01,  -2.7456432600e-01
    1916,   3.0863118200e-01,  -3.6566203800e-01
    1917,   2.7002325700e-01,  -3.1382855800e-01
    1918,   2.3250511300e-01,  -2.5353461500e-01
    1919,   2.3720948400e-01,  -2.1948032100e-01
    1920,   2.1846430000e-01,  -2.3199263200e-01
    1921,   2.7259364700e-01,  -2.9827535200e-01
    1922,   3.1199044000e-01,  -3.4317931500e-01
    1923,   2.8479316800e-01,  -3.8345354800e-01
    1924,   3.2662907200e-01,  -3.6807382100e-01
    1925,   2.6560977100e-01,  -2.7273759200e-01
    1926,   2.2283904300e-01,  -1.9579130400e-01
    1927,   2.4859055900e-01,  -1.8162822700e-01
    1928,   2.6729792400e-01,  -2.3314145200e-01
    1929,   2.8375124900e-01,  -2.0323246700e-01
    1930,   4.5000806500e-02,  -4.7908043900e-01
    1931,   1.9843339900e-02,  -4.7878605100e-01
    1932,  -4.9158787700e-01,   4.9190244100e-01
    1933,  -4.6959713100e-01,  -4.9030494700e-01
    1934,   4.7643503500e-01,  -1.2712289400e-01
    1935,   4.7755411300e-01,  -1.4970204200e-01
    1936,   4.7741496600e-01,  -1.6635845600e-01
    1937,  -2.0839765700e-01,   4.7621980300e-01
    1938,  -4.7568216900e-01,   5.0690382700e-02
    1939,  -3.6241927700e-01,   2.7000183200e-02
    1940,  -4.7492995900e-01,   4.8849594600e-01
    1941,   4.5719626500e-01,  -1.7063446300e-01
    1942,  -4.7898128600e-01,  -4.8013472600e-01
    1943,   4.7720617100e-01,  -4.8358744400e-01
    1944,   4.6882605600e-01,   4.6043711900e-01
    1945,  -4.3896356200e-01,   1.1522945000e-01
    1946,   3.2510709800e-01,  -4.5607027400e-01
    1947,  -4.7257718400e-01,   4.7772318100e-01
    1948,  -3.6741989900e-01,   4.5532956700e-01
    1949,   4.5683354100e-01,   3.3117917200e-01
    1950,  -7.1870029000e-02,  -3.3970434200e-02
    1951,  -4.9841981400e-02,  -2.6698635900e-02
    1952,   4.7441044400e-01,  -4.6062549900e-01
    1953,  -4.0981560900e-01,  -8.1139452800e-02
    1954,  -4.7686895700e-01,   4.6380907300e-01
    1955,  -4.6230778100e-01,   4.0404462800e-01
    1956,  -8.4914431000e-02,  -4.5100674000e-01
    1957,  -4.5698362600e-01,  -2.7499347900e-01
    1958,  -2.5863228400e-02,   2.6123637300e-02
    1959,  -9.8786369000e-02,   3.4534320200e-02
    1960,   4.1538903100e-01,   4.2093709100e-01
    1961,  -2.0502223100e-01,   4.0452867700e-02
    1962,   4.1812482500e-01,   4.7554692600e-01
    1963,   3.7626969800e-01,   4.6483960700e-01
    1964,  -1.1060302700e-01,  -8.8754713500e-02
    1965,  -1.7074553700e-01,  -6.4149446800e-02
    1966,  -6.5392933800e-02,  -4.8624176500e-02
    1967,  -4.6500232100e-02,  -3.9690926700e-02
    1968,  -2.8170123700e-02,  -3.4506689800e-02
    1969,   1.7490012900e-01,   4.3896615500e-01
    1970,  -2.5681859300e-01,  -4.4242617500e-01
    1971,  -4.2971754100e-01,  -4.1825383900e-01
    1972,  -3.9354676000e-01,  -9.5906965400e-02
    1973,  -4.2855671000e-01,   4.3555700800e-01
    1974,  -2.7776280000e-01,   4.0482473400e-01
    1975,  -1.9944365300e-01,   4.5259955500e-01
    1976,  -5.4939180600e-02,   4.4958829900e-01
    1977,  -3.2362544400e-03,   4.4403389100e-01
    1978,   2.3406732800e-02,   4.4817146700e-01
    1979,   6.8958379300e-02,   4.4143214800e-01
    1980,   1.0705284800e-01,   4.5171460500e-01
    1981,   3.9505708200e-01,   2.0556980400e-01
    1982,   4.2165064800e-01,   1.4561992900e-01
    1983,   4.1338744800e-01,   1.2638209800e-01
    1984,   4.3611544400e-01,   5.9950567800e-02
    1985,   4.3659442700e-01,   4.4428706200e-02
    1986,   4.5831316700e-01,  -4.4568729400e-01
    1987,   4.1265976400e-01,  -4.3212482300e-01
    1988,   1.8964576700e-01,  -4.1865837600e-01
    1989,   1.7438842400e-01,  -4.0123069300e-01
    1990,  -2.4962437200e-01,   4.1732728500e-01
    1991,   4.1097390700e-01,   3.9306590000e-01
    1992,  -4.3434768900e-01,  -2.6956751900e-01
    1993,   3.9786839500e-01,   2.3647864200e-01
    1994,  -4.3633487800e-01,  -2.4704994300e-01
    1995,   4.3555378900e-01,  -1.7201560700e-01
    1996,  -9.5073886200e-02,  -7.8534051800e-02
    1997,   1.1435116800e-01,   4.2450708200e-01
    1998,   1.3296535600e-01,   4.1734412300e-01
    1999,   5.8058977100e-02,  -2.5145001700e-02
    2000,  -1.1670659500e-01,   5.4277554200e-02
    2001,   2.9368881100e-02,  -3.1862691000e-02
    2002,  -5.1150165500e-02,  -5.3562749200e-02
    2003,  -6.5150857000e-02,  -7.0585168900e-02
    2004,   3.6089399500e-01,   1.5521812400e-01
    2005,  -2.5805318400e-01,  -4.1012802700e-01
    2006,   4.2312929000e-01,   2.8752716300e-02
    2007,   3.8943091000e-01,  -1.2967634200e-01
    2008,  -3.9057093900e-01,  -3.7071493300e-01
    2009,  -2.3418402700e-01,   4.0736657400e-01
    2010,  -1.8651977200e-01,   4.3165704600e-01
    2011,   3.9511799800e-01,   3.7899759400e-01
    2012,   2.3250341400e-02,   4.2642024200e-01
    2013,  -3.0587667200e-01,   3.9013347000e-01
    2014,  -4.0800690700e-01,   3.1273213000e-01
    2015,  -4.2539853600e-02,  -4.0519386500e-01
    2016,  -3.3548504100e-02,   4.2289021600e-01
    2017,   3.5216596700e-01,   2.0023414500e-01
    2018,   3.8154977600e-01,   3.8997489200e-01
    2019,   7.4247275500e-03,   4.2760941400e-01
    2020,  -1.5692205700e-01,  -7.9124875400e-02
    2021,   4.2058819500e-01,   6.8062514100e-02
    2022,  -4.3150290800e-01,  -1.4073734000e-01
    2023,  -4.1610494300e-01,  -1.4819513300e-01
    2024,  -3.9646792400e-01,  -1.3681653100e-01
    2025,  -1.8749043300e-01,  -8.5942804800e-02
    2026,  -4.1243767700e-01,  -2.4249252700e-01
    2027,   6.4949087800e-02,   3.9416290800e-02
    2028,   3.5888624200e-01,   4.4519493000e-01
    2029,   3.2406854600e-01,   4.4722420000e-01
    2030,  -3.8521835200e-01,  -2.8488341000e-01
    2031,   1.0830132700e-01,   4.0143117300e-01
    2032,  -2.1353964500e-01,   3.9381092800e-01
    2033,  -3.3229553700e-01,  -9.3544513000e-02
    2034,  -7.2290144900e-02,   6.9039061700e-02
    2035,  -8.7193287900e-02,   7.1607559900e-02
    2036,  -1.5186084800e-01,   7.2899363900e-02
    2037,  -1.6771170500e-01,   7.1460723900e-02
    2038,   4.1779312500e-01,   1.6277963300e-02
    2039,  -3.8667610300e-01,   3.9741265800e-01
    2040,  -3.3412712800e-01,   3.7656739400e-01
    2041,  -2.4236710400e-01,   3.2874107400e-01
    2042,   3.8806441400e-01,  -1.8946637200e-01
    2043,   3.5464298700e-01,  -1.2503667200e-01
    2044,  -3.8473534600e-01,  -4.2340883600e-01
    2045,  -3.7805706300e-01,  -3.7789401400e-01
    2046,  -2.4637454700e-01,  -3.9399653700e-01
    2047,  -1.3699677600e-01,  -4.0040063900e-01
    2048,  -3.4521538000e-01,  -4.1283282600e-01
    2049,   5.0840046300e-02,  -6.0136240000e-02
    2050,   7.3681637600e-02,  -4.6597681900e-02
    2051,   3.8347634700e-01,   3.6251178400e-01
    2052,  -4.2488345500e-01,   1.9234946400e-01
    2053,  -4.2715585200e-01,   2.0862267900e-01
    2054,   7.7666752000e-02,   3.8633853200e-01
    2055,   3.4773466000e-01,   2.9258608800e-01
    2056,  -7.5371272900e-02,  -7.6306358000e-02
    2057,   7.6138298000e-04,   4.1239741400e-01
    2058,  -4.3536511100e-01,  -1.5618667000e-01
    2059,  -2.8945055600e-01,  -3.8760861800e-01
    2060,   3.3047455500e-01,   4.1601085700e-01
    2061,  -3.8392207000e-01,  -1.4106138100e-01
    2062,   7.9956181300e-02,  -3.9596435400e-01
    2063,  -7.9719848900e-02,   4.0259254000e-01
    2064,   2.9293185500e-01,   1.6901122000e-01
    2065,  -3.1763824800e-01,   1.4644235400e-01
    2066,   5.4788839100e-02,   5.7287029900e-02
    2067,   4.2187910500e-02,   5.9488959600e-02
    2068,   1.7807211700e-02,   4.0526974200e-01
    2069,  -4.0462046900e-01,   1.9849602900e-01
    2070,  -3.6347842200e-01,  -1.4021380200e-01
    2071,  -3.1968745600e-01,   3.4637197900e-01
    2072,  -1.1931153400e-01,   3.7459412200e-01
    2073,  -8.7366588400e-02,   9.2043370000e-02
    2074,  -1.3990403700e-01,   9.3784898500e-02
    2075,  -1.7268148100e-01,   8.7493456900e-02
    2076,   2.4711714700e-01,  -3.6423462600e-01
    2077,   3.7008750400e-01,   3.1830680400e-01
    2078,   2.6145544800e-03,   7.0762328800e-02
    2079,   3.0134615300e-01,   6.8456314500e-02
    2080,   2.9271858900e-01,   4.5579597400e-02
    2081,   2.9788336200e-01,   1.3484403500e-01
    2082,   3.7072897000e-03,  -3.5277864300e-01
    2083,  -1.1154428100e-01,  -3.7894341300e-01
    2084,   1.2547329100e-01,   3.8948237900e-02
    2085,  -3.8241794700e-01,   2.8852745900e-01
    2086,   6.9031208800e-02,  -6.4868621500e-02
    2087,   2.1829615500e-01,   3.2943943100e-01
    2088,   8.9145541200e-02,   3.5477331300e-01
    2089,   3.3390587600e-01,  -2.0822404000e-02
    2090,  -3.4735354800e-01,  -1.5107761300e-01
    2091,  -2.3868124200e-01,   1.3134245600e-01
    2092,  -3.9202842100e-01,   2.2211796000e-01
    2093,   3.4783296300e-02,   6.1944615100e-02
    2094,   3.0576956300e-01,  -1.3915266100e-01
    2095,  -2.0650166300e-01,  -4.0716624300e-01
    2096,   2.5493657600e-01,   4.0576019900e-01
    2097,   1.6618581100e-01,  -3.1674453600e-01
    2098,  -2.6890784500e-01,  -3.4863665700e-01
    2099,   4.1126228900e-02,   7.0554569400e-02
    2100,   3.3117763700e-02,   6.9554358700e-02
    2101,   6.6921003200e-03,  -5.6045152200e-02
    2102,   3.3522707200e-01,   3.9137506500e-01
    2103,   1.1050378500e-01,  -4.2369060200e-02
    2104,   2.3575498200e-01,   3.2350674300e-01
    2105,   9.7399363300e-03,   3.8585785000e-01
    2106,   2.9751811200e-02,   3.7801754500e-01
    2107,   7.3867015500e-02,  -3.7708923200e-01
    2108,   5.7222675500e-02,  -3.8117903500e-01
    2109,   4.1276741000e-01,  -2.4094672500e-01
    2110,  -2.1953150600e-02,  -6.7838110000e-02
    2111,   3.4364479800e-01,   3.6740914000e-01
    2112,   2.8489303600e-01,   2.3988505800e-02
    2113,   2.9374131600e-01,   4.2134350500e-01
    2114,   3.0219554900e-01,   3.7976428900e-01
    2115,  -2.1457360700e-01,  -3.7330246000e-01
    2116,  -6.0524538200e-02,   3.5950797800e-01
    2117,  -2.3637488500e-02,   3.4980419300e-01
    2118,  -3.2706552700e-01,  -2.7696120700e-01
    2119,  -1.2934913700e-04,   9.1001711800e-02
    2120,  -2.8048643800e-02,   1.1322202500e-01
    2121,  -4.4310517600e-02,   1.2073365600e-01
    2122,   8.0789394700e-02,  -7.4272535700e-02
    2123,   2.6095116100e-01,   2.1670317600e-01
    2124,   3.4471136300e-01,  -3.6941462800e-01
    2125,   3.9298129100e-01,  -3.6792990600e-01
    2126,   2.9049009100e-01,  -3.6186853100e-01
    2127,  -2.6619601200e-01,  -3.1861406600e-01
    2128,  -1.0728713100e-02,  -7.3869407200e-02
    2129,  -3.2759964500e-01,   3.3055347200e-01
    2130,  -2.9152059600e-01,   2.9794076100e-01
    2131,   6.1102379100e-02,   3.4118041400e-01
    2132,  -1.4791587000e-01,  -3.4554597700e-01
    2133,   1.4023092400e-01,   1.6700787500e-02
    2134,  -1.8723057200e-01,  -3.5512530800e-01
    2135,  -2.2003378000e-01,   1.4934346100e-01
    2136,   2.5394779400e-01,  -1.3673695900e-01
    2137,   8.4288835500e-02,  -3.5541689400e-01
    2138,  -3.7219378400e-01,   2.4180443600e-01
    2139,  -3.7442624600e-01,   2.1095432300e-01
    2140,   2.9635524700e-01,   2.5498592300e-03
    2141,   3.2150495100e-01,  -4.9774359900e-02
    2142,  -3.0067607800e-01,  -1.9279459100e-01
    2143,   3.4081456100e-01,   3.5289654100e-01
    2144,  -2.1436277800e-02,  -7.7572085000e-02
    2145,   2.9815641000e-01,   4.0639618000e-01
    2146,   9.0875648000e-02,   3.0232006300e-01
    2147,   1.5061500700e-01,   7.5954064700e-02
    2148,  -7.7572740600e-02,   3.4554716900e-01
    2149,  -6.4501531400e-02,   3.4051066600e-01
    2150,  -4.7913495500e-02,   3.3478337500e-01
    2151,  -1.1310189000e-02,   3.2198926800e-01
    2152,  -3.3722931100e-01,   2.1104690400e-01
    2153,  -3.5507282600e-01,   2.1969278200e-01
    2154,  -3.2643756300e-01,  -1.9200326500e-01
    2155,  -2.4409131100e-03,  -8.4114663300e-02
    2156,   7.5941612000e-03,   3.1467431800e-01
    2157,  -2.5612857900e-01,  -3.0327421400e-01
    2158,  -2.9269015800e-01,  -2.7367121000e-01
    2159,  -8.9939676200e-02,   1.3191975700e-01
    2160,  -1.0741589200e-01,   1.3305506100e-01
    2161,   9.5524326000e-02,  -8.3097487700e-02
    2162,   3.0206453800e-01,  -2.2976391000e-01
    2163,   3.1390494100e-01,  -2.4160869400e-01
    2164,  -9.2707239100e-02,  -3.4315946700e-01
    2165,   2.1882081000e-01,   2.8865507200e-01
    2166,   1.6440202300e-01,  -2.7061381900e-01
    2167,   2.6189860700e-01,  -3.2911080100e-01
    2168,   3.6075323800e-01,  -3.4829646300e-01
    2169,   2.4273501300e-01,   2.2548317900e-01
    2170,   2.2924783800e-01,   2.1425862600e-01
    2171,   7.9450950000e-02,  -3.3839175100e-01
    2172,   6.5117642300e-02,  -3.4096151600e-01
    2173,   1.4283315800e-01,  -8.5176909300e-03
    2174,   1.6973561000e-01,   5.1157828400e-02
    2175,  -2.5106785800e-02,   1.2988627000e-01
    2176,  -3.0598223200e-01,  -2.2467915700e-01
    2177,   1.8307648600e-01,   2.8060030900e-01
    2178,   1.6358526100e-01,   2.5012680900e-01
    2179,   3.3981934200e-02,   3.2782787100e-01
    2180,   7.3549881600e-02,   1.4450551600e-01
    2181,   5.5834624900e-02,   1.1471824300e-01
    2182,   3.4231770000e-01,  -2.7450376700e-01
    2183,   2.8528612900e-01,  -1.7836028700e-02
    2184,   2.3540601100e-01,   2.7335581200e-01
    2185,  -2.9187828300e-01,   2.5171470600e-01
    2186,   2.0026049000e-01,   2.7324953700e-01
    2187,  -2.3564284700e-02,   1.5324948700e-01
    2188,   2.4936471100e-02,  -1.6402252000e-01
    2189,   6.3872367100e-02,  -3.2585042700e-01
    2190,  -2.5787004800e-01,  -2.0584297200e-01
    2191,   2.8129825000e-01,   3.0283771900e-03
    2192,   1.7574155300e-01,   9.5280624900e-02
    2193,   1.0072629200e-01,  -2.8705310800e-01
    2194,   1.0633608700e-01,  -9.6287816800e-02
    2195,   1.3603033100e-01,  -8.4174178500e-02
    2196,  -3.6910675500e-02,   3.0856624200e-01
    2197,  -1.8124831800e-02,   3.0201524500e-01
    2198,   4.1176568700e-02,  -2.8018200400e-01
    2199,  -8.0595945500e-04,  -2.8280457900e-01
    2200,   1.9879587000e-01,   2.2033938800e-01
    2201,  -1.5181788800e-01,  -2.9931497600e-01
    2202,   3.3437430900e-02,   1.1573541200e-01
    2203,   3.0056616700e-01,  -2.4421060100e-01
    2204,   2.9916077900e-01,  -2.6105749600e-01
    2205,   8.7086819100e-02,   1.6200609500e-01
    2206,   1.7435576000e-01,   1.1727598300e-01
    2207,  -1.2670312800e-01,   1.5440148100e-01
    2208,   1.6824774400e-01,  -2.5632765900e-01
    2209,   1.5790313500e-01,  -2.4396771200e-01
    2210,  -1.0664532300e-01,  -2.6967728100e-01
    2211,   1.9748960400e-01,   1.9466343500e-01
    2212,   4.4446330500e-02,   2.9882049600e-01
    2213,   1.8477764700e-01,  -7.9608961900e-02
    2214,   1.9828043900e-01,  -3.9292343000e-02
    2215,  -9.8247490800e-02,  -3.2110282800e-01
    2216,   1.8613003200e-01,   2.4590134600e-02
    2217,   2.0773671600e-01,   1.4400783900e-02
    2218,  -6.6345565000e-02,  -2.5048917500e-01
    2219,   1.6288124000e-01,  -1.6658969200e-01
    2220,   2.1367934300e-01,  -2.0690035100e-02
    2221,   2.6850038800e-01,  -2.2832684200e-02
    2222,   2.2976051300e-01,  -3.9926856800e-02
    2223,  -1.7095837000e-01,  -3.1013625900e-01
    2224,  -8.3380043500e-02,   2.7173191300e-01
    2225,  -3.2790694400e-02,   1.6974315000e-01
    2226,   1.4587815100e-01,  -1.0882109400e-01
    2227,   2.3699681500e-01,  -5.8558683800e-02
    2228,  -2.3377236000e-02,  -2.0093013300e-01
    2229,   2.9218195000e-02,  -1.8224343700e-01
    2230,   5.3327441200e-02,   2.6981762100e-01
    2231,  -6.5023049700e-02,   2.9490077500e-01
    2232,   2.5907948600e-01,  -3.0465680400e-01
    2233,   2.8458687700e-01,  -3.1939381400e-01
    2234,   2.9727706300e-01,  -3.2553765200e-01
    2235,   2.7945661500e-01,  -2.5251868400e-01
    2236,  -2.0150388800e-01,  -2.9354086500e-01
    2237,  -1.9700290300e-01,   2.0612841800e-01
    2238,   2.1588365700e-01,  -4.9609560500e-02
    2239,  -5.1502853600e-02,  -2.6592734500e-01
    2240,   1.0187489900e-02,   2.6611989700e-01
    2241,   1.2066662300e-01,   1.6353005200e-01
    2242,   6.5704591600e-02,  -2.5212231300e-01
    2243,  -7.0558842300e-03,  -2.6494339100e-01
    2244,   1.6160632700e-01,  -2.0718647500e-01
    2245,   1.2549305000e-01,  -1.6495603300e-01
    2246,  -4.8393592200e-02,   1.7790162600e-01
    2247,  -1.4918739900e-02,  -2.8851470400e-01
    2248,   4.4270370200e-02,   1.7437088500e-01
    2249,  -1.6508130700e-01,  -2.9754477700e-01
    2250,  -4.6860285100e-02,   2.6968133400e-01
    2251,  -1.9281579600e-01,  -2.7253085400e-01
    2252,   1.7311675800e-01,   1.9142895900e-01
    2253,  -2.6325492700e-03,   1.8887493000e-01
    2254,   6.2279168500e-02,   2.4223747800e-01
    2255,   3.4071907400e-02,  -2.0014739000e-01
    2256,   7.0857286500e-02,  -2.0010781300e-01
    2257,   9.1979116200e-02,  -1.9911322000e-01
    2258,   1.0890056200e-01,  -1.7833094300e-01
    2259,   1.4252229000e-01,   1.7934414700e-01
    2260,   3.0150901500e-02,  -2.3586395400e-01
    2261,  -2.3551909300e-02,   2.0865382300e-01
    2262,   1.0249593300e-02,  -2.2249843200e-01
    2263,   3.6042433200e-02,  -2.1469633300e-01
    2264,  -3.2891977600e-02,   2.4831828500e-01
    2265,  -1.3737162600e-02,   2.3694993600e-01
    2266,  -5.4796231000e-03,   2.2319228900e-01
    2267,  -4.9183145200e-02,   2.2856678100e-01
    2268,   3.8771580400e-03,   2.1272067700e-01
    2269,  -7.5037181400e-03,   0.0000000000e+00
    2270,  -1.5007443700e-02,   0.0000000000e+00
    2271,  -2.2814281300e-02,   0.0000000000e+00
    2272,  -3.1469807000e-02,   0.0000000000e+00
    2273,  -4.1152872100e-02,   0.0000000000e+00
    2274,  -5.1733493800e-02,   0.0000000000e+00
    2275,  -6.3666194700e-02,   0.0000000000e+00
    2276,  -7.7304631500e-02,   0.0000000000e+00
    2277,  -9.1964468400e-02,   0.0000000000e+00
    2278,  -1.0679321700e-01,   0.0000000000e+00
    2279,  -1.2258118400e-01,   0.0000000000e+00
    2280,  -1.3940899100e-01,   0.0000000000e+00
    2281,  -1.5763206800e-01,   0.0000000000e+00
    2282,  -1.7946195600e-01,   0.0000000000e+00
    2283,  -2.0405289500e-01,   0.0000000000e+00
    2284,  -2.2946308600e-01,   0.0000000000e+00
    2285,  -2.5560021400e-01,   0.0000000000e+00
    2286,  -2.8259235600e-01,   0.0000000000e+00
    2287,  -3.1003484100e-01,   0.0000000000e+00
    2288,  -3.3735600100e-01,   0.0000000000e+00
    2289,  -3.6442807300e-01,   0.0000000000e+00
    2290,  -3.9152494100e-01,   0.0000000000e+00
    2291,  -4.1878736000e-01,   0.0000000000e+00
    2292,  -4.4604417700e-01,   0.0000000000e+00
    2293,  -4.7310942400e-01,   0.0000000000e+00
    2294,  -5.0000000000e-01,   0.0000000000e+00
** ==========================================================
** Layer 1: Phase-Field Elements (U1 Quads & U3 Tris)
** ==========================================================
*Element, type=U1
       1,     761,     680,     679,     769
       2,    1059,    1288,    1228,     115
       3,    1291,    1399,    2044,    1264
       4,    1191,     154,    1291,     134
       5,    1249,     133,    1140,     132
       6,    1239,    1970,     131,    1584
       7,     130,     150,     151,    1470
       8,    1956,    1247,     148,     128
       9,     127,     126,    1245,     147
      10,    1444,    1395,    1287,     125
      11,    1444,    1230,    1391,     146
      12,    1276,    1373,    1192,    1234
      13,    1292,    1276,    1234,     123
      14,    1340,    1198,    1988,    1989
      15,    1240,     122,     121,    1472
      16,    1367,    1495,    1308,    1175
      17,    1262,    1229,    1392,     141
      18,    1221,    1274,    1280,     119
      19,    1217,    1987,    1405,     118
      20,    1400,     925,    1986,     137
      21,    1205,     824,     869,     137
      22,    1070,    1038,      50,     695
      23,    1168,    1038,    1070,     158
      24,     158,    1070,    1104,    1201
      25,    1497,    1327,     181,    1419
      26,     202,    1577,     201,    1306
      27,     223,     222,     246,    1855
      28,     246,     269,     247,    1855
      29,     293,    2136,     270,    2094
      30,     295,     294,     318,     319
      31,     343,    2213,     318,     342
      32,    1385,     344,    2213,     343
      33,     367,    2173,    1303,    1219
      34,    1015,    1020,    1231,     415
      35,     978,     964,     984,     990
      36,     438,    1018,     998,     990
      37,    1027,    1029,    1320,     462
      38,     486,    1356,     485,     510
      39,     510,    1459,    1658,     511
      40,     536,    1792,     535,    1775
      41,     560,    1830,     561,    1797
      42,     584,     607,     585,    2041
      43,     608,    1645,    1578,    2013
      44,    1507,    1479,     630,    1532
      45,    1094,    1087,      57,      56
      46,    1072,    1094,      56,     706
      47,    1043,    1072,     706,      55
      48,    1072,    1043,    1199,     655
      49,     804,     823,     705,     704
      50,     632,    1973,    1047,    1194
      51,    1068,     611,    1299,    1167
      52,    1299,     611,     588,    1896
      53,    1850,     567,    1839,     566
      54,    1811,    1839,    1879,     542
      55,    1326,     543,     518,    1852
      56,    2052,    1376,     495,     494
      57,    1674,     472,    1945,     471
      58,     449,    1390,    1433,    1945
      59,    1206,     428,    1310,    1390
      60,     405,     404,    1159,     429
      61,    2293,    2292,     405,    1060
      62,     405,    2292,    2291,     404
      63,     404,    2291,    2290,     403
      64,    1369,     448,    1310,    1257
      65,    1609,    1559,     470,    1571
      66,    2053,    2052,    2069,    1695
      67,    1781,     566,    1839,    1811
      68,    1886,    1772,     587,    1500
      69,    1500,    1549,    1429,     610
      70,    1345,     632,    1374,    1420
      71,    1199,     656,    1973,    1265
      72,    1285,    1265,    1345,     631
      73,     656,     864,    1047,    1973
      74,     753,     791,     803,     104
      75,     781,    1933,     792,     848
      76,      24,     828,     812,     675
      77,     135,     874,    1045,    1232
      78,    1086,     134,    1232,    1045
      79,    1140,      21,      20,     132
      80,     132,      20,     672,    1137
      81,    1121,      19,      18,    1403
      82,    1121,    1403,     130,    1470
      83,     671,    1126,    1110,      17
      84,    1126,    1210,     128,     129
      85,     670,    1129,    1132,      15
      86,    1129,    1213,     126,     127
      87,     669,    1931,    1089,      13
      88,    1230,    1077,     124,    1289
      89,    1088,    1080,     668,      10
      90,     123,    1234,    1088,    1096
      91,    1131,    1120,     667,       8
      92,    1131,    1211,     121,     122
      93,    1090,    1082,     666,       6
      94,    1097,     120,    1175,    1090
      95,    1061,    1041,     119,    1946
      96,       4,     664,    1036,    1041
      97,     826,     832,       2,     663
      98,     856,     116,     798,     786
      99,     841,     852,     787,     891
     100,     777,     786,     661,     660
     101,     824,     801,      52,     696
     102,      49,      48,    1215,    1104
     103,    1104,    1215,     180,    1201
     104,     201,     200,    1250,    1306
     105,    2109,    1413,     222,    1306
     106,     269,     246,     245,     268
     107,    2094,     270,     269,     268
     108,     293,     317,     294,    2136
     109,     317,     342,     318,     294
     110,     343,     342,    2238,    2214
     111,    2173,     366,     365,     390
     112,     415,    2084,    1263,     414
     113,    1015,    1010,     416,     995
     114,     460,    1025,    1030,    1032
     115,    1255,    1361,    1193,    2246
     116,     535,    1660,     534,    1722
     117,    1809,     560,    1775,     559
     118,     605,    1898,     583,    1847
     119,     606,     628,     607,     584
     120,     629,    1974,    1375,     653
     121,    1087,    1092,     707,      57
     122,    1087,     654,    1237,    1092
     123,    1220,    1215,      48,     694
     124,     694,      47,    1138,    1220
     125,    1329,    2109,     221,     243
     126,     244,    2042,     245,    1413
     127,     292,     316,     293,    2094
     128,     316,     341,     317,     293
     129,     341,     364,    2222,    2227
     130,     365,    2214,    2220,    1631
     131,    1647,     390,     389,    2216
     132,     415,     414,    2147,    1112
     133,     437,    1010,    1044,    1026
     134,    1016,    1023,     460,    2202
     135,    1146,    2253,     484,    1055
     136,     509,    2267,    1423,    1499
     137,     533,    2224,    1659,    1542
     138,    1847,     583,    1809,     582
     139,    1375,    1990,    1331,     652
     140,    1113,     653,    1375,     652
     141,    1092,    1113,      58,     707
     142,      47,      46,    1218,    1138
     143,    1138,    1218,     221,    1250
     144,    1362,     244,    1329,     243
     145,     268,     267,    2007,    2043
     146,     291,     315,     292,    2043
     147,     315,     340,     316,     292
     148,     340,     363,     341,     316
     149,    1807,    2221,    2183,    2191
     150,    2217,    1631,    2220,     388
     151,    2174,    1460,    2147,     414
     152,     457,    1469,    1253,    1363
     153,    2180,    1324,    1141,    2205
     154,    1149,    1197,     483,    2248
     155,    2265,     508,    2261,    2266
     156,    1616,    2250,    1551,    2231
     157,    1700,     558,    1667,     557
     158,     581,    1810,     582,    1755
     159,     604,    1409,     605,    1847
     160,    1304,    1244,     627,    2032
     161,    1223,     652,    1331,     651
     162,      59,     652,    1223,      60
     163,    1338,    1218,      46,     693
     164,     693,      45,    1114,    1338
     165,     267,     266,     290,    2007
     166,    1490,     291,    2043,    2007
     167,     314,     339,     315,     291
     168,     362,     387,    2183,     363
     169,     388,    1807,    1705,    1678
     170,     412,    1539,     413,    1594
     171,     435,    1363,    1253,    1182
     172,     458,    1359,    1469,    1540
     173,     482,    1294,    1174,    1149
     174,    1558,     532,    1520,    2240
     175,     557,    2231,    1690,    1702
     176,    1808,     580,    1816,    1866
     177,    2072,     604,    1810,    1866
     178,     625,    1333,    2010,     626
     179,      61,     708,    1937,    1142
     180,    1252,    1142,     650,    1333
     181,      44,    1935,    1936,      45
     182,    1936,    1941,    1114,      45
     183,    1477,     290,     289,     312
     184,     337,     313,    1358,    1322
     185,     338,     361,    2089,     339
     186,     362,    2089,     386,     387
     187,     387,     386,    1757,    2140
     188,    1575,     412,    1672,    1601
     189,    1475,     457,    1363,    2206
     190,    1491,     481,    2241,    2259
     191,     506,    1348,    1446,    1458
     192,     531,    1545,    2230,    1602
     193,    2156,    1646,     579,    2151
     194,    1741,    1748,    2117,    1701
     195,    1841,     603,    1816,    1800
     196,     625,    1892,    1901,    1333
     197,      61,    1142,    1252,      62
     198,     692,    1934,    1935,      44
     199,     692,      43,    1099,    1934
     200,    1235,    1358,    1477,     312
     201,    1295,     338,    1461,     337
     202,     385,     361,     360,     384
     203,     386,     385,     410,    1757
     204,     411,    1665,    1601,    1672
     205,     434,    1575,    1522,    1486
     206,     456,    1486,     455,    1531
     207,    2252,     480,    1560,     479
     208,    1524,    1446,     505,    1621
     209,    1611,     530,    1589,    1613
     210,    2212,    1697,    2179,     555
     211,     579,    1646,     578,    1677
     212,     602,    1741,    1790,    1858
     213,     624,    1871,    1173,     648
     214,    1101,      63,     709,     649
     215,    1100,    1101,     648,    1173
     216,      43,      42,    1106,    1099
     217,     336,    1235,    1106,    1093
     218,    1165,    1064,     359,    1295
     219,     385,     384,     409,     410
     220,     433,    2079,     409,     432
     221,     455,    1769,    1598,     478
     222,     479,     478,    1591,    2211
     223,    1715,    1691,     504,    1562
     224,    1620,     529,    1541,     528
     225,    1699,     554,    2146,     576
     226,    2179,    1727,     578,    1646
     227,    1790,    2016,     623,    1858
     228,    1102,    1100,    1173,    1976
     229,      63,    1101,    1100,      64
     230,      42,     691,    1093,    1106
     231,    1052,     825,     358,    1190
     232,    1064,     890,    2038,     359
     233,     408,     432,     409,     384
     234,    1805,     433,     432,     453
     235,    1762,     454,    1760,    1719
     236,    1644,     478,    1598,     477
     237,    1773,    2200,     503,    1715
     238,    1673,     528,    2178,     527
     239,    1698,     553,    1620,     552
     240,    2131,    1726,     577,    1727
     241,     621,     600,     599,     620
     242,    2019,    2012,    1978,    1977
     243,     646,    1107,     647,    1977
     244,     710,    1102,    1107,      65
     245,     814,     825,     690,      40
     246,     825,     814,     867,     358
     247,    2006,    1053,    1985,     383
     248,     431,     408,     407,     430
     249,     431,     453,     432,     408
     250,    1805,     453,    1798,    2081
     251,    1693,     477,    2064,     476
     252,    2169,    1675,     502,    2170
     253,    2177,    2186,    1576,     551
     254,    1767,    1712,    1639,    1806
     255,    1791,    1745,     576,    1698
     256,    2054,    1844,     620,     599
     257,     645,     621,     620,    1979
     258,    1978,    1116,     646,    1977
     259,      66,      65,    1107,     646
     260,     822,     814,      40,     689
     261,     872,     897,     406,    1154
     262,    1207,    2021,    1984,     406
     263,     431,     430,    1983,     452
     264,     452,    2004,     453,     431
     265,    1735,     476,     475,    2017
     266,    1737,     501,     500,     524
     267,     525,    1651,    1676,    2184
     268,     551,    1576,    1537,    1639
     269,    1806,    1538,     575,    1767
     270,     598,    1779,    1828,    2031
     271,    1115,     711,      67,    1116
     272,      66,     646,    1116,      67
     273,      39,      38,     897,     872
     274,     406,     897,    1037,    1207
     275,    1207,    1325,    1983,     430
     276,     452,     451,     474,    2004
     277,    2017,     475,    2004,     474
     278,     499,     524,     500,    1735
     279,    1654,    1713,    1689,     548
     280,    1592,    2104,    1638,     549
     281,    1484,     574,    2087,     573
     282,     597,     596,    1485,    1828
     283,    1997,     643,    1980,     619
     284,    1980,    1108,     644,     619
     285,      68,     711,    1115,     644
     286,    1095,    1037,     688,      37
     287,    1095,    1208,     450,    1325
     288,    1248,     451,    1982,     450
     289,     523,     499,     498,     522
     290,     523,    1689,     524,     499
     291,     572,    1547,    1488,    1421
     292,     572,    1381,     573,    1592
     293,     596,     595,    1415,    1485
     294,    1103,     712,      69,    1108
     295,      68,     644,    1108,      69
     296,      37,      36,    1208,    1095
     297,     450,    1208,    1124,    1248
     298,    1993,    1305,     522,     498
     299,    2055,     523,     522,     546
     300,    1629,     548,    1689,     547
     301,    1381,    1330,     595,     573
     302,     641,    1105,     642,    1969
     303,     642,      70,     712,    1103
     304,    1216,    1124,     687,      35
     305,    1124,    1216,     473,    1248
     306,    1242,     497,    1334,     496
     307,     522,     521,    1574,     546
     308,    2114,    1488,    1582,    1530
     309,    1422,    2145,    2113,    1357
     310,    1243,     617,    1330,    2096
     311,    1118,     713,      71,    1105
     312,      70,     642,    1105,      71
     313,      34,     496,    1216,      35
     314,    1139,     496,      34,      33
     315,    1657,    1714,    1318,     544
     316,    1574,    1536,    2077,     546
     317,    1664,     571,    1596,    2077
     318,    2060,     593,    2102,    1456
     319,     616,    1314,    1177,     639
     320,     639,    1079,    1200,     640
     321,     713,    1118,    1200,      72
     322,    1125,    1139,      33,     686
     323,     569,     545,    1302,    1516
     324,     570,    1447,    2051,    1664
     325,    1414,     592,     591,    2018
     326,    1278,    1179,    2029,     615
     327,     714,    1042,     875,      74
     328,    1079,      73,      72,    1200
     329,     520,    1139,    1125,    1318
     330,    1202,    1084,    1949,     544
     331,    1238,    1343,    1516,     568
     332,    2051,    2011,    2018,     591
     333,    1034,    1058,     613,    1176
     334,     637,     821,     830,    1147
     335,      74,     875,     830,     715
     336,    1081,    1084,      31,     685
     337,    1091,    1081,     685,      30
     338,    1286,    1222,    1317,    1991
     339,     818,     816,     865,    1963
     340,      75,     821,     816,     716
     341,    1081,    1091,    1238,     568
     342,    1048,    1063,    1170,     612
     343,     810,    1962,     863,     808
     344,     716,     816,     818,      76
     345,     876,    1127,      29,     684
     346,     831,     876,     684,      28
     347,     634,     800,     857,    1063
     348,      77,     810,     808,     719
     349,    1944,    1048,     876,     831
     350,     790,     805,     683,     682
     351,      78,     793,     784,     721
     352,     771,     840,     790,     763
     353,     804,     794,     849,     864
     354,     838,     851,     780,     844
     355,     813,     797,      90,     731
     356,     870,     813,     827,     633
     357,     873,     827,      89,     730
     358,     873,    1033,    1068,    1955
     359,     611,    1083,     589,     588
     360,    1143,    1135,      86,     728
     361,     567,    1135,    1143,    1214
     362,      84,     519,    1224,      85
     363,    1119,    1128,     727,      83
     364,      82,     472,    1119,      83
     365,      82,     726,    1109,     472
     366,      80,    1938,    1312,      81
     367,    1060,     405,     429,    1938
     368,     380,    1153,      93,      92
     369,    1939,    2289,    2288,     402
     370,    1157,     427,     403,    1939
     371,    1368,    1344,    1369,    1257
     372,     447,    1685,    1572,    1344
     373,    1526,     469,    1680,    1891
     374,    1864,     516,    1875,     492
     375,     540,    1827,    2138,    1780
     376,    1768,    2085,    1829,    1827
     377,     587,    1772,    1703,    1641
     378,    1549,    1563,    1529,    1429
     379,     630,    1401,    1417,     609
     380,     655,    1285,    1212,    1948
     381,    1212,    1285,     631,    1401
     382,     402,    2288,    2287,     401
     383,    1258,    1632,    1685,     447
     384,    1605,     469,    1572,    1685
     385,    1895,    1876,    1680,    2065
     386,    2152,    1864,    1876,    1846
     387,    1763,     540,    1780,    1826
     388,    1694,     563,     564,    1802
     389,     608,    2040,    1593,    2071
     390,    1532,     630,     609,    2040
     391,     738,      95,     378,     377
     392,    2286,     400,     401,    2287
     393,    1162,     425,     401,     400
     394,    1251,     446,    1632,     425
     395,     468,    1597,     467,    1648
     396,     491,    1895,    1648,    1883
     397,    1854,     514,    1820,     515
     398,    2185,     539,    1784,     515
     399,    1783,    2130,    1730,    1739
     400,    2130,    1696,     586,     563
     401,    1645,     608,    2071,     586
     402,     585,    1645,     586,    1696
     403,     400,    2286,    2285,    1046
     404,    1046,    2285,    2284,     399
     405,     423,    1313,    1246,    1172
     406,    1353,    1453,    1313,     423
     407,    1502,     466,    2135,    2091
     408,     467,    1595,     490,    1648
     409,    1882,     514,    1854,     490
     410,    1812,     537,    1842,     513
     411,    1825,     561,    2041,     562
     412,     562,    2041,     585,    1696
     413,     376,    1155,      97,      96
     414,     398,    1085,    2283,    2282
     415,    1961,    1164,     423,    1172
     416,    2075,    1254,    1186,    2037
     417,     488,    1801,    1889,     465
     418,     512,    2237,    1801,    1747
     419,    1797,     561,    1825,     537
     420,     536,    1797,     537,    1812
     421,     374,     740,      98,    1150
     422,     397,     911,    2281,    2280
     423,     911,     926,    1152,     398
     424,    2037,    2036,    1323,    2075
     425,     442,    1346,    1323,    2074
     426,    1728,    1747,    1801,     487
     427,    1792,     512,    1747,    1733
     428,     373,     741,      99,    1123
     429,     820,     397,    2280,    2279
     430,     420,    2000,     892,    1959
     431,    1259,     442,    2074,    1269
     432,     442,    1259,    1293,     464
     433,    1370,     486,    1764,    2207
     434,     511,    1728,    1480,     510
     435,     742,     100,     815,     372
     436,     395,     858,     807,     799
     437,     871,     858,     884,    1035
     438,    2073,    1195,     440,    1148
     439,     462,     991,    2121,    1027
     440,    1320,    1356,    1056,     462
     441,     744,     101,     806,     855
     442,     779,    1958,     845,     789
     443,     886,     419,    2034,     884
     444,     923,     418,     947,     905
     445,    2121,     991,     440,     981
     446,     788,     778,     746,     102
     447,     768,     766,     880,     835
     448,     921,     880,     902,     931
     449,     439,    2119,     998,    1018
     450,     959,     957,     418,     943
     451,      92,     736,     381,     380
     452,     760,     381,     736,      91
     453,     760,     114,    1133,     381
     454,    1209,     356,    1160,     357
     455,     334,    1427,    1349,    1972
     456,    1533,    2090,    2070,    1580
     457,    1521,     285,    1481,     286
     458,    1604,    1523,    1785,    1814
     459,    1787,     237,    1742,    2157
     460,    1860,    1897,    1832,     196
     461,    1851,    1872,    1890,    2132
     462,     171,    2083,    1311,    1307
     463,    1247,     147,    1723,    1307
     464,    1307,    1723,    1749,     171
     465,     147,    1245,    1309,    2015
     466,    1160,     380,     381,    1133
     467,    1953,    1972,    1476,    1355
     468,    1487,     332,    1528,     333
     469,     308,    1481,     307,    1410
     470,     261,    1692,    1552,    2142
     471,    1788,    1721,     260,    1823
     472,    2249,    1856,    1837,    2223
     473,     193,    1684,    1824,    2164
     474,    1731,    1751,    1749,    1624
     475,     171,    1749,    1751,    1824
     476,    1607,    1731,    1567,     191
     477,    1669,    1350,     169,    1624
     478,    1566,    1494,    1455,     167
     479,    1586,    2107,    2062,    1440
     480,    1506,    1440,    1404,     144
     481,    1340,    1989,    1442,    1435
     482,    1442,    1989,    1587,     164
     483,    1495,    1555,     142,    1472
     484,    1450,     161,     141,    1392
     485,    1438,    1439,    1380,     139
     486,     138,    1454,    1351,    1987
     487,    1168,    1271,    1279,     137
     488,    1271,    1168,     158,    1402
     489,      94,     737,     379,    1078
     490,     737,      93,    1153,     379
     491,    1332,    1501,    1383,    2033
     492,    2033,    1410,     331,    1332
     493,    1379,     306,    1335,     307
     494,     259,    1788,    1823,    1831
     495,     234,    1857,    1849,    1815
     496,    1786,    1777,    1751,     192
     497,    1786,     192,    1746,     212
     498,    1607,    1663,    1746,     192
     499,    1731,    1607,     192,    1751
     500,    1416,    1513,     169,    1350
     501,    1581,     168,    1566,    1618
     502,    1610,    1618,    2108,    2107
     503,    1848,    1614,     166,    1550
     504,    1873,    1505,    1553,    1884
     505,     164,    1893,     186,    1553
     506,    1899,     185,    1893,    1612
     507,    1905,    2076,     184,    1912
     508,    1916,    1924,    1627,    1922
     509,    2124,    1510,    2168,    1554
     510,    1419,     181,    1548,    1508
     511,    1732,     182,    1577,     202
     512,     181,    1327,     201,    1577
     513,      95,      94,    1078,     378
     514,     354,    1156,    1332,     331
     515,     331,    1335,     330,    1204
     516,    1770,     282,    1736,     283
     517,     258,    1754,    1795,     234
     518,    1815,    2210,     233,    1710
     519,    1766,    1718,    1803,     213
     520,     212,    1655,     232,    1718
     521,    1716,    1655,     212,    1746
     522,    1663,    1607,     191,    1666
     523,    1666,    1628,    1653,    1734
     524,    1653,     190,    1708,     211
     525,    2189,    2172,    2171,    1776
     526,    1870,     187,    1873,    1884
     527,    1906,    1902,     185,    1912
     528,     205,    1908,    1913,    2232
     529,    1707,    1740,    1922,    1627
     530,    1686,    1732,     203,    1707
     531,     222,    1752,     202,    1306
     532,    1752,     222,     223,    2182
     533,      96,     738,     377,     376
     534,     377,     378,    1156,     354
     535,     353,    1161,    1204,    1321
     536,    1687,     305,    1465,     306
     537,    1756,    1720,     281,    1709
     538,    1710,     257,    1650,     258
     539,     256,    1626,    2218,    1527
     540,    1557,    1527,    2218,    2239
     541,    1655,    1606,    2239,     232
     542,    1765,    2198,    1794,     211
     543,    2198,    1819,    2242,     229
     544,     209,    2193,    1843,    1819
     545,    1894,     228,     208,    1885
     546,    2166,    1900,     227,    2208
     547,    1909,     226,    1903,    1907
     548,    1869,    1925,    1921,     204
     549,    1869,    1789,    1835,    2204
     550,    2162,    2163,    1855,     247
     551,     223,    1855,    2163,    1835
     552,    1161,     376,     377,     354
     553,    1321,    1615,    1478,     353
     554,    1622,     328,    2025,    1583
     555,     303,    1565,    1688,    1709
     556,     281,    1671,    1661,    1656
     557,    1441,    1519,     256,    1527
     558,     279,    1519,    1441,    1445
     559,    1445,    1441,    1527,     255
     560,    1711,    2260,     229,    2242
     561,     252,    1865,     251,    1840
     562,    1918,    1920,     226,    1909
     563,     248,    1928,    1877,    1929
     564,    1929,    1877,    2162,     247
     565,    1929,     270,    1927,     248
     566,     271,    1927,     270,    2136
     567,     114,     113,    1111,    1133
     568,    1209,     357,     335,    1282
     569,    1227,    1284,    1282,     335
     570,    2061,    2024,    1467,    1580
     571,    1483,    2176,    1743,     262
     572,    1785,    2158,    1742,     237
     573,    2157,    2127,     197,    1744
     574,    1813,    1860,    1778,    2115
     575,     173,    1498,    1569,    1636
     576,     149,     148,    1311,    2047
     577,    1307,    1311,     148,    1247
     578,     113,     759,    1071,    1111
     579,    1066,    1065,     311,    1227
     580,    1275,    1393,     311,    1189
     581,    1452,    1386,    1643,     288
     582,    1466,    1412,     262,    1729
     583,    2118,     238,    1483,     239
     584,    1704,    1603,     216,    1652
     585,    1725,    1750,    1778,    1753
     586,    1498,     173,    1813,    1568
     587,    1473,    1336,     129,     149
     588,    2047,    1569,    1473,     149
     589,     112,     111,    1065,    1066
     590,    1065,    1067,    1189,     311
     591,    1319,    1360,    1275,    1189
     592,     264,     263,    1386,    1452
     593,    1482,     239,     240,    2030
     594,    1534,    1579,     216,    1634
     595,    1652,    1573,    2098,    1704
     596,    2046,    1750,    1725,     175
     597,     151,     150,    2095,    1512
     598,    1568,     174,    1512,    2095
     599,    1076,    1067,     758,     110
     600,    1360,    1241,     264,    1452
     601,     241,    1411,    2030,     240
     602,     217,    1482,    1535,    1679
     603,    1489,     176,    1573,    1546
     604,    2059,    1511,    1378,    1430
     605,     151,    1512,    1239,    1584
     606,    1512,    2046,    2005,    1239
     607,     110,     757,    1226,    1076
     608,     757,     109,    1122,    1226
     609,    1994,    1992,     241,    2026
     610,    1411,     219,     218,    2030
     611,    1535,    1585,    1619,    1679
     612,    1431,     176,    1489,    1339
     613,    1249,     152,    1378,     153
     614,    1378,     152,    2005,    1430
     615,     109,     108,    1134,    1122
     616,    1122,    1134,    1957,     242
     617,    1492,    1266,     198,    1464
     618,    1564,    1517,    1443,    2008
     619,    1339,    1489,    1468,    2048
     620,    1315,     154,    1191,     133
     621,     153,    1431,    1339,    1315
     622,     108,     756,    1387,    1134
     623,     107,    1074,    1387,     756
     624,     179,    1365,    1236,    1069
     625,    1342,    1432,     178,    1277
     626,    1399,    1291,     154,    2048
     627,    1399,    2048,    1468,     155
     628,    1074,     107,     755,    1069
     629,    1971,    1277,    1225,     157
     630,     156,    2044,    1341,    1342
     631,    1432,    1342,    1341,     177
     632,     105,    1049,    1057,     106
     633,    1057,    1049,     157,    1225
     634,    1184,    1288,    1059,    1196
     635,    1277,    1971,     156,    1342
     636,     754,     829,    1049,     105
     637,     829,     803,     115,    1228
     638,     811,     826,     663,     662
     639,     832,     826,     117,    1217
     640,     664,       3,    1040,    1036
     641,    1041,    1061,     665,       4
     642,    1175,    1308,    1082,    1090
     643,     123,    1096,    1120,    1198
     644,    1075,    1080,    1192,     124
     645,    1075,     124,    1077,    1930
     646,     125,    1287,    1089,    1931
     647,    1956,    1132,    1129,     127
     648,     129,    1336,    1110,    1126
     649,    1137,     672,      19,    1121
     650,     134,    1086,    1117,    1191
     651,    1196,     828,     874,     135
     652,     802,     861,     848,     792
     653,    1400,     137,    1279,     138
     654,    1351,     139,    1405,    1987
     655,     139,    1380,    1274,    1405
     656,    1392,    1229,    1280,     140
     657,    1367,    1262,     141,    1474
     658,    1308,    1495,    1472,     121
     659,    1240,    1472,     142,    1382
     660,    1198,    1340,    1292,     123
     661,    1404,    1276,    1292,     144
     662,     145,    1289,    1373,    1434
     663,    1391,    1230,    1289,     145
     664,    1395,    1444,     146,    1457
     665,    1454,    1508,    1418,    1351
     666,    1438,     159,    1510,    1439
     667,    1924,    1450,     160,    2124
     668,    1923,    1474,     141,     161
     669,    1474,    1555,    1495,    1367
     670,    1442,    1505,     165,    1435
     671,    1440,    1506,     166,    1586
     672,     167,    1455,    1515,    2108
     673,    1457,    1416,    1350,    1309
     674,    1684,     172,    1640,    2083
     675,    1511,    2059,     176,    1431
     676,    1652,    1706,    1546,    1573
     677,    2045,    1799,    1564,    2008
     678,     178,    1432,    2008,    1443
     679,    1277,     178,     179,    1225
     680,    2168,     182,    1732,    1686
     681,    1707,    1627,    1554,    1686
     682,     162,    1923,    2126,    1911
     683,    1899,    1910,    2076,    1905
     684,     164,    1553,    1505,    1442
     685,    1848,    1550,    1873,     187
     686,    1586,     166,    1614,    2137
     687,    1649,    1581,    1618,     189
     688,    1513,    1416,     168,    2082
     689,     194,    1822,    1821,    1849
     690,    1679,    1706,    1579,     217
     691,    1266,    1366,     199,    1236
     692,     200,     201,    1327,     180
     693,    1740,    1707,     203,    1789
     694,    1906,    1908,     206,    1904
     695,    1904,     207,    1902,    1906
     696,    1885,    1870,    1884,    2097
     697,    1776,     210,    1771,    2189
     698,    1708,    1649,     189,    1771
     699,     190,    1653,    1628,    2082
     700,    2210,    1821,     213,    1803
     701,    1856,    2251,    2236,    1837
     702,    2157,    1742,     215,    2127
     703,     215,    1634,     216,    1603
     704,     217,    1579,    1534,    2118
     705,     218,    1535,    1482,    2030
     706,    1464,     218,     219,    1492
     707,    1366,    1337,     220,     199
     708,    1250,     221,    2109,    1306
     709,    2235,    1928,     225,    1925
     710,    1918,    1909,     206,    1915
     711,    1907,    1904,     206,    1909
     712,    1900,    2166,    1894,     207
     713,    1859,    1868,    1843,    2193
     714,    1868,    2242,    1819,    1843
     715,     259,    1795,    1754,    1782
     716,    1831,    1823,    1833,    2251
     717,     236,    1761,     237,    1787
     718,    1785,    1523,     238,    2158
     719,     240,     239,    1412,    1328
     720,     241,     240,    1328,    2026
     721,    1994,    1241,     265,     242
     722,     246,     222,    1413,     245
     723,    1918,     225,    1919,    1920
     724,    1926,     249,    1920,    1919
     725,     273,     272,     296,    2219
     726,     320,     297,    2219,     296
     727,     321,    1268,    1233,    2194
     728,     989,    2050,     346,    1050
     729,     103,     878,     834,     766
     730,     103,     749,     765,     833
     731,     749,     748,     767,     765
     732,     778,     846,     843,     773
     733,    1966,     894,     371,    1950
     734,     904,     924,     922,     912
     735,    1012,    1185,    1011,    1006
     736,     279,    1388,    1267,    1570
     737,    1388,     279,    1445,    2228
     738,     254,    1514,     255,    1556
     739,    1557,    1556,     255,    1527
     740,     250,     249,     273,    2244
     741,    2219,     274,    2244,     273
     742,     298,     297,    1377,    1590
     743,     322,    1039,    1019,    1013
     744,    1999,     979,     368,     965
     745,     901,     915,     877,     836
     746,     929,     915,     938,     940
     747,     846,     853,     882,    1968
     748,    2209,     250,    2244,     251
     749,    2245,    1588,     275,    2258
     750,    1181,    1039,     322,    1144
     751,    1017,    1014,     323,    1001
     752,    2144,    2128,     348,    2110
     753,    2155,     975,    1001,     983
     754,     924,    2144,    2110,     922
     755,    1840,    2257,    1793,     252
     756,    1493,    1463,     276,    1561
     757,    1014,    1008,    1003,     323
     758,    1009,    1017,    1001,     324
     759,    1017,    1009,    1073,     300
     760,    1009,     324,    1011,     301
     761,    1758,     253,    1711,    2242
     762,    1793,    2257,    2256,     253
     763,    1283,    1188,     300,    2188
     764,    1073,    1166,    2188,     300
     765,     301,    1166,    1073,    1009
     766,     301,    1011,    1185,    1290
     767,    1670,    2260,    1711,    2263
     768,    1462,    2255,    2229,     277
     769,    1406,    2228,    1514,    1428
     770,     280,    1661,    1671,    1635
     771,    1720,    1756,    1782,    1754
     772,    1788,    1770,     283,    1721
     773,     284,    2190,    1721,     283
     774,    1692,     261,    1604,    2190
     775,    1729,    2154,    1521,     286
     776,    1466,     263,    1328,    1412
     777,    1328,     263,     264,    2026
     778,    1319,     265,    1241,    1360
     779,     267,    1362,    1995,     266
     780,    2042,     267,     268,     245
     781,     247,     269,     270,    1929
     782,     271,     272,    1926,    1927
     783,     272,     271,     295,     296
     784,     296,     295,     319,     320
     785,     320,     319,    1407,    2226
     786,     345,    1281,    1158,    2103
     787,    1151,    1054,     970,     368
     788,     393,     949,     937,     931
     789,     941,     914,     900,     930
     790,     272,     273,     249,    1926
     791,    2257,    1840,    2258,    1561
     792,    1493,    1561,    2258,     275
     793,    2255,    1623,    1389,    2229
     794,    1570,    1267,    1371,    1600
     795,    1625,     303,    1656,     302
     796,     352,    1180,    1296,    1397
     797,     739,      97,    1155,     375
     798,    1155,     353,    1478,     375
     799,    1600,     302,    1656,    1661
     800,    1709,    1688,     282,    1756
     801,    1736,     282,    1688,     304
     802,     284,     283,    1687,    1608
     803,     287,    1681,    1533,    1580
     804,    1580,    1467,    1643,     287
     805,     289,     290,     266,    1098
     806,    1490,    2007,     290,    1477
     807,    2043,     292,    2094,     268
     808,     294,     295,     271,    2136
     809,     297,     298,    1588,    2245
     810,    1463,    1493,    1503,     299
     811,     299,    1188,    1283,    1463
     812,    1185,    1371,    1267,    1290
     813,    1051,     302,    1600,    1371
     814,    1436,    1394,     351,    1451
     815,    1372,    1171,    1261,    1965
     816,     375,    1150,      98,     739
     817,    1496,    1544,    1565,     327
     818,    1544,    1496,    1426,     328
     819,     304,    1622,     305,    1736
     820,     309,    2070,    1487,    1518
     821,    1427,     334,     310,    2024
     822,    1284,    1227,     311,    1393
     823,    1490,     313,     314,     291
     824,     320,    2226,    1377,     297
     825,    1590,    1039,    1181,     298
     826,     322,    1008,    1014,    1144
     827,    1185,    1012,    1051,    1371
     828,    2056,     906,    1996,     325
     829,    1260,     815,     373,    1171
     830,     374,    1123,      99,     740
     831,     327,    1625,     326,    1964
     832,    1583,    1397,    1615,     329
     833,     330,    1668,    1321,    1204
     834,    1256,    1209,    1282,    1347
     835,    1235,     336,    1322,    1358
     836,     313,     337,    1461,     314
     837,     338,     339,     314,    1461
     838,    2141,     340,     315,     339
     839,    1407,     319,    2213,     344
     840,    1281,     345,    1233,    2195
     841,    2194,    1039,    1590,     321
     842,    2049,    1000,    2086,     987
     843,     906,     893,     350,    1996
     844,     100,     741,     373,     815
     845,    1964,    1394,    1436,     327
     846,    1171,    1372,     351,    1260
     847,    1204,    1161,     354,     331
     848,    1501,    1332,    1156,    1396
     849,    1501,    1396,    1471,     355
     850,    1064,    1165,    1190,     358
     851,     360,     361,     338,    1295
     852,     386,    2089,     361,     385
     853,     362,     363,     340,    2141
     854,    2222,    2220,    2214,    2238
     855,    1385,     365,     366,    1158
     856,     989,    2103,    1151,     368
     857,     948,     973,     940,     938
     858,     859,     893,     906,     885
     859,     806,     860,     859,    1950
     860,     860,     806,     101,     743
     861,     868,     372,     815,    1260
     862,     382,    1053,     890,     867
     863,    2038,    2006,     383,    1273
     864,    1594,    2217,     388,    1678
     865,     390,     365,    1631,     389
     866,    1263,    2133,     390,    1647
     867,    1219,    1054,    1151,     367
     868,     883,     394,     835,     918
     869,     854,     845,     881,     895
     870,     858,     871,     809,     807
     871,     397,     820,     862,     889
     872,     889,     926,     911,     397
     873,    2283,    1085,     399,    2284
     874,     426,     402,     401,     425
     875,     428,     404,     403,     427
     876,     795,     788,     102,     745
     877,    1297,     383,    2021,     407
     878,    1757,     410,    2080,    2112
     879,    1672,    1678,    1705,     411
     880,    2174,    1647,    2216,     413
     881,     995,     392,    1020,    1015
     882,     419,     905,     947,    1145
     883,    1035,     420,    1959,     871
     884,    1136,    1187,     910,    2000
     885,     926,    1062,     422,    1152
     886,    1246,    1313,     424,    1162
     887,    1251,     425,    1162,     424
     888,    1368,    1257,     427,    1157
     889,    1095,    1325,    1207,    1037
     890,    1760,    1601,    1665,    1719
     891,    1575,    1601,    1760,    1522
     892,    2192,    1460,    1539,     434
     893,     435,    1182,    1112,    2147
     894,    1021,    1044,    1010,    1015
     895,    1028,     440,     991,     462
     896,    2160,    1293,    1259,    1203
     897,    1323,    1346,     443,    2075
     898,    1254,    1364,     444,    1353
     899,     445,    1453,    1502,    2091
     900,     446,    1251,    1597,     468
     901,    1425,    1369,    1344,    1572
     902,     448,    1433,    1390,    1310
     903,    1437,     448,    1369,    1425
     904,    1312,    1408,     449,    1109
     905,    1325,     450,    1982,    1983
     906,     451,     452,    1983,    1982
     907,    1738,     454,    1762,    2081
     908,    1769,    1522,    1760,     454
     909,    1182,    1253,    1359,     436
     910,    1169,    1324,    1026,    1044
     911,     437,    2181,    1024,    1005
     912,    1595,     467,    2091,    2135
     913,     469,    1605,    2065,    1680
     914,    1571,     470,    1526,    1891
     915,     472,    1674,     495,    1119
     916,     471,    1559,    1609,    1674
     917,    1798,     475,     476,    2064
     918,    2064,    1738,    2081,    1798
     919,     478,     479,    1531,     455
     920,    1475,     456,    1560,    1543
     921,    2205,     481,    1294,     482
     922,    1025,    1031,    2248,     483
     923,    1146,    1030,    1025,     483
     924,    1029,    1027,    2187,    2225
     925,    1595,     489,    1882,     490
     926,     491,    1846,    1876,    1895
     927,    1376,     518,     519,    1128
     928,     497,    1981,    1384,    1334
     929,    2017,     498,     499,    1735
     930,    1693,     500,     501,    2123
     931,    2169,    2123,     501,    1675
     932,    1796,     503,    2200,     502
     933,    1715,    1562,    2252,    1773
     934,    1174,    1294,    1348,     506
     935,     507,    1197,    1300,    1504
     936,     483,    1316,    2253,    1146
     937,    2261,    1361,    1255,     484
     938,    1780,    2153,    2152,    1826
     939,     519,     518,     543,    1224
     940,     541,     542,    1852,    1862
     941,     495,    1376,    1128,    1119
     942,    1242,     520,    1398,    1305
     943,     521,     522,    1305,    1398
     944,    1713,    1737,     524,    1689
     945,    1675,     525,    2184,     526
     946,    2178,    1691,    1715,     503
     947,    1541,     529,    1524,    1621
     948,    1524,    1589,    1458,    1446
     949,    1545,    1504,    1354,    2254
     950,    2265,    2266,    1449,    1520
     951,    2267,     508,    2264,    1423
     952,     509,    1542,    1459,    1270
     953,     534,    1660,    1658,    1637
     954,     537,    1825,     538,    1842
     955,    1739,    1730,     539,    2185
     956,     540,    1763,    1694,    1802
     957,    1214,    1879,    1839,     567
     958,    1836,    1811,     542,     541
     959,    1536,    1574,     545,     569
     960,    1596,    2055,     546,    2077
     961,     550,    1537,    1576,    2165
     962,    1673,     527,    2177,    1712
     963,    1613,    1589,    1524,     529
     964,     530,    2230,    1545,    2254
     965,    2240,     531,    1602,    1682
     966,    1525,     532,    1558,    1617
     967,    1659,    2224,    1667,     558
     968,     564,     563,    2129,    1630
     969,     566,    2014,    1874,    1850
     970,     568,    1516,    1302,    1949
     971,    1536,     569,    1447,     570
     972,    1599,     571,    2143,    1582
     973,    1488,    1547,    1599,    1582
     974,    2087,     574,    1537,     550
     975,    1791,    1698,     575,    1817
     976,    2088,    1699,     576,    1745
     977,    1697,    2131,    1727,    2179
     978,    2150,    1717,    2117,    1748
     979,    1830,     583,    1898,     584
     980,    1641,    1630,    1593,    1563
     981,    1135,     567,    1850,     589
     982,    2051,    1447,     590,    2011
     983,     591,    1642,    1664,    2051
     984,     593,    2114,    1530,    2102
     985,     594,    2096,    1330,    1381
     986,     595,     596,    1484,     573
     987,     596,     597,    1538,    1484
     988,    1745,    1791,    1817,    1779
     989,    2054,    1726,    2088,     598
     990,     577,     599,     600,    2106
     991,    2106,    2105,    1677,     578
     992,    1701,     601,    1790,    1741
     993,     604,    2072,    1880,    1409
     994,    1401,     631,    2039,    1417
     995,    1167,    1194,    1955,    1068
     996,     610,    1429,    1420,    1374
     997,      88,     729,    1083,    1033
     998,     612,    1170,    1960,    1317
     999,    1298,    1960,    1176,     613
    1000,    1414,     613,     614,    1456
    1001,    1179,    1278,     614,    2028
    1002,    1178,    1314,    2113,    1352
    1003,     617,    1301,     641,    1415
    1004,     641,    1969,    1485,    1415
    1005,     597,    1828,    1779,    1817
    1006,    2068,    2012,    2019,    2057
    1007,    1871,    2063,    1858,     623
    1008,    1887,     624,    1892,    1880
    1009,    1409,     625,     626,     605
    1010,    1244,    1304,     626,    2010
    1011,    2009,     606,    2032,     627
    1012,     628,    1974,    1578,     607
    1013,    1176,    1960,    1170,     635
    1014,     863,     888,     635,     857
    1015,    1034,     636,    1963,    1058
    1016,    1042,    1177,     638,     875
    1017,     639,     640,    1243,     616
    1018,    1118,    1301,     640,    1200
    1019,    1969,     642,     618,    1485
    1020,     643,     618,     642,    1103
    1021,    1980,     643,    1103,    1108
    1022,     645,    1979,     644,    1115
    1023,     645,    1978,    2012,     621
    1024,    1977,     647,    2016,     622
    1025,     623,    1976,    1173,    1871
    1026,     649,    1901,     648,    1101
    1027,     649,    1252,    1333,    1901
    1028,    1975,     650,    1142,    1937
    1029,    1092,    1237,     653,    1113
    1030,     658,      26,     699,     762
    1031,     698,     697,     787,     852
    1032,     772,     777,     660,     659
    1033,     786,     798,       1,     661
    1034,     798,     811,     662,       1
    1035,     832,    1040,       3,       2
    1036,    1931,    1930,    1077,     125
    1037,    1129,     670,      14,    1213
    1038,    1126,     671,      16,    1210
    1039,      21,    1140,    1117,     673
    1040,     674,     874,     828,      24
    1041,     675,     812,     802,     676
    1042,     676,     802,     792,      25
    1043,     677,    1933,     775,     678
    1044,     769,     839,     842,     761
    1045,     750,     761,     842,     751
    1046,     681,      53,     724,     763
    1047,     763,     790,     682,     681
    1048,     805,     831,      28,     683
    1049,     686,      32,    1202,    1125
    1050,     872,     822,     689,      39
    1051,     825,    1052,      41,     690
    1052,    1104,    1070,     695,      49
    1053,     869,     824,     696,      51
    1054,     801,     787,     697,      52
    1055,     772,     762,     852,     841
    1056,     698,     852,     762,     699
    1057,      79,     735,    1932,     700
    1058,     734,     733,     780,     851
    1059,     770,     702,     701,     764
    1060,     782,     794,      54,     703
    1061,     794,     804,     704,      54
    1062,     823,    1043,      55,     705
    1063,      60,    1223,    1937,     708
    1064,      62,    1252,     649,     709
    1065,    1102,     710,      64,    1100
    1066,      73,    1079,    1042,     714
    1067,     715,     830,     821,      75
    1068,      76,     818,     819,     717
    1069,     718,     817,     810,      77
    1070,     719,     808,     800,     720
    1071,     720,     800,     793,      78
    1072,     721,     784,     776,     722
    1073,     723,     771,     763,     724
    1074,     771,     723,     722,     776
    1075,    2294,    2293,    1060,     725
    1076,    1109,     726,      81,    1312
    1077,     728,      85,    1224,    1143
    1078,      87,     589,    1083,     729
    1079,     730,      88,    1033,     873
    1080,     827,     813,     731,      89
    1081,     797,     785,     732,      90
    1082,     785,     780,     733,     732
    1083,     851,     838,     764,    1932
    1084,     734,     851,    1932,     735
    1085,     403,    2290,    2289,    1939
    1086,     398,    2282,    2281,     911
    1087,     742,     372,     860,     743
    1088,     908,     820,    2279,    2278
    1089,     807,     809,    2276,    2275
    1090,    2278,    2277,     396,     908
    1091,     745,     744,     855,     795
    1092,     799,     807,    2275,    2274
    1093,     789,     796,    2273,    2272
    1094,     796,     799,    2274,    2273
    1095,     778,     773,     747,     746
    1096,     779,     789,    2272,    2271
    1097,     773,     767,     748,     747
    1098,     774,     779,    2271,    2270
    1099,     768,     774,    2270,    2269
    1100,    2269,     103,     766,     768
    1101,     750,      27,     680,     761
    1102,     751,     842,     783,     752
    1103,     752,     783,     791,     753
    1104,     104,     803,     829,     754
    1105,    1069,     755,     106,    1057
    1106,     769,     679,     678,     775
    1107,     762,     772,     659,     658
    1108,     701,     700,    1932,     764
    1109,     836,     765,     767,     837
    1110,     765,     836,     877,     833
    1111,     880,     766,     834,     902
    1112,     837,     767,     773,     843
    1113,     774,     768,     835,     394
    1114,     839,     769,     775,    1942
    1115,     764,     838,    1940,     770
    1116,     779,     774,     394,    1958
    1117,     775,    1933,     781,    1942
    1118,     839,    1942,     783,     842
    1119,     805,     790,     840,     896
    1120,     777,     772,     841,    1943
    1121,     846,     778,     788,     853
    1122,     845,     854,     796,     789
    1123,     844,     780,     785,    1954
    1124,     781,     848,     847,    1942
    1125,     794,     782,    1947,     849
    1126,     891,     787,     801,    1952
    1127,     788,     795,    1951,     853
    1128,     803,     791,     847,     115
    1129,     850,     793,     800,     634
    1130,     371,    1951,     795,     855
    1131,     799,     796,     854,     395
    1132,     849,    1954,     887,     657
    1133,     909,     811,     798,     116
    1134,     857,     800,     808,     863
    1135,    1943,     841,     891,     856
    1136,     861,     802,     812,     136
    1137,     823,     804,     864,     656
    1138,     805,     896,    1944,     831
    1139,     855,     806,    1950,     371
    1140,     809,     396,    2277,    2276
    1141,     817,     718,     717,     819
    1142,     826,     811,     909,     117
    1143,     813,     870,     887,     797
    1144,     867,     814,     822,     382
    1145,     865,     816,     821,     637
    1146,     866,     817,     819,     636
    1147,     636,     819,     818,    1963
    1148,     863,    1962,     866,     888
    1149,     820,     908,     892,     862
    1150,    1043,     823,     656,    1199
    1151,     874,     674,      23,    1045
    1152,     136,     812,     828,    1196
    1153,    1049,     829,    1228,     157
    1154,    1147,     830,     875,     638
    1155,     900,     834,     878,     916
    1156,     878,     103,     833,     898
    1157,     918,     932,     920,     883
    1158,     879,     901,     836,     837
    1159,     370,     879,     837,     843
    1160,    1940,     838,    1947,     782
    1161,     776,     784,     896,     840
    1162,     797,     887,    1954,     785
    1163,     883,     907,    1958,     394
    1164,     370,     843,     846,    1968
    1165,     791,     783,    1942,     847
    1166,     115,     847,     848,     861
    1167,     864,     849,     657,    1047
    1168,     850,     634,    1944,     896
    1169,     793,     850,     896,     784
    1170,     904,    2002,     349,     924
    1171,    1967,     904,     912,     882
    1172,     895,     886,     395,     854
    1173,    1943,     856,     786,     777
    1174,    1063,     857,     635,    1170
    1175,     886,     884,     858,     395
    1176,     893,     859,     860,     372
    1177,     861,     136,    1059,     115
    1178,     889,     862,     910,     421
    1179,    1058,    1963,     865,    2028
    1180,     888,     866,     636,    1034
    1181,    1394,     868,    1260,     351
    1182,     868,    1394,    1964,     350
    1183,    1038,     869,      51,      50
    1184,     870,     633,    1047,     657
    1185,     396,     809,     871,    1959
    1186,     382,     822,     872,    1154
    1187,     827,     873,    1955,     633
    1188,     612,    1127,     876,    1048
    1189,     899,     898,     833,     877
    1190,     900,     916,     946,     930
    1191,     903,     370,    1968,     919
    1192,     933,     903,     919,     936
    1193,     902,     834,     900,     914
    1194,     921,     918,     835,     880
    1195,     845,    1958,     907,     881
    1196,     895,     881,     923,     905
    1197,     882,     912,     919,    1968
    1198,    1035,     884,    2034,    2035
    1199,     885,    2003,     349,    1966
    1200,    1950,     859,     885,    1966
    1201,     886,     895,     905,     419
    1202,     888,    1034,    1176,     635
    1203,     421,    1062,     926,     889
    1204,     890,    1053,    2006,    2038
    1205,     358,     867,     890,    1064
    1206,    1952,     801,     824,    1205
    1207,    1959,     892,     908,     396
    1208,     893,     372,     868,     350
    1209,    1967,     882,     853,    1951
    1210,     894,    1967,    1951,     371
    1211,     923,     881,     907,     934
    1212,    1037,     897,      38,     688
    1213,     939,     946,     927,     913
    1214,     915,     929,     899,     877
    1215,     916,     878,     898,     927
    1216,     903,     917,     879,     370
    1217,     917,     928,     901,     879
    1218,     944,     933,     936,     348
    1219,     935,     932,     918,     921
    1220,    2003,     885,     906,    2056
    1221,     920,     934,     907,     883
    1222,     909,     116,    1986,     925
    1223,     862,     892,    2000,     910
    1224,     912,     922,     936,     919
    1225,     898,     899,     913,     927
    1226,     914,     393,     931,     902
    1227,     913,     899,     929,     369
    1228,     913,     369,     950,     939
    1229,     933,     942,     917,     903
    1230,     934,     920,     943,     418
    1231,     937,     935,     921,     931
    1232,     349,    2003,    1002,     924
    1233,     348,     936,     922,    2110
    1234,    1002,    1006,     996,     924
    1235,     117,     909,     925,    1272
    1236,     930,     946,     956,     941
    1237,     951,     948,     938,     928
    1238,     915,     901,     928,     938
    1239,     943,     952,    2078,     959
    1240,     942,     933,     944,     958
    1241,     943,     920,     932,     952
    1242,     947,     418,     957,     969
    1243,     935,     937,     953,     945
    1244,     941,     949,     393,     914
    1245,     953,     937,     949,     967
    1246,     956,     946,     954,     974
    1247,     985,     968,     973,     982
    1248,     369,     929,     940,    2001
    1249,     941,     966,     967,     949
    1250,     958,    2101,     951,     942
    1251,     928,     917,     942,     951
    1252,     945,     952,     932,     935
    1253,     955,     944,     348,    2128
    1254,     945,     962,    2078,     952
    1255,     939,     950,    1999,     965
    1256,     970,     954,     965,     368
    1257,    1145,     947,     969,     981
    1258,    2001,     968,     950,     369
    1259,     956,     980,     966,     941
    1260,     939,     965,     954,     946
    1261,     968,    2001,     940,     973
    1262,     959,    2078,     978,    2119
    1263,     945,     953,     961,     962
    1264,     974,     954,     970,    1054
    1265,     975,    2155,    2128,    2144
    1266,     963,     958,     944,     955
    1267,     980,     956,     974,    2027
    1268,     969,     957,     439,    2120
    1269,    2101,     963,     972,     960
    1270,    2078,     962,     964,     978
    1271,     960,     948,     951,    2101
    1272,     961,     967,     986,     976
    1273,     417,     962,     961,     976
    1274,     964,     962,     417,     984
    1275,     971,     988,     972,     963
    1276,     324,    1001,     975,     996
    1277,     977,     950,     968,     985
    1278,     980,     986,     967,     966
    1279,     973,     948,     960,     982
    1280,     990,     998,    2119,     978
    1281,    1003,     983,    1001,     323
    1282,     982,     960,     972,     347
    1283,     985,     982,     993,    2049
    1284,    2027,     974,     392,     995
    1285,     984,     417,    2100,     997
    1286,     987,     977,     985,    2049
    1287,     977,     979,    1999,     950
    1288,    2100,     417,     976,    2093
    1289,     990,     984,     997,     438
    1290,    2050,     989,     368,     979
    1291,     995,    2066,     980,    2027
    1292,    2066,     995,     416,     994
    1293,     981,     440,    1195,    1145
    1294,     439,    1022,    2175,    2120
    1295,     993,     982,     347,     992
    1296,     988,     983,    1003,     992
    1297,     994,     416,    1005,     999
    1298,     997,     999,    1004,     438
    1299,     993,     992,    1007,    1000
    1300,     996,     975,    2144,     924
    1301,    2050,     987,    2086,     346
    1302,     977,     987,    2050,     979
    1303,     972,     988,     992,     347
    1304,     971,    2155,     983,     988
    1305,     994,    2099,    2067,    2066
    1306,    1018,     438,    1004,    2202
    1307,    2119,     439,     957,     959
    1308,     999,    1005,    1024,    1004
    1309,     999,     997,    2099,     994
    1310,    1007,     992,    1003,    1008
    1311,    2086,    1000,    1013,    2122
    1312,    1006,    1002,     325,    1012
    1313,    1005,     416,    1010,     437
    1314,     324,     996,    1006,    1011
    1315,    1013,    1007,    1008,     322
    1316,    1026,     459,    2181,     437
    1317,    1021,    1015,     415,    1112
    1318,    1051,    1012,     325,     326
    1319,    1013,    1019,    2161,    2122
    1320,    2202,     460,    1032,    1018
    1321,    1144,    1014,    1188,     299
    1322,    1188,    1014,    1017,     300
    1323,     459,    1023,    1016,    2181
    1324,    1018,    1032,    1022,     439
    1325,    1020,     392,    1130,    1231
    1326,    2187,    1022,     461,    1055
    1327,    2180,    1031,    1023,     459
    1328,    1023,    1031,    1025,     460
    1329,    1030,    1146,    1055,     461
    1330,    1203,    1148,    2159,    2160
    1331,    1028,    2159,    1148,     440
    1332,    2246,    1029,    2225,    1255
    1333,    1193,    1320,    1029,    2246
    1334,    1032,    1030,     461,    1022
    1335,    1031,     482,    1149,    2248
    1336,     611,    1068,    1033,    1083
    1337,    1145,    1195,    2034,     419
    1338,    2035,    1183,     420,    1035
    1339,     118,    1221,    1036,    1040
    1340,     119,    1041,    1036,    1221
    1341,     869,    1038,    1168,     137
    1342,    1233,     345,    2161,    2194
    1343,    1040,     832,    1217,     118
    1344,    1229,    1946,     119,    1280
    1345,     639,    1177,    1042,    1079
    1346,    1044,    1021,     436,    1169
    1347,    1045,      23,      22,    1086
    1348,    1046,     399,    1172,    1246
    1349,     400,    1046,    1246,    1162
    1350,    1194,    1047,     633,    1955
    1351,     634,    1063,    1048,    1944
    1352,     989,    1050,     345,    2103
    1353,    2122,    1050,     346,    2086
    1354,     302,    1051,     326,    1625
    1355,     336,    1093,    1052,    1190
    1356,     691,      41,    1052,    1093
    1357,     382,    1154,    1985,    1053
    1358,    1130,    1054,    1219,     391
    1359,     392,     974,    1054,    1130
    1360,    2225,    2187,    1055,     484
    1361,    1028,    1056,     463,    2159
    1362,     179,    1069,    1057,    1225
    1363,     614,     613,    1058,    2028
    1364,     725,    1060,    1938,      80
    1365,    1097,    1061,    1946,     120
    1366,       5,     665,    1061,    1097
    1367,    2036,    1187,    2074,    1323
    1368,    1067,    1065,     111,     758
    1369,    1066,    1227,     335,    1071
    1370,     759,     112,    1066,    1071
    1371,    1319,    1189,    1067,    1076
    1372,    1074,    1069,    1236,     199
    1373,     335,     357,    1111,    1071
    1374,     654,    1948,    1212,    1479
    1375,     301,    1290,     278,    1166
    1376,    1387,    1074,     199,     220
    1377,      12,      11,    1075,    1930
    1378,    1080,    1075,      11,     668
    1379,     265,    1319,    1076,    1226
    1380,    1078,     379,    1471,    1396
    1381,    1234,    1192,    1080,    1088
    1382,    1084,    1081,     568,    1949
    1383,     121,    1211,    1082,    1308
    1384,       7,     666,    1082,    1211
    1385,      32,      31,    1084,    1202
    1386,    1085,     398,    1152,    1961
    1387,    1961,    1172,     399,    1085
    1388,    1086,      22,     673,    1117
    1389,    1096,    1088,      10,       9
    1390,     126,    1213,    1089,    1287
    1391,    1097,    1090,       6,       5
    1392,    1127,    1091,      30,      29
    1393,    1222,    1238,    1091,    1127
    1394,    1094,    1072,     655,    1948
    1395,    1087,    1094,    1948,     654
    1396,    1120,    1096,       9,     667
    1397,    1098,    1935,    1934,     289
    1398,     312,     289,    1934,    1099
    1399,     647,    1107,    1102,    1976
    1400,    1118,    1105,     641,    1301
    1401,     312,    1099,    1106,    1235
    1402,    1109,     449,    1945,     472
    1403,     130,    1403,    1110,    1336
    1404,    1133,    1111,     357,    1160
    1405,     436,    1021,    1112,    1182
    1406,    1113,     652,      59,      58
    1407,    1114,    1941,    1995,    1362
    1408,     243,    1338,    1114,    1362
    1409,     326,     325,    1996,    1964
    1410,     645,    1115,    1116,    1978
    1411,    1191,    1117,    1140,     133
    1412,     122,    1198,    1120,    1131
    1413,     131,    1137,    1121,    1470
    1414,     242,     265,    1226,    1122
    1415,     374,    1180,    1261,    1123
    1416,      36,     687,    1124,    1208
    1417,    1125,    1202,     544,    1318
    1418,    1222,    1127,     612,    1317
    1419,    1128,     519,      84,     727
    1420,    1130,     391,    2084,    1231
    1421,    1211,    1131,       8,       7
    1422,     128,    1210,    1132,    1956
    1423,    1337,    1992,    1957,     220
    1424,    1135,     589,      87,      86
    1425,     420,    1183,    1136,    2000
    1426,    1187,    1136,    1269,    2074
    1427,    1137,     131,    1970,     132
    1428,     200,    1220,    1138,    1250
    1429,     520,    1242,     496,    1139
    1430,     458,    1540,    2241,    1141
    1431,     482,    1031,    2180,    2205
    1432,    1937,    1223,     651,    1975
    1433,    1244,    2010,    1975,     651
    1434,     543,    1214,    1143,    1224
    1435,    1181,    1144,     299,    1503
    1436,    1316,     483,    1197,     507
    1437,     638,    1178,    2029,    1147
    1438,    1147,    2029,    1179,     637
    1439,    2073,     441,    1183,    2035
    1440,    1149,    1174,    1300,    1197
    1441,    1150,    1296,    1180,     374
    1442,     422,    1164,    1961,    1152
    1443,    1153,     380,    1160,     356
    1444,    1355,    1471,     379,    1153
    1445,     375,    1478,    1296,    1150
    1446,    1396,    1156,     378,    1078
    1447,     402,     426,    1157,    1939
    1448,    1368,    1157,     426,    1258
    1449,    2103,    1158,     367,    1151
    1450,     344,    1385,    1158,    1281
    1451,    1159,     404,     428,    1206
    1452,    2261,    1163,    2268,    2266
    1453,    2261,     508,    2267,    1361
    1454,    1164,     422,    1186,    1254
    1455,    1164,    1254,    1353,     423
    1456,    1190,    1165,    1322,     336
    1457,     337,    1322,    1165,    1295
    1458,    1297,     407,     408,     384
    1459,    1166,     278,    1406,     277
    1460,     277,    2229,    2188,    1166
    1461,    1374,    1167,    1299,     610
    1462,    1167,    1374,     632,    1194
    1463,    1402,     158,    1201,    1497
    1464,    1324,    1169,     458,    1141
    1465,    1171,     373,    1123,    1261
    1466,    1976,     623,    2016,     647
    1467,    1448,    1348,    1294,     481
    1468,    1175,     120,    1262,    1367
    1469,    1177,    1314,    1178,     638
    1470,    1180,     352,    1965,    1261
    1471,    1183,     441,    1269,    1136
    1472,    1288,    1184,     156,    1971
    1473,    1364,    1254,    2075,     443
    1474,     422,    1062,    2037,    1186
    1475,     910,    1187,    2036,     421
    1476,    1320,    1193,     485,    1356
    1477,    1265,    1973,     632,    1345
    1478,    2035,    2034,    1195,    2073
    1479,    1264,    1184,     135,    1232
    1480,    1988,    1198,     122,    1240
    1481,    1199,    1265,    1285,     655
    1482,    1497,    1201,     180,    1327
    1483,    1148,    1203,     441,    2073
    1484,     426,     425,    1632,    1258
    1485,     116,    1952,    1205,    1986
    1486,    1408,    1206,    1390,     449
    1487,     429,    1159,    1206,    1408
    1488,     428,     427,    1257,    1310
    1489,     430,     407,    2021,    1207
    1490,    1210,      16,      15,    1132
    1491,    1479,    1212,    1401,     630
    1492,    1213,      14,      13,    1089
    1493,    1879,    1214,     543,    1326
    1494,     200,     180,    1215,    1220
    1495,     473,    1216,     496,    1334
    1496,    1217,     117,    1272,    1987
    1497,     243,     221,    1218,    1338
    1498,    1274,    1221,     118,    1405
    1499,    1991,    1317,    1960,    1298
    1500,    1282,    1284,    2022,    1347
    1501,     120,    1946,    1229,    1262
    1502,     125,    1077,    1230,    1444
    1503,    2133,    1303,    2173,     390
    1504,    1232,     134,    1291,    1264
    1505,    2226,    1407,    2195,    1268
    1506,    2161,     345,    1050,    2122
    1507,    1365,     198,    1266,    1236
    1508,    1237,     654,    1479,    1507
    1509,     653,    1237,    1507,     629
    1510,    1343,    1286,     590,    1447
    1511,     152,    1970,    1239,    2005
    1512,     143,    1988,    1240,    1382
    1513,    1243,     640,    1301,     617
    1514,     627,    1244,     651,    1331
    1515,     148,     149,     129,     128
    1516,    1395,    1245,     126,    1287
    1517,     127,     147,    1247,    1956
    1518,     451,    1248,     473,    1384
    1519,     153,    1315,     133,    1249
    1520,    1249,     132,    1970,     152
    1521,    1251,     424,     445,    1597
    1522,    1193,    1361,    1270,     485
    1523,     356,    1953,    1355,    1153
    1524,    1209,    1256,    1953,     356
    1525,    1368,    1258,     447,    1344
    1526,     441,    1203,    1259,    1269
    1527,     155,    1341,    2044,    1399
    1528,    1366,    1266,    1492,     219
    1529,    1290,    1267,    1388,     278
    1530,    2195,    1407,     344,    1281
    1531,    1279,    1271,    1454,     138
    1532,    1454,    1271,    1402,    1508
    1533,     359,    1273,     360,    1295
    1534,     384,     360,    1273,    1297
    1535,    1280,    1274,    1380,     140
    1536,    1467,    2023,     288,    1643
    1537,    1373,    1289,     124,    1192
    1538,    1365,     179,     178,    1443
    1539,     615,    1352,    2060,    1278
    1540,    1278,    2060,    1456,     614
    1541,    2229,    1389,    1283,    2188
    1542,    1463,    1283,    1389,     276
    1543,    1238,    1222,    1286,    1343
    1544,     157,    1228,    1288,    1971
    1545,    1293,    2160,    1370,    2207
    1546,    1346,     442,     464,     465
    1547,    2018,    1298,     613,    1414
    1548,    2011,    1991,    1298,    2018
    1549,    1300,    1174,     506,    1354
    1550,     544,    1949,    1302,    1657
    1551,     391,    1219,    1303,    2133
    1552,     605,     626,    1304,    1898
    1553,     497,    1242,    1305,    1993
    1554,    1155,     376,    1161,     353
    1555,    1395,    1457,    1309,    1245
    1556,    1669,    2015,    1309,    1350
    1557,    1569,    2047,    1640,    1636
    1558,     429,    1408,    1312,    1938
    1559,     424,    1313,    1453,     445
    1560,    1989,    1988,     143,    1587
    1561,     616,    1357,    2113,    1314
    1562,     507,    1449,    2268,    1316
    1563,    1163,    2253,    1316,    2268
    1564,    1318,    1714,    1398,     520
    1565,    1615,    1321,    1668,     329
    1566,     459,    1026,    1324,    2180
    1567,     542,    1879,    1326,    1852
    1568,    2026,     264,    1241,    1994
    1569,    1329,     244,    1413,    2109
    1570,    1357,    2096,     594,    1422
    1571,     595,    1330,     617,    1415
    1572,    2010,    1333,     650,    1975
    1573,    1335,     306,    1465,     330
    1574,     307,    1335,     331,    1410
    1575,     219,    1411,    1337,    1366
    1576,     154,    1315,    1339,    2048
    1577,     144,    1292,    1340,    1435
    1578,    2044,     156,    1184,    1264
    1579,    1516,    1343,    1447,     569
    1580,    1526,    1425,    1572,     469
    1581,     443,    1346,     465,    1364
    1582,    2024,     310,    2023,    1467
    1583,     334,    1256,    1347,     310
    1584,     505,    1446,    1348,    1448
    1585,    1476,     333,    1528,     355
    1586,    1494,    1416,    1457,     146
    1587,    1178,    1352,     615,    2029
    1588,     592,    2102,    1530,    2111
    1589,    1353,     444,    1502,    1453
    1590,     355,    1471,    1355,    1476
    1591,    1459,     510,     485,    1270
    1592,     463,    1356,     486,    1370
    1593,    2096,    1357,     616,    1243
    1594,    1477,    1358,     313,    1490
    1595,    1359,     458,    1169,     436
    1596,     288,    1275,    1360,    1452
    1597,    1424,    2264,     508,    2265
    1598,    1362,     267,    2042,     244
    1599,    2192,    2206,    1363,     435
    1600,    1364,     465,     466,     444
    1601,    1804,    2207,    1764,     487
    1602,    1965,    1426,    2020,    1372
    1603,    1372,    2020,    1451,     351
    1604,    1404,    1434,    1373,    1276
    1605,    1990,    1375,    1974,     628
    1606,    1378,    1511,    1431,     153
    1607,     285,    1379,     307,    1481
    1608,    1608,    1687,     306,    1379
    1609,    1418,    1438,     139,    1351
    1610,    1381,     572,    1421,     594
    1611,    1470,     151,    1584,     131
    1612,     130,    1336,    1473,     150
    1613,    1555,    1910,     163,     142
    1614,    1528,    1383,    1501,     355
    1615,    1383,    1528,     332,    2033
    1616,    1384,    1981,     474,     451
    1617,    1385,     343,    2214,     365
    1618,    1158,     366,    2173,     367
    1619,    1643,    1386,    1681,     287
    1620,    1681,    1386,     263,    1466
    1621,    1134,    1387,     220,    1957
    1622,    1428,    1462,     277,    1406
    1623,     448,    1437,    1509,    1433
    1624,    1455,    1391,     145,    1515
    1625,    1450,    1392,     140,     160
    1626,    1393,    1275,     288,    2058
    1627,    1393,    2058,    2022,    1284
    1628,    1478,    1615,    1397,    1296
    1629,    1272,    1400,     138,    1987
    1630,    2039,    1420,    1429,    1529
    1631,    1402,    1497,    1419,    1508
    1632,    1403,      18,      17,    1110
    1633,     144,    1435,     165,    1506
    1634,    2228,    1406,     278,    1388
    1635,    1411,     241,    1992,    1337
    1636,    1412,     239,    1483,     262
    1637,    2082,     168,    1581,     190
    1638,     159,    1438,    1418,    2125
    1639,     631,    1345,    1420,    2039
    1640,    2114,     593,    2145,    1422
    1641,    1421,    2114,    1422,     594
    1642,    1525,    2250,    1423,    2264
    1643,    1424,    2265,    1520,     532
    1644,    2264,    1424,     532,    1525
    1645,     470,    1437,    1425,    1526
    1646,    2025,     352,    1397,    1583
    1647,    1496,    1451,    2020,    1426
    1648,    1518,    1349,    1427,     309
    1649,    1428,    1514,     254,    2262
    1650,    1500,     610,    1896,    1886
    1651,     177,    1341,     155,    1468
    1652,     177,    2045,    2008,    1432
    1653,     471,    1945,    1433,    1509
    1654,    1559,    1509,    1437,     470
    1655,     140,    1380,    1439,     160
    1656,    1404,    1440,    2062,    1434
    1657,     279,    1570,     280,    1519
    1658,     198,    1365,    1443,    1517
    1659,     255,    1514,    2228,    1445
    1660,    1448,     481,    1491,     505
    1661,    1520,    1449,     531,    2240
    1662,     327,    1436,    1451,    1496
    1663,     146,    1391,    1455,    1494
    1664,     592,    1414,    1456,    2102
    1665,     506,    1458,    2254,    1354
    1666,     509,    1499,     533,    1542
    1667,    1459,    1542,    1637,    1658
    1668,    2147,    1460,    2192,     435
    1669,     413,    1539,    1460,    2174
    1670,    2262,    1670,    1462,    1428
    1671,    2263,    2255,    1462,    1670
    1672,    1517,    1585,    1464,     198
    1673,    1465,     329,    1668,     330
    1674,    1681,    1466,    1729,    1533
    1675,     177,    1468,    1799,    2045
    1676,    1543,    1540,     457,    1475
    1677,    1473,    1569,    1498,     150
    1678,    1560,     456,    1531,     479
    1679,    1349,     333,    1476,    1972
    1680,    1764,    1480,    1728,     487
    1681,     486,     510,    1480,    1764
    1682,    1481,     308,    2090,     286
    1683,     239,    1482,     217,    2118
    1684,     238,    1523,    2176,    1483
    1685,    1998,    1828,    1485,     618
    1686,    2206,    1486,     456,    1475
    1687,    1518,    1487,     333,    1349
    1688,    1547,    1633,    1654,     548
    1689,    1799,    1468,    1489,    1774
    1690,    1621,     504,    1691,    1541
    1691,    1588,    1503,    1493,     275
    1692,     168,    1416,    1494,    1566
    1693,    1622,     304,    1544,     328
    1694,     298,    1181,    1503,    1588
    1695,     531,    1449,    1504,    1545
    1696,    1612,    1893,     164,    1587
    1697,    1506,     165,    1550,     166
    1698,    2259,    2241,    1540,    1543
    1699,    1508,    1548,    2125,    1418
    1700,     159,     182,    2168,    1510
    1701,     160,    1439,    1510,    2124
    1702,    1512,     174,    1750,    2046
    1703,    1513,    2082,    1628,    1567
    1704,     231,    2243,    1556,    1557
    1705,    1515,     145,    1434,    2062
    1706,    1619,    1585,    1517,    1564
    1707,    1519,     280,    1635,     256
    1708,     256,    1635,     257,    1626
    1709,     555,    1682,    1602,    2212
    1710,    2142,    1743,    2176,     261
    1711,     455,    1486,    1522,    1769
    1712,     261,    2176,    1523,    1604
    1713,    1617,    1551,    2250,    1525
    1714,     492,    1571,    1891,    1680
    1715,     609,    1417,    1529,    1563
    1716,     592,    2111,    1642,     591
    1717,    2013,    1578,    1974,     629
    1718,     629,    1507,    1532,    2013
    1719,     238,    2118,    1534,    2158
    1720,    1585,    1535,     218,    1464
    1721,    1536,     570,    1664,    2077
    1722,    1639,    1537,     574,    1806
    1723,     574,    1484,    1538,    1806
    1724,    1539,     412,    1575,     434
    1725,    1616,    2224,     533,    1499
    1726,    1637,    1542,    1659,     534
    1727,     480,    2259,    1543,    1560
    1728,    1688,    1565,    1544,     304
    1729,     530,    1611,    1683,    2230
    1730,    1489,    1546,    1706,    1774
    1731,    1599,    1547,     548,    1629
    1732,     159,    2125,    1548,     182
    1733,    1563,    1549,     587,    1641
    1734,    1873,    1550,     165,    1505
    1735,    2196,    1551,    1617,    2197
    1736,    1552,    1692,     284,    1608
    1737,     285,    1521,    2142,    1552
    1738,    1884,    1553,     186,    2097
    1739,    1910,    1555,     162,    2076
    1740,     142,     163,     143,    1382
    1741,    2243,     230,     254,    1556
    1742,    2239,    1606,     231,    1557
    1743,    1682,     556,    1558,    2240
    1744,    1617,    1558,     556,    2197
    1745,    1623,    2256,     276,    1389
    1746,    2252,     479,    2211,    1773
    1747,    1562,     504,    1491,    2259
    1748,    1619,    1564,    1799,    1774
    1749,    1565,     303,    1625,     327
    1750,     167,    2108,    1618,    1566
    1751,     174,    1568,    1813,    2115
    1752,     493,    1571,     492,    1875
    1753,    1571,     493,     494,    1609
    1754,     175,    1725,    2098,    1573
    1755,    1714,    1574,     521,    1398
    1756,    1608,    1379,     285,    1552
    1757,     550,    2165,    1676,    1638
    1758,    1706,    1652,     216,    1579
    1759,     309,    2061,    1580,    2070
    1760,    1583,     329,     305,    1622
    1761,    1612,    1587,     143,     163
    1762,    1589,     530,    2254,    1458
    1763,    2200,    1773,    2211,    1591
    1764,    2170,    1591,     478,    1644
    1765,    1592,     573,    2087,    2104
    1766,    1592,     549,    1654,    1633
    1767,    2071,    1593,    1630,    2129
    1768,    1563,    1593,    2040,     609
    1769,    1594,     413,    2216,    2217
    1770,    2135,    1889,     489,    1595
    1771,    1882,     489,    2237,     513
    1772,     571,    1599,    1629,    1596
    1773,    1597,     445,    2091,     467
    1774,     454,    1738,    1598,    1769
    1775,    1709,     281,    1656,     303
    1776,    1570,    1600,    1661,     280
    1777,    2112,    2080,     411,    1705
    1778,    2212,    1602,    2230,    1683
    1779,     556,    1682,     555,    2156
    1780,     215,    1603,    1704,    2127
    1781,    1605,     446,     468,    2065
    1782,    1662,    1606,    1655,    1716
    1783,    1567,    1731,    1624,     169
    1784,    1674,    1609,     494,     495
    1785,    2137,    1614,    1818,    2171
    1786,     189,    1618,    1610,    2172
    1787,    2146,    1611,    1613,     553
    1788,     554,    1683,    1611,    2146
    1789,    1899,    1612,     163,    1910
    1790,    1613,     529,    1620,     553
    1791,     188,    1818,    1614,    1848
    1792,    1616,    2231,    1667,    2224
    1793,    2196,    1690,    2231,    1551
    1794,    1679,    1619,    1774,    1706
    1795,    1620,     528,    1673,     552
    1796,    1621,     505,    1491,     504
    1797,     170,    1669,    1624,    1749
    1798,    1627,    1924,    2124,    1554
    1799,    1649,    1708,     190,    1581
    1800,     191,    1567,    1628,    1666
    1801,    1596,    1629,     547,    2055
    1802,    1685,    1632,     446,    1605
    1803,     572,    1592,    1633,    1547
    1804,    2158,    1534,    1634,    1742
    1805,    1720,    1650,    1671,     281
    1806,    1851,    2132,     172,    1838
    1807,    1834,    1636,    2132,    1890
    1808,    1676,    1651,     549,    1638
    1809,    1636,    1640,     172,    2132
    1810,     181,    1577,     182,    1548
    1811,    1641,    1703,     564,    1630
    1812,     571,    1664,    1642,    2143
    1813,    2169,    2170,    1644,    2123
    1814,    2123,    1644,     477,    1693
    1815,    1645,     585,     607,    1578
    1816,    1717,    2151,     579,    2117
    1817,     555,    2179,    1646,    2156
    1818,     414,    1263,    1647,    2174
    1819,     490,    1854,    1883,    1648
    1820,    1710,     258,     234,    1815
    1821,     257,    1635,    1671,    1650
    1822,    1651,     525,    1737,    1713
    1823,    1714,    1657,     545,    1574
    1824,    1658,    1660,    1733,     511
    1825,    1659,     558,    1722,     534
    1826,    1733,    1660,     535,    1792
    1827,    1734,    1724,    2247,    1662
    1828,    1716,    1746,    1663,    1662
    1829,    2080,    2079,    1665,     411
    1830,     433,    1719,    1665,    2079
    1831,    1734,    1653,     211,    1724
    1832,    1700,     557,    1702,     580
    1833,    2015,     170,    1723,     147
    1834,    2260,     254,     230,     229
    1835,    1678,    1672,     412,    1594
    1836,     525,    1675,     501,    1737
    1837,     526,    1796,     502,    1675
    1838,    2184,    1676,    2165,     526
    1839,    2106,     578,    1727,     577
    1840,    1701,    1677,    2105,     601
    1841,    2212,    1683,     554,    1697
    1842,    1824,    1684,    2083,     171
    1843,    1687,     283,    1736,     305
    1844,     547,    1689,     523,    2055
    1845,    1717,    2150,    1690,    2196
    1846,     528,    1541,    1691,    2178
    1847,    1867,     260,    1761,     236
    1848,    1693,     476,    1735,     500
    1849,     539,    1730,    1694,    1763
    1850,    1695,    2069,     517,    2092
    1851,    1697,     554,    1699,    2131
    1852,     553,    1698,     576,    2146
    1853,     552,    1767,     575,    1698
    1854,    2131,    1699,    2088,    1726
    1855,    1700,     580,    1808,     581
    1856,    1700,     581,    1755,     558
    1857,    2116,    1748,    1741,     602
    1858,     579,    1677,    1701,    2117
    1859,    2085,    1768,    1703,     565
    1860,     197,    1753,     196,    1744
    1861,    2140,    1757,    2112,    2191
    1862,    1708,    1771,    1765,     211
    1863,     257,    1710,     233,    1626
    1864,    1758,    2242,    1868,    1878
    1865,    1623,    1711,     253,    2256
    1866,     551,    1639,    1712,    2177
    1867,    1673,    1712,    1767,     552
    1868,     527,    2178,     503,    1796
    1869,    2151,    1717,    2196,    2197
    1870,    1718,     232,    1759,    1803
    1871,    1805,    1762,    1719,     433
    1872,     258,    1650,    1720,    1754
    1873,     535,    1722,     559,    1775
    1874,    1662,    1663,    1666,    1734
    1875,    1724,     211,    1794,    2199
    1876,     197,    2098,    1725,    1753
    1877,     599,     577,    1726,    2054
    1878,    1747,    1728,     511,    1733
    1879,    2154,    1743,    2142,    1521
    1880,    1533,    1729,     286,    2090
    1881,    1694,    1730,    2130,     563
    1882,    1752,     203,    1732,     202
    1883,     477,    1598,    1738,    2064
    1884,    1820,    1739,    2185,     515
    1885,     538,    1783,    1739,    1820
    1886,    1917,    2233,     204,    1921
    1887,    1740,     204,    2233,    2234
    1888,    1790,     601,     622,    2016
    1889,    1800,    1816,     580,    2148
    1890,    1744,     196,    1832,     214
    1891,    1744,     214,    1787,    2157
    1892,     598,    2088,    1745,    1779
    1893,    1766,    1786,     212,    1718
    1894,    1702,    2149,    2148,     580
    1895,    2046,     175,    1430,    2005
    1896,    2115,    1778,    1750,     174
    1897,    2164,    1824,    1751,    1777
    1898,    1795,     259,    1831,     235
    1899,    1755,     582,    1809,     559
    1900,    1782,    1756,     282,    1770
    1901,    1758,     252,    1793,     253
    1902,    1759,     233,    2210,    1803
    1903,    2218,    1759,     232,    2239
    1904,    1814,    1761,     260,    1721
    1905,    1784,     539,    1763,    1826
    1906,    1765,     210,    1819,    2198
    1907,    2215,    1766,     213,    1822
    1908,     540,    1802,    1768,    1827
    1909,    1703,    1768,    1802,     564
    1910,    1626,     233,    1759,    2218
    1911,    1782,    1770,    1788,     259
    1912,    1755,     559,    1722,     558
    1913,     565,    1703,    1772,    2014
    1914,    1772,    1886,    1874,    2014
    1915,    1775,     560,    1797,     536
    1916,     209,    1819,     210,    1776
    1917,     229,     230,    1794,    2198
    1918,     193,    2215,    1822,    1838
    1919,     193,    2164,    1777,    2215
    1920,    2134,    1860,    1813,     173
    1921,     196,    1753,    1778,    1860
    1922,    1829,    1781,    1811,    1836
    1923,    1783,     538,    1825,     562
    1924,    2130,    1783,     562,    1696
    1925,    1785,     237,    1761,    1814
    1926,    1777,    1786,    1766,    2215
    1927,    1787,     214,    1881,     236
    1928,     204,    1740,    1789,    1869
    1929,    1817,     575,    1538,     597
    1930,    1792,     536,    1812,     512
    1931,    2199,    1794,     230,    2243
    1932,     235,    1857,     234,    1795
    1933,    1798,     453,    2004,     475
    1934,    2116,    1800,    2148,    2149
    1935,    1801,     488,    1804,     487
    1936,    2207,    1804,     464,    1293
    1937,     388,     364,    2221,    1807
    1938,    1809,     583,    1830,     560
    1939,     582,    1810,     604,    1847
    1940,    1866,    1810,     581,    1808
    1941,    1860,    2134,    1834,    1897
    1942,    1815,    1849,    1821,    2210
    1943,     602,    1841,    1800,    2116
    1944,    1866,    1816,     603,    2072
    1945,    1820,     514,    1842,     538
    1946,     489,    1889,    1801,    2237
    1947,    1867,    1833,    1823,     260
    1948,    1684,     193,    1838,     172
    1949,     517,    2139,    1888,    2092
    1950,    1835,    1789,    2182,     223
    1951,    1998,    1997,    2031,    1828
    1952,    2031,    1844,    2054,     598
    1953,    1827,    1829,    1836,     541
    1954,     565,    1781,    1829,    2085
    1955,    1830,     584,    2041,     561
    1956,    2258,    1840,     274,    2245
    1957,    1832,    1897,    1837,    2236
    1958,     465,     464,    1804,     488
    1959,    2251,    1833,    1881,    2236
    1960,     173,    1636,    1834,    2134
    1961,     195,    1897,    1834,    1890
    1962,    2201,    1853,    1856,    2249
    1963,     194,    1851,    1838,    1822
    1964,    1878,    1865,     252,    1758
    1965,     274,    1840,     251,    2244
    1966,    1841,     602,    1858,    2063
    1967,    1841,    2063,    1887,     603
    1968,     514,    1882,     513,    1842
    1969,    1854,     515,    1861,    1883
    1970,     512,    1812,     513,    2237
    1971,    2193,    1863,     208,    1859
    1972,     187,    1845,     188,    1848
    1973,     188,    1845,     209,    1776
    1974,    1863,    1845,     187,    1870
    1975,     588,     589,    1850,    1874
    1976,    1851,     194,    2201,    1872
    1977,    1862,    1852,    1695,    2092
    1978,    2053,    1695,    1852,     518
    1979,     235,    1831,    2251,    1856
    1980,    1881,    1833,    1867,     236
    1981,    1857,     235,    1856,    1853
    1982,    1859,     208,     228,    1865
    1983,     491,    1883,    1861,    1846
    1984,    2092,    1888,    2138,    1862
    1985,     541,    1862,    2138,    1827
    1986,     209,    1845,    1863,    2193
    1987,     516,    2153,    1888,    2139
    1988,    1864,     492,    1680,    1876
    1989,    1868,    1859,    1865,    1878
    1990,    1865,     228,    2209,     251
    1991,    1849,    1853,    2201,     194
    1992,     208,    1863,    1870,    1885
    1993,     624,    1887,    2063,    1871
    1994,    2201,    2249,    2223,    1872
    1995,     195,    1890,    1872,    2223
    1996,    2014,     566,    1781,     565
    1997,     493,    1875,     517,    2069
    1998,    1928,     248,    1919,     225
    1999,    2162,    1877,     224,    2203
    2000,    1887,    1880,    2072,     603
    2001,    1409,    1880,    1892,     625
    2002,    2236,    1881,     214,    1832
    2003,    1902,     207,    2097,     186
    2004,     207,    1894,    1885,    2097
    2005,    1874,    1886,    1896,     588
    2006,    1901,    1892,     624,     648
    2007,    1780,    2138,    1888,    2153
    2008,    2139,     517,    1875,     516
    2009,     466,     465,    1889,    2135
    2010,    1893,     185,    1902,     186
    2011,     468,    1648,    1895,    2065
    2012,    1897,     195,    2223,    1837
    2013,     606,     584,    1898,    2032
    2014,    1904,    1907,    1900,     207
    2015,     226,    1920,     249,     250
    2016,    1903,     227,    1900,    1907
    2017,    1912,    1913,    1908,    1906
    2018,     185,    1899,    1905,    1912
    2019,    1908,     205,    1915,     206
    2020,    1911,     184,    2076,     162
    2021,    1916,    2126,    1923,     161
    2022,    1914,    1911,    2126,     183
    2023,     162,    1555,    1474,    1923
    2024,    1913,    1912,     184,    2167
    2025,    2167,    1914,    2233,    1917
    2026,    1914,     183,    2234,    2233
    2027,    1911,    1914,    2167,     184
    2028,    1921,    1925,     205,    2232
    2029,     225,    1918,    1915,    1925
    2030,    1924,    1916,     161,    1450
    2031,    2167,    1917,    2232,    1913
    2032,    1919,     248,    1927,    1926
    2033,    1916,    1922,     183,    2126
    2034,    1869,    2204,    2235,    1925
    2035,    1928,    2235,     224,    1877
    2036,    1930,    1931,     669,      12
    2037,    1933,     677,      25,     792
    2038,    1936,    1935,    1098,    1941
    2039,    1940,     782,     703,     770
    2040,    1941,    1098,     266,    1995
    2041,     849,    1947,     844,    1954
    2042,    1952,     116,     856,     891
    2043,    1972,    1953,    1256,     334
    2044,    1962,     810,     817,     866
    2045,    1426,    1965,     352,    2025
    2046,    1966,     349,    2002,     894
    2047,    1967,     894,    2002,     904
    2048,     622,    2057,    2019,    1977
    2049,    1979,     620,    1844,     619
    2050,    1981,     497,    1993,     498
    2051,     474,    1981,     498,    2017
    2052,    1154,     406,    1984,    1985
    2053,    1984,    2021,     383,    1985
    2054,    2009,    1990,     628,     606
    2055,    1331,    1990,    2009,     627
    2056,     590,    1286,    1991,    2011
    2057,     242,    1957,    1992,    1994
    2058,     618,     643,    1997,    1998
    2059,    1997,     619,    1844,    2031
    2060,    2013,    1532,    2040,     608
    2061,     310,    1347,    2022,    2023
    2062,    2023,    2022,    2058,     288
    2063,    1427,    2024,    2061,     309
    2064,    2028,     865,     637,    1179
    2065,    1062,     421,    2036,    2037
    2066,    1640,    2047,    1311,    2083
    2067,    2069,    2052,     494,     493
    2068,     518,    1376,    2052,    2053
    2069,    2056,     325,    1002,    2003
    2070,    2059,    1430,     175,    1573
    2071,    1410,    2033,     332,     308
    2072,     980,    2066,    2067,     986
    2073,    2068,     600,     621,    2012
    2074,     308,    1487,    2070,    2090
    2075,     410,     409,    2079,    2080
    2076,    2084,     391,    2133,    1263
    2077,    2104,    2087,     550,    1638
    2078,     339,    2089,     362,    2141
    2079,    2093,     976,     986,    2067
    2080,     150,    1498,    1568,    2095
    2081,    2098,     197,    2127,    1704
    2082,    2093,    2067,    2099,    2100
    2083,    2057,     601,    2105,    2068
    2084,     600,    2068,    2105,    2106
    2085,    2107,    1586,    2137,    1610
    2086,    2062,    2107,    2108,    1515
    2087,    2111,    1530,    1582,    2143
    2088,     981,     969,    2120,    2121
    2089,    2121,    2120,    2175,    1027
    2090,    2129,     563,     586,    2071
    2091,    2155,     971,     955,    2128
    2092,    2191,    2112,    1705,    1807
    2093,    2145,     593,    1352,    2113
    2094,    1748,    2116,    2149,    2150
    2095,    1702,    1690,    2150,    2149
    2096,     556,    2156,    2151,    2197
    2097,    1826,    2152,    1846,    1861
    2098,     516,    1864,    2152,    2153
    2099,     262,    1743,    2154,    1729
    2100,    2160,    2159,     463,    1370
    2101,    2161,    1019,    1039,    2194
    2102,    2165,    1576,    2186,     526
    2103,    1591,    2170,     502,    2200
    2104,    2171,    2172,    1610,    2137
    2105,     189,    2172,    2189,    1771
    2106,    2175,    1022,    2187,    1027
    2107,    2186,    2177,     527,    1796
    2108,    2202,    1024,    2181,    1016
    2109,     203,    1752,    2182,    1789
    2110,    2191,    2183,     387,    2140
    2111,    1651,    1713,    1654,     549
    2112,    1818,     188,    1776,    2171
    2113,    1814,    1721,    2190,    1604
    2114,    1835,    2163,    2203,    2204
    2115,    2235,    2204,    2203,     224
    2116,     481,    2205,    1141,    2241
    2117,     434,    1486,    2206,    2192
    2118,    2208,     227,     250,    2209
    2119,     228,    2166,    2208,    2209
    2120,     342,    2227,    2222,    2238
    2121,    2217,    2216,     389,    1631
    2122,    2219,     297,    2245,     274
    2123,     364,     388,    2220,    2222
    2124,    2221,     364,     341,     363
    2125,    1268,     321,    1377,    2226
    2126,    2227,     342,     317,     341
    2127,    2234,     183,    1922,    1740
    2128,    1606,    1662,    2247,     231
    2129,     250,     227,    1903,     226
    2130,    2243,     231,    2247,    2199
    2131,    2250,    1616,    1499,    1423
    2132,     484,    2253,    1163,    2261
    2133,     276,    2256,    2257,    1561
    2134,     480,    2252,    1562,    2259
    2135,    2260,    1670,    2262,     254
    2136,    2263,    1711,    1623,    2255
    2137,    2267,     509,    1270,    1361
*Element, type=U3
    2138,     135,    1184,    1196
    2139,    2032,    1898,    1304
    2140,    1354,    1504,    1300
    2141,    1979,     619,     644
    2142,    1384,     473,    1334
    2143,    1356,     463,    1056
    2144,    2190,     284,    1692
    2145,    1822,     213,    1821
    2146,    2247,    1724,    2199
    2147,    2232,    1917,    1921
    2148,    1857,    1853,    1849
    2149,     210,    1765,    1771
    2150,     946,     916,     927
    2151,    2025,     328,    1426
    2152,    2084,     415,    1231
    2153,     967,     961,     953
    2154,    2186,    1796,     526
    2155,     840,     771,     776
    2156,    1947,     838,     844
    2157,     770,     703,     702
    2158,     887,     870,     657
    2159,     418,     923,     934
    2160,     137,    1986,    1205
    2161,     971,     963,     955
    2162,    1056,    1028,     462
    2163,    1013,    1000,    1007
    2164,    2100,    2099,     997
    2165,    1255,    2225,     484
    2166,    1196,    1059,     136
    2167,    1297,    1273,     383
    2168,    1469,    1359,    1253
    2169,    1377,     321,    1590
    2170,    2195,    1233,    1268
    2171,    1504,    1449,     507
    2172,    2213,     319,     318
    2173,    2039,    1529,    1417
    2174,    1488,    2114,    1421
    2175,     176,    2059,    1573
    2176,    1549,    1500,     587
    2177,    1502,     444,     466
    2178,     457,    1540,    1469
    2179,    2168,    1686,    1554
    2180,    1559,     471,    1509
    2181,    1567,     169,    1513
    2182,    1642,    2111,    2143
    2183,    1302,     545,    1657
    2184,    1742,    1634,     215
    2185,    1749,    1723,     170
    2186,    1465,     305,     329
    2187,    1805,    2081,    1762
    2188,    1784,    1861,     515
    2189,    1925,    1915,     205
    2190,    1896,     610,    1299
    2191,    1996,     350,    1964
    2192,     925,    1400,    1272
    2193,     601,    2057,     622
    2194,    2015,    1669,     170
    2195,    1273,     359,    2038
    2196,    2049,     993,    1000
    2197,     308,     332,    1487
    2198,    2060,    1352,     593
    2199,     963,    2101,     958
    2200,    2162,    2203,    2163
    2201,    2166,     228,    1894
    2202,    1826,    1861,    1784
    2203,    1024,    2202,    1004
    2204,    2231,     557,    1667
    2205,    2221,     363,    2183
    2206,    2268,    1449,    2266
** ==========================================================
** Layer 2: Displacement Elements (U2 Quads & U4 Tris)
** ==========================================================
*Element, type=U2
    2207,     761,     680,     679,     769
    2208,    1059,    1288,    1228,     115
    2209,    1291,    1399,    2044,    1264
    2210,    1191,     154,    1291,     134
    2211,    1249,     133,    1140,     132
    2212,    1239,    1970,     131,    1584
    2213,     130,     150,     151,    1470
    2214,    1956,    1247,     148,     128
    2215,     127,     126,    1245,     147
    2216,    1444,    1395,    1287,     125
    2217,    1444,    1230,    1391,     146
    2218,    1276,    1373,    1192,    1234
    2219,    1292,    1276,    1234,     123
    2220,    1340,    1198,    1988,    1989
    2221,    1240,     122,     121,    1472
    2222,    1367,    1495,    1308,    1175
    2223,    1262,    1229,    1392,     141
    2224,    1221,    1274,    1280,     119
    2225,    1217,    1987,    1405,     118
    2226,    1400,     925,    1986,     137
    2227,    1205,     824,     869,     137
    2228,    1070,    1038,      50,     695
    2229,    1168,    1038,    1070,     158
    2230,     158,    1070,    1104,    1201
    2231,    1497,    1327,     181,    1419
    2232,     202,    1577,     201,    1306
    2233,     223,     222,     246,    1855
    2234,     246,     269,     247,    1855
    2235,     293,    2136,     270,    2094
    2236,     295,     294,     318,     319
    2237,     343,    2213,     318,     342
    2238,    1385,     344,    2213,     343
    2239,     367,    2173,    1303,    1219
    2240,    1015,    1020,    1231,     415
    2241,     978,     964,     984,     990
    2242,     438,    1018,     998,     990
    2243,    1027,    1029,    1320,     462
    2244,     486,    1356,     485,     510
    2245,     510,    1459,    1658,     511
    2246,     536,    1792,     535,    1775
    2247,     560,    1830,     561,    1797
    2248,     584,     607,     585,    2041
    2249,     608,    1645,    1578,    2013
    2250,    1507,    1479,     630,    1532
    2251,    1094,    1087,      57,      56
    2252,    1072,    1094,      56,     706
    2253,    1043,    1072,     706,      55
    2254,    1072,    1043,    1199,     655
    2255,     804,     823,     705,     704
    2256,     632,    1973,    1047,    1194
    2257,    1068,     611,    1299,    1167
    2258,    1299,     611,     588,    1896
    2259,    1850,     567,    1839,     566
    2260,    1811,    1839,    1879,     542
    2261,    1326,     543,     518,    1852
    2262,    2052,    1376,     495,     494
    2263,    1674,     472,    1945,     471
    2264,     449,    1390,    1433,    1945
    2265,    1206,     428,    1310,    1390
    2266,     405,     404,    1159,     429
    2267,    2293,    2292,     405,    1060
    2268,     405,    2292,    2291,     404
    2269,     404,    2291,    2290,     403
    2270,    1369,     448,    1310,    1257
    2271,    1609,    1559,     470,    1571
    2272,    2053,    2052,    2069,    1695
    2273,    1781,     566,    1839,    1811
    2274,    1886,    1772,     587,    1500
    2275,    1500,    1549,    1429,     610
    2276,    1345,     632,    1374,    1420
    2277,    1199,     656,    1973,    1265
    2278,    1285,    1265,    1345,     631
    2279,     656,     864,    1047,    1973
    2280,     753,     791,     803,     104
    2281,     781,    1933,     792,     848
    2282,      24,     828,     812,     675
    2283,     135,     874,    1045,    1232
    2284,    1086,     134,    1232,    1045
    2285,    1140,      21,      20,     132
    2286,     132,      20,     672,    1137
    2287,    1121,      19,      18,    1403
    2288,    1121,    1403,     130,    1470
    2289,     671,    1126,    1110,      17
    2290,    1126,    1210,     128,     129
    2291,     670,    1129,    1132,      15
    2292,    1129,    1213,     126,     127
    2293,     669,    1931,    1089,      13
    2294,    1230,    1077,     124,    1289
    2295,    1088,    1080,     668,      10
    2296,     123,    1234,    1088,    1096
    2297,    1131,    1120,     667,       8
    2298,    1131,    1211,     121,     122
    2299,    1090,    1082,     666,       6
    2300,    1097,     120,    1175,    1090
    2301,    1061,    1041,     119,    1946
    2302,       4,     664,    1036,    1041
    2303,     826,     832,       2,     663
    2304,     856,     116,     798,     786
    2305,     841,     852,     787,     891
    2306,     777,     786,     661,     660
    2307,     824,     801,      52,     696
    2308,      49,      48,    1215,    1104
    2309,    1104,    1215,     180,    1201
    2310,     201,     200,    1250,    1306
    2311,    2109,    1413,     222,    1306
    2312,     269,     246,     245,     268
    2313,    2094,     270,     269,     268
    2314,     293,     317,     294,    2136
    2315,     317,     342,     318,     294
    2316,     343,     342,    2238,    2214
    2317,    2173,     366,     365,     390
    2318,     415,    2084,    1263,     414
    2319,    1015,    1010,     416,     995
    2320,     460,    1025,    1030,    1032
    2321,    1255,    1361,    1193,    2246
    2322,     535,    1660,     534,    1722
    2323,    1809,     560,    1775,     559
    2324,     605,    1898,     583,    1847
    2325,     606,     628,     607,     584
    2326,     629,    1974,    1375,     653
    2327,    1087,    1092,     707,      57
    2328,    1087,     654,    1237,    1092
    2329,    1220,    1215,      48,     694
    2330,     694,      47,    1138,    1220
    2331,    1329,    2109,     221,     243
    2332,     244,    2042,     245,    1413
    2333,     292,     316,     293,    2094
    2334,     316,     341,     317,     293
    2335,     341,     364,    2222,    2227
    2336,     365,    2214,    2220,    1631
    2337,    1647,     390,     389,    2216
    2338,     415,     414,    2147,    1112
    2339,     437,    1010,    1044,    1026
    2340,    1016,    1023,     460,    2202
    2341,    1146,    2253,     484,    1055
    2342,     509,    2267,    1423,    1499
    2343,     533,    2224,    1659,    1542
    2344,    1847,     583,    1809,     582
    2345,    1375,    1990,    1331,     652
    2346,    1113,     653,    1375,     652
    2347,    1092,    1113,      58,     707
    2348,      47,      46,    1218,    1138
    2349,    1138,    1218,     221,    1250
    2350,    1362,     244,    1329,     243
    2351,     268,     267,    2007,    2043
    2352,     291,     315,     292,    2043
    2353,     315,     340,     316,     292
    2354,     340,     363,     341,     316
    2355,    1807,    2221,    2183,    2191
    2356,    2217,    1631,    2220,     388
    2357,    2174,    1460,    2147,     414
    2358,     457,    1469,    1253,    1363
    2359,    2180,    1324,    1141,    2205
    2360,    1149,    1197,     483,    2248
    2361,    2265,     508,    2261,    2266
    2362,    1616,    2250,    1551,    2231
    2363,    1700,     558,    1667,     557
    2364,     581,    1810,     582,    1755
    2365,     604,    1409,     605,    1847
    2366,    1304,    1244,     627,    2032
    2367,    1223,     652,    1331,     651
    2368,      59,     652,    1223,      60
    2369,    1338,    1218,      46,     693
    2370,     693,      45,    1114,    1338
    2371,     267,     266,     290,    2007
    2372,    1490,     291,    2043,    2007
    2373,     314,     339,     315,     291
    2374,     362,     387,    2183,     363
    2375,     388,    1807,    1705,    1678
    2376,     412,    1539,     413,    1594
    2377,     435,    1363,    1253,    1182
    2378,     458,    1359,    1469,    1540
    2379,     482,    1294,    1174,    1149
    2380,    1558,     532,    1520,    2240
    2381,     557,    2231,    1690,    1702
    2382,    1808,     580,    1816,    1866
    2383,    2072,     604,    1810,    1866
    2384,     625,    1333,    2010,     626
    2385,      61,     708,    1937,    1142
    2386,    1252,    1142,     650,    1333
    2387,      44,    1935,    1936,      45
    2388,    1936,    1941,    1114,      45
    2389,    1477,     290,     289,     312
    2390,     337,     313,    1358,    1322
    2391,     338,     361,    2089,     339
    2392,     362,    2089,     386,     387
    2393,     387,     386,    1757,    2140
    2394,    1575,     412,    1672,    1601
    2395,    1475,     457,    1363,    2206
    2396,    1491,     481,    2241,    2259
    2397,     506,    1348,    1446,    1458
    2398,     531,    1545,    2230,    1602
    2399,    2156,    1646,     579,    2151
    2400,    1741,    1748,    2117,    1701
    2401,    1841,     603,    1816,    1800
    2402,     625,    1892,    1901,    1333
    2403,      61,    1142,    1252,      62
    2404,     692,    1934,    1935,      44
    2405,     692,      43,    1099,    1934
    2406,    1235,    1358,    1477,     312
    2407,    1295,     338,    1461,     337
    2408,     385,     361,     360,     384
    2409,     386,     385,     410,    1757
    2410,     411,    1665,    1601,    1672
    2411,     434,    1575,    1522,    1486
    2412,     456,    1486,     455,    1531
    2413,    2252,     480,    1560,     479
    2414,    1524,    1446,     505,    1621
    2415,    1611,     530,    1589,    1613
    2416,    2212,    1697,    2179,     555
    2417,     579,    1646,     578,    1677
    2418,     602,    1741,    1790,    1858
    2419,     624,    1871,    1173,     648
    2420,    1101,      63,     709,     649
    2421,    1100,    1101,     648,    1173
    2422,      43,      42,    1106,    1099
    2423,     336,    1235,    1106,    1093
    2424,    1165,    1064,     359,    1295
    2425,     385,     384,     409,     410
    2426,     433,    2079,     409,     432
    2427,     455,    1769,    1598,     478
    2428,     479,     478,    1591,    2211
    2429,    1715,    1691,     504,    1562
    2430,    1620,     529,    1541,     528
    2431,    1699,     554,    2146,     576
    2432,    2179,    1727,     578,    1646
    2433,    1790,    2016,     623,    1858
    2434,    1102,    1100,    1173,    1976
    2435,      63,    1101,    1100,      64
    2436,      42,     691,    1093,    1106
    2437,    1052,     825,     358,    1190
    2438,    1064,     890,    2038,     359
    2439,     408,     432,     409,     384
    2440,    1805,     433,     432,     453
    2441,    1762,     454,    1760,    1719
    2442,    1644,     478,    1598,     477
    2443,    1773,    2200,     503,    1715
    2444,    1673,     528,    2178,     527
    2445,    1698,     553,    1620,     552
    2446,    2131,    1726,     577,    1727
    2447,     621,     600,     599,     620
    2448,    2019,    2012,    1978,    1977
    2449,     646,    1107,     647,    1977
    2450,     710,    1102,    1107,      65
    2451,     814,     825,     690,      40
    2452,     825,     814,     867,     358
    2453,    2006,    1053,    1985,     383
    2454,     431,     408,     407,     430
    2455,     431,     453,     432,     408
    2456,    1805,     453,    1798,    2081
    2457,    1693,     477,    2064,     476
    2458,    2169,    1675,     502,    2170
    2459,    2177,    2186,    1576,     551
    2460,    1767,    1712,    1639,    1806
    2461,    1791,    1745,     576,    1698
    2462,    2054,    1844,     620,     599
    2463,     645,     621,     620,    1979
    2464,    1978,    1116,     646,    1977
    2465,      66,      65,    1107,     646
    2466,     822,     814,      40,     689
    2467,     872,     897,     406,    1154
    2468,    1207,    2021,    1984,     406
    2469,     431,     430,    1983,     452
    2470,     452,    2004,     453,     431
    2471,    1735,     476,     475,    2017
    2472,    1737,     501,     500,     524
    2473,     525,    1651,    1676,    2184
    2474,     551,    1576,    1537,    1639
    2475,    1806,    1538,     575,    1767
    2476,     598,    1779,    1828,    2031
    2477,    1115,     711,      67,    1116
    2478,      66,     646,    1116,      67
    2479,      39,      38,     897,     872
    2480,     406,     897,    1037,    1207
    2481,    1207,    1325,    1983,     430
    2482,     452,     451,     474,    2004
    2483,    2017,     475,    2004,     474
    2484,     499,     524,     500,    1735
    2485,    1654,    1713,    1689,     548
    2486,    1592,    2104,    1638,     549
    2487,    1484,     574,    2087,     573
    2488,     597,     596,    1485,    1828
    2489,    1997,     643,    1980,     619
    2490,    1980,    1108,     644,     619
    2491,      68,     711,    1115,     644
    2492,    1095,    1037,     688,      37
    2493,    1095,    1208,     450,    1325
    2494,    1248,     451,    1982,     450
    2495,     523,     499,     498,     522
    2496,     523,    1689,     524,     499
    2497,     572,    1547,    1488,    1421
    2498,     572,    1381,     573,    1592
    2499,     596,     595,    1415,    1485
    2500,    1103,     712,      69,    1108
    2501,      68,     644,    1108,      69
    2502,      37,      36,    1208,    1095
    2503,     450,    1208,    1124,    1248
    2504,    1993,    1305,     522,     498
    2505,    2055,     523,     522,     546
    2506,    1629,     548,    1689,     547
    2507,    1381,    1330,     595,     573
    2508,     641,    1105,     642,    1969
    2509,     642,      70,     712,    1103
    2510,    1216,    1124,     687,      35
    2511,    1124,    1216,     473,    1248
    2512,    1242,     497,    1334,     496
    2513,     522,     521,    1574,     546
    2514,    2114,    1488,    1582,    1530
    2515,    1422,    2145,    2113,    1357
    2516,    1243,     617,    1330,    2096
    2517,    1118,     713,      71,    1105
    2518,      70,     642,    1105,      71
    2519,      34,     496,    1216,      35
    2520,    1139,     496,      34,      33
    2521,    1657,    1714,    1318,     544
    2522,    1574,    1536,    2077,     546
    2523,    1664,     571,    1596,    2077
    2524,    2060,     593,    2102,    1456
    2525,     616,    1314,    1177,     639
    2526,     639,    1079,    1200,     640
    2527,     713,    1118,    1200,      72
    2528,    1125,    1139,      33,     686
    2529,     569,     545,    1302,    1516
    2530,     570,    1447,    2051,    1664
    2531,    1414,     592,     591,    2018
    2532,    1278,    1179,    2029,     615
    2533,     714,    1042,     875,      74
    2534,    1079,      73,      72,    1200
    2535,     520,    1139,    1125,    1318
    2536,    1202,    1084,    1949,     544
    2537,    1238,    1343,    1516,     568
    2538,    2051,    2011,    2018,     591
    2539,    1034,    1058,     613,    1176
    2540,     637,     821,     830,    1147
    2541,      74,     875,     830,     715
    2542,    1081,    1084,      31,     685
    2543,    1091,    1081,     685,      30
    2544,    1286,    1222,    1317,    1991
    2545,     818,     816,     865,    1963
    2546,      75,     821,     816,     716
    2547,    1081,    1091,    1238,     568
    2548,    1048,    1063,    1170,     612
    2549,     810,    1962,     863,     808
    2550,     716,     816,     818,      76
    2551,     876,    1127,      29,     684
    2552,     831,     876,     684,      28
    2553,     634,     800,     857,    1063
    2554,      77,     810,     808,     719
    2555,    1944,    1048,     876,     831
    2556,     790,     805,     683,     682
    2557,      78,     793,     784,     721
    2558,     771,     840,     790,     763
    2559,     804,     794,     849,     864
    2560,     838,     851,     780,     844
    2561,     813,     797,      90,     731
    2562,     870,     813,     827,     633
    2563,     873,     827,      89,     730
    2564,     873,    1033,    1068,    1955
    2565,     611,    1083,     589,     588
    2566,    1143,    1135,      86,     728
    2567,     567,    1135,    1143,    1214
    2568,      84,     519,    1224,      85
    2569,    1119,    1128,     727,      83
    2570,      82,     472,    1119,      83
    2571,      82,     726,    1109,     472
    2572,      80,    1938,    1312,      81
    2573,    1060,     405,     429,    1938
    2574,     380,    1153,      93,      92
    2575,    1939,    2289,    2288,     402
    2576,    1157,     427,     403,    1939
    2577,    1368,    1344,    1369,    1257
    2578,     447,    1685,    1572,    1344
    2579,    1526,     469,    1680,    1891
    2580,    1864,     516,    1875,     492
    2581,     540,    1827,    2138,    1780
    2582,    1768,    2085,    1829,    1827
    2583,     587,    1772,    1703,    1641
    2584,    1549,    1563,    1529,    1429
    2585,     630,    1401,    1417,     609
    2586,     655,    1285,    1212,    1948
    2587,    1212,    1285,     631,    1401
    2588,     402,    2288,    2287,     401
    2589,    1258,    1632,    1685,     447
    2590,    1605,     469,    1572,    1685
    2591,    1895,    1876,    1680,    2065
    2592,    2152,    1864,    1876,    1846
    2593,    1763,     540,    1780,    1826
    2594,    1694,     563,     564,    1802
    2595,     608,    2040,    1593,    2071
    2596,    1532,     630,     609,    2040
    2597,     738,      95,     378,     377
    2598,    2286,     400,     401,    2287
    2599,    1162,     425,     401,     400
    2600,    1251,     446,    1632,     425
    2601,     468,    1597,     467,    1648
    2602,     491,    1895,    1648,    1883
    2603,    1854,     514,    1820,     515
    2604,    2185,     539,    1784,     515
    2605,    1783,    2130,    1730,    1739
    2606,    2130,    1696,     586,     563
    2607,    1645,     608,    2071,     586
    2608,     585,    1645,     586,    1696
    2609,     400,    2286,    2285,    1046
    2610,    1046,    2285,    2284,     399
    2611,     423,    1313,    1246,    1172
    2612,    1353,    1453,    1313,     423
    2613,    1502,     466,    2135,    2091
    2614,     467,    1595,     490,    1648
    2615,    1882,     514,    1854,     490
    2616,    1812,     537,    1842,     513
    2617,    1825,     561,    2041,     562
    2618,     562,    2041,     585,    1696
    2619,     376,    1155,      97,      96
    2620,     398,    1085,    2283,    2282
    2621,    1961,    1164,     423,    1172
    2622,    2075,    1254,    1186,    2037
    2623,     488,    1801,    1889,     465
    2624,     512,    2237,    1801,    1747
    2625,    1797,     561,    1825,     537
    2626,     536,    1797,     537,    1812
    2627,     374,     740,      98,    1150
    2628,     397,     911,    2281,    2280
    2629,     911,     926,    1152,     398
    2630,    2037,    2036,    1323,    2075
    2631,     442,    1346,    1323,    2074
    2632,    1728,    1747,    1801,     487
    2633,    1792,     512,    1747,    1733
    2634,     373,     741,      99,    1123
    2635,     820,     397,    2280,    2279
    2636,     420,    2000,     892,    1959
    2637,    1259,     442,    2074,    1269
    2638,     442,    1259,    1293,     464
    2639,    1370,     486,    1764,    2207
    2640,     511,    1728,    1480,     510
    2641,     742,     100,     815,     372
    2642,     395,     858,     807,     799
    2643,     871,     858,     884,    1035
    2644,    2073,    1195,     440,    1148
    2645,     462,     991,    2121,    1027
    2646,    1320,    1356,    1056,     462
    2647,     744,     101,     806,     855
    2648,     779,    1958,     845,     789
    2649,     886,     419,    2034,     884
    2650,     923,     418,     947,     905
    2651,    2121,     991,     440,     981
    2652,     788,     778,     746,     102
    2653,     768,     766,     880,     835
    2654,     921,     880,     902,     931
    2655,     439,    2119,     998,    1018
    2656,     959,     957,     418,     943
    2657,      92,     736,     381,     380
    2658,     760,     381,     736,      91
    2659,     760,     114,    1133,     381
    2660,    1209,     356,    1160,     357
    2661,     334,    1427,    1349,    1972
    2662,    1533,    2090,    2070,    1580
    2663,    1521,     285,    1481,     286
    2664,    1604,    1523,    1785,    1814
    2665,    1787,     237,    1742,    2157
    2666,    1860,    1897,    1832,     196
    2667,    1851,    1872,    1890,    2132
    2668,     171,    2083,    1311,    1307
    2669,    1247,     147,    1723,    1307
    2670,    1307,    1723,    1749,     171
    2671,     147,    1245,    1309,    2015
    2672,    1160,     380,     381,    1133
    2673,    1953,    1972,    1476,    1355
    2674,    1487,     332,    1528,     333
    2675,     308,    1481,     307,    1410
    2676,     261,    1692,    1552,    2142
    2677,    1788,    1721,     260,    1823
    2678,    2249,    1856,    1837,    2223
    2679,     193,    1684,    1824,    2164
    2680,    1731,    1751,    1749,    1624
    2681,     171,    1749,    1751,    1824
    2682,    1607,    1731,    1567,     191
    2683,    1669,    1350,     169,    1624
    2684,    1566,    1494,    1455,     167
    2685,    1586,    2107,    2062,    1440
    2686,    1506,    1440,    1404,     144
    2687,    1340,    1989,    1442,    1435
    2688,    1442,    1989,    1587,     164
    2689,    1495,    1555,     142,    1472
    2690,    1450,     161,     141,    1392
    2691,    1438,    1439,    1380,     139
    2692,     138,    1454,    1351,    1987
    2693,    1168,    1271,    1279,     137
    2694,    1271,    1168,     158,    1402
    2695,      94,     737,     379,    1078
    2696,     737,      93,    1153,     379
    2697,    1332,    1501,    1383,    2033
    2698,    2033,    1410,     331,    1332
    2699,    1379,     306,    1335,     307
    2700,     259,    1788,    1823,    1831
    2701,     234,    1857,    1849,    1815
    2702,    1786,    1777,    1751,     192
    2703,    1786,     192,    1746,     212
    2704,    1607,    1663,    1746,     192
    2705,    1731,    1607,     192,    1751
    2706,    1416,    1513,     169,    1350
    2707,    1581,     168,    1566,    1618
    2708,    1610,    1618,    2108,    2107
    2709,    1848,    1614,     166,    1550
    2710,    1873,    1505,    1553,    1884
    2711,     164,    1893,     186,    1553
    2712,    1899,     185,    1893,    1612
    2713,    1905,    2076,     184,    1912
    2714,    1916,    1924,    1627,    1922
    2715,    2124,    1510,    2168,    1554
    2716,    1419,     181,    1548,    1508
    2717,    1732,     182,    1577,     202
    2718,     181,    1327,     201,    1577
    2719,      95,      94,    1078,     378
    2720,     354,    1156,    1332,     331
    2721,     331,    1335,     330,    1204
    2722,    1770,     282,    1736,     283
    2723,     258,    1754,    1795,     234
    2724,    1815,    2210,     233,    1710
    2725,    1766,    1718,    1803,     213
    2726,     212,    1655,     232,    1718
    2727,    1716,    1655,     212,    1746
    2728,    1663,    1607,     191,    1666
    2729,    1666,    1628,    1653,    1734
    2730,    1653,     190,    1708,     211
    2731,    2189,    2172,    2171,    1776
    2732,    1870,     187,    1873,    1884
    2733,    1906,    1902,     185,    1912
    2734,     205,    1908,    1913,    2232
    2735,    1707,    1740,    1922,    1627
    2736,    1686,    1732,     203,    1707
    2737,     222,    1752,     202,    1306
    2738,    1752,     222,     223,    2182
    2739,      96,     738,     377,     376
    2740,     377,     378,    1156,     354
    2741,     353,    1161,    1204,    1321
    2742,    1687,     305,    1465,     306
    2743,    1756,    1720,     281,    1709
    2744,    1710,     257,    1650,     258
    2745,     256,    1626,    2218,    1527
    2746,    1557,    1527,    2218,    2239
    2747,    1655,    1606,    2239,     232
    2748,    1765,    2198,    1794,     211
    2749,    2198,    1819,    2242,     229
    2750,     209,    2193,    1843,    1819
    2751,    1894,     228,     208,    1885
    2752,    2166,    1900,     227,    2208
    2753,    1909,     226,    1903,    1907
    2754,    1869,    1925,    1921,     204
    2755,    1869,    1789,    1835,    2204
    2756,    2162,    2163,    1855,     247
    2757,     223,    1855,    2163,    1835
    2758,    1161,     376,     377,     354
    2759,    1321,    1615,    1478,     353
    2760,    1622,     328,    2025,    1583
    2761,     303,    1565,    1688,    1709
    2762,     281,    1671,    1661,    1656
    2763,    1441,    1519,     256,    1527
    2764,     279,    1519,    1441,    1445
    2765,    1445,    1441,    1527,     255
    2766,    1711,    2260,     229,    2242
    2767,     252,    1865,     251,    1840
    2768,    1918,    1920,     226,    1909
    2769,     248,    1928,    1877,    1929
    2770,    1929,    1877,    2162,     247
    2771,    1929,     270,    1927,     248
    2772,     271,    1927,     270,    2136
    2773,     114,     113,    1111,    1133
    2774,    1209,     357,     335,    1282
    2775,    1227,    1284,    1282,     335
    2776,    2061,    2024,    1467,    1580
    2777,    1483,    2176,    1743,     262
    2778,    1785,    2158,    1742,     237
    2779,    2157,    2127,     197,    1744
    2780,    1813,    1860,    1778,    2115
    2781,     173,    1498,    1569,    1636
    2782,     149,     148,    1311,    2047
    2783,    1307,    1311,     148,    1247
    2784,     113,     759,    1071,    1111
    2785,    1066,    1065,     311,    1227
    2786,    1275,    1393,     311,    1189
    2787,    1452,    1386,    1643,     288
    2788,    1466,    1412,     262,    1729
    2789,    2118,     238,    1483,     239
    2790,    1704,    1603,     216,    1652
    2791,    1725,    1750,    1778,    1753
    2792,    1498,     173,    1813,    1568
    2793,    1473,    1336,     129,     149
    2794,    2047,    1569,    1473,     149
    2795,     112,     111,    1065,    1066
    2796,    1065,    1067,    1189,     311
    2797,    1319,    1360,    1275,    1189
    2798,     264,     263,    1386,    1452
    2799,    1482,     239,     240,    2030
    2800,    1534,    1579,     216,    1634
    2801,    1652,    1573,    2098,    1704
    2802,    2046,    1750,    1725,     175
    2803,     151,     150,    2095,    1512
    2804,    1568,     174,    1512,    2095
    2805,    1076,    1067,     758,     110
    2806,    1360,    1241,     264,    1452
    2807,     241,    1411,    2030,     240
    2808,     217,    1482,    1535,    1679
    2809,    1489,     176,    1573,    1546
    2810,    2059,    1511,    1378,    1430
    2811,     151,    1512,    1239,    1584
    2812,    1512,    2046,    2005,    1239
    2813,     110,     757,    1226,    1076
    2814,     757,     109,    1122,    1226
    2815,    1994,    1992,     241,    2026
    2816,    1411,     219,     218,    2030
    2817,    1535,    1585,    1619,    1679
    2818,    1431,     176,    1489,    1339
    2819,    1249,     152,    1378,     153
    2820,    1378,     152,    2005,    1430
    2821,     109,     108,    1134,    1122
    2822,    1122,    1134,    1957,     242
    2823,    1492,    1266,     198,    1464
    2824,    1564,    1517,    1443,    2008
    2825,    1339,    1489,    1468,    2048
    2826,    1315,     154,    1191,     133
    2827,     153,    1431,    1339,    1315
    2828,     108,     756,    1387,    1134
    2829,     107,    1074,    1387,     756
    2830,     179,    1365,    1236,    1069
    2831,    1342,    1432,     178,    1277
    2832,    1399,    1291,     154,    2048
    2833,    1399,    2048,    1468,     155
    2834,    1074,     107,     755,    1069
    2835,    1971,    1277,    1225,     157
    2836,     156,    2044,    1341,    1342
    2837,    1432,    1342,    1341,     177
    2838,     105,    1049,    1057,     106
    2839,    1057,    1049,     157,    1225
    2840,    1184,    1288,    1059,    1196
    2841,    1277,    1971,     156,    1342
    2842,     754,     829,    1049,     105
    2843,     829,     803,     115,    1228
    2844,     811,     826,     663,     662
    2845,     832,     826,     117,    1217
    2846,     664,       3,    1040,    1036
    2847,    1041,    1061,     665,       4
    2848,    1175,    1308,    1082,    1090
    2849,     123,    1096,    1120,    1198
    2850,    1075,    1080,    1192,     124
    2851,    1075,     124,    1077,    1930
    2852,     125,    1287,    1089,    1931
    2853,    1956,    1132,    1129,     127
    2854,     129,    1336,    1110,    1126
    2855,    1137,     672,      19,    1121
    2856,     134,    1086,    1117,    1191
    2857,    1196,     828,     874,     135
    2858,     802,     861,     848,     792
    2859,    1400,     137,    1279,     138
    2860,    1351,     139,    1405,    1987
    2861,     139,    1380,    1274,    1405
    2862,    1392,    1229,    1280,     140
    2863,    1367,    1262,     141,    1474
    2864,    1308,    1495,    1472,     121
    2865,    1240,    1472,     142,    1382
    2866,    1198,    1340,    1292,     123
    2867,    1404,    1276,    1292,     144
    2868,     145,    1289,    1373,    1434
    2869,    1391,    1230,    1289,     145
    2870,    1395,    1444,     146,    1457
    2871,    1454,    1508,    1418,    1351
    2872,    1438,     159,    1510,    1439
    2873,    1924,    1450,     160,    2124
    2874,    1923,    1474,     141,     161
    2875,    1474,    1555,    1495,    1367
    2876,    1442,    1505,     165,    1435
    2877,    1440,    1506,     166,    1586
    2878,     167,    1455,    1515,    2108
    2879,    1457,    1416,    1350,    1309
    2880,    1684,     172,    1640,    2083
    2881,    1511,    2059,     176,    1431
    2882,    1652,    1706,    1546,    1573
    2883,    2045,    1799,    1564,    2008
    2884,     178,    1432,    2008,    1443
    2885,    1277,     178,     179,    1225
    2886,    2168,     182,    1732,    1686
    2887,    1707,    1627,    1554,    1686
    2888,     162,    1923,    2126,    1911
    2889,    1899,    1910,    2076,    1905
    2890,     164,    1553,    1505,    1442
    2891,    1848,    1550,    1873,     187
    2892,    1586,     166,    1614,    2137
    2893,    1649,    1581,    1618,     189
    2894,    1513,    1416,     168,    2082
    2895,     194,    1822,    1821,    1849
    2896,    1679,    1706,    1579,     217
    2897,    1266,    1366,     199,    1236
    2898,     200,     201,    1327,     180
    2899,    1740,    1707,     203,    1789
    2900,    1906,    1908,     206,    1904
    2901,    1904,     207,    1902,    1906
    2902,    1885,    1870,    1884,    2097
    2903,    1776,     210,    1771,    2189
    2904,    1708,    1649,     189,    1771
    2905,     190,    1653,    1628,    2082
    2906,    2210,    1821,     213,    1803
    2907,    1856,    2251,    2236,    1837
    2908,    2157,    1742,     215,    2127
    2909,     215,    1634,     216,    1603
    2910,     217,    1579,    1534,    2118
    2911,     218,    1535,    1482,    2030
    2912,    1464,     218,     219,    1492
    2913,    1366,    1337,     220,     199
    2914,    1250,     221,    2109,    1306
    2915,    2235,    1928,     225,    1925
    2916,    1918,    1909,     206,    1915
    2917,    1907,    1904,     206,    1909
    2918,    1900,    2166,    1894,     207
    2919,    1859,    1868,    1843,    2193
    2920,    1868,    2242,    1819,    1843
    2921,     259,    1795,    1754,    1782
    2922,    1831,    1823,    1833,    2251
    2923,     236,    1761,     237,    1787
    2924,    1785,    1523,     238,    2158
    2925,     240,     239,    1412,    1328
    2926,     241,     240,    1328,    2026
    2927,    1994,    1241,     265,     242
    2928,     246,     222,    1413,     245
    2929,    1918,     225,    1919,    1920
    2930,    1926,     249,    1920,    1919
    2931,     273,     272,     296,    2219
    2932,     320,     297,    2219,     296
    2933,     321,    1268,    1233,    2194
    2934,     989,    2050,     346,    1050
    2935,     103,     878,     834,     766
    2936,     103,     749,     765,     833
    2937,     749,     748,     767,     765
    2938,     778,     846,     843,     773
    2939,    1966,     894,     371,    1950
    2940,     904,     924,     922,     912
    2941,    1012,    1185,    1011,    1006
    2942,     279,    1388,    1267,    1570
    2943,    1388,     279,    1445,    2228
    2944,     254,    1514,     255,    1556
    2945,    1557,    1556,     255,    1527
    2946,     250,     249,     273,    2244
    2947,    2219,     274,    2244,     273
    2948,     298,     297,    1377,    1590
    2949,     322,    1039,    1019,    1013
    2950,    1999,     979,     368,     965
    2951,     901,     915,     877,     836
    2952,     929,     915,     938,     940
    2953,     846,     853,     882,    1968
    2954,    2209,     250,    2244,     251
    2955,    2245,    1588,     275,    2258
    2956,    1181,    1039,     322,    1144
    2957,    1017,    1014,     323,    1001
    2958,    2144,    2128,     348,    2110
    2959,    2155,     975,    1001,     983
    2960,     924,    2144,    2110,     922
    2961,    1840,    2257,    1793,     252
    2962,    1493,    1463,     276,    1561
    2963,    1014,    1008,    1003,     323
    2964,    1009,    1017,    1001,     324
    2965,    1017,    1009,    1073,     300
    2966,    1009,     324,    1011,     301
    2967,    1758,     253,    1711,    2242
    2968,    1793,    2257,    2256,     253
    2969,    1283,    1188,     300,    2188
    2970,    1073,    1166,    2188,     300
    2971,     301,    1166,    1073,    1009
    2972,     301,    1011,    1185,    1290
    2973,    1670,    2260,    1711,    2263
    2974,    1462,    2255,    2229,     277
    2975,    1406,    2228,    1514,    1428
    2976,     280,    1661,    1671,    1635
    2977,    1720,    1756,    1782,    1754
    2978,    1788,    1770,     283,    1721
    2979,     284,    2190,    1721,     283
    2980,    1692,     261,    1604,    2190
    2981,    1729,    2154,    1521,     286
    2982,    1466,     263,    1328,    1412
    2983,    1328,     263,     264,    2026
    2984,    1319,     265,    1241,    1360
    2985,     267,    1362,    1995,     266
    2986,    2042,     267,     268,     245
    2987,     247,     269,     270,    1929
    2988,     271,     272,    1926,    1927
    2989,     272,     271,     295,     296
    2990,     296,     295,     319,     320
    2991,     320,     319,    1407,    2226
    2992,     345,    1281,    1158,    2103
    2993,    1151,    1054,     970,     368
    2994,     393,     949,     937,     931
    2995,     941,     914,     900,     930
    2996,     272,     273,     249,    1926
    2997,    2257,    1840,    2258,    1561
    2998,    1493,    1561,    2258,     275
    2999,    2255,    1623,    1389,    2229
    3000,    1570,    1267,    1371,    1600
    3001,    1625,     303,    1656,     302
    3002,     352,    1180,    1296,    1397
    3003,     739,      97,    1155,     375
    3004,    1155,     353,    1478,     375
    3005,    1600,     302,    1656,    1661
    3006,    1709,    1688,     282,    1756
    3007,    1736,     282,    1688,     304
    3008,     284,     283,    1687,    1608
    3009,     287,    1681,    1533,    1580
    3010,    1580,    1467,    1643,     287
    3011,     289,     290,     266,    1098
    3012,    1490,    2007,     290,    1477
    3013,    2043,     292,    2094,     268
    3014,     294,     295,     271,    2136
    3015,     297,     298,    1588,    2245
    3016,    1463,    1493,    1503,     299
    3017,     299,    1188,    1283,    1463
    3018,    1185,    1371,    1267,    1290
    3019,    1051,     302,    1600,    1371
    3020,    1436,    1394,     351,    1451
    3021,    1372,    1171,    1261,    1965
    3022,     375,    1150,      98,     739
    3023,    1496,    1544,    1565,     327
    3024,    1544,    1496,    1426,     328
    3025,     304,    1622,     305,    1736
    3026,     309,    2070,    1487,    1518
    3027,    1427,     334,     310,    2024
    3028,    1284,    1227,     311,    1393
    3029,    1490,     313,     314,     291
    3030,     320,    2226,    1377,     297
    3031,    1590,    1039,    1181,     298
    3032,     322,    1008,    1014,    1144
    3033,    1185,    1012,    1051,    1371
    3034,    2056,     906,    1996,     325
    3035,    1260,     815,     373,    1171
    3036,     374,    1123,      99,     740
    3037,     327,    1625,     326,    1964
    3038,    1583,    1397,    1615,     329
    3039,     330,    1668,    1321,    1204
    3040,    1256,    1209,    1282,    1347
    3041,    1235,     336,    1322,    1358
    3042,     313,     337,    1461,     314
    3043,     338,     339,     314,    1461
    3044,    2141,     340,     315,     339
    3045,    1407,     319,    2213,     344
    3046,    1281,     345,    1233,    2195
    3047,    2194,    1039,    1590,     321
    3048,    2049,    1000,    2086,     987
    3049,     906,     893,     350,    1996
    3050,     100,     741,     373,     815
    3051,    1964,    1394,    1436,     327
    3052,    1171,    1372,     351,    1260
    3053,    1204,    1161,     354,     331
    3054,    1501,    1332,    1156,    1396
    3055,    1501,    1396,    1471,     355
    3056,    1064,    1165,    1190,     358
    3057,     360,     361,     338,    1295
    3058,     386,    2089,     361,     385
    3059,     362,     363,     340,    2141
    3060,    2222,    2220,    2214,    2238
    3061,    1385,     365,     366,    1158
    3062,     989,    2103,    1151,     368
    3063,     948,     973,     940,     938
    3064,     859,     893,     906,     885
    3065,     806,     860,     859,    1950
    3066,     860,     806,     101,     743
    3067,     868,     372,     815,    1260
    3068,     382,    1053,     890,     867
    3069,    2038,    2006,     383,    1273
    3070,    1594,    2217,     388,    1678
    3071,     390,     365,    1631,     389
    3072,    1263,    2133,     390,    1647
    3073,    1219,    1054,    1151,     367
    3074,     883,     394,     835,     918
    3075,     854,     845,     881,     895
    3076,     858,     871,     809,     807
    3077,     397,     820,     862,     889
    3078,     889,     926,     911,     397
    3079,    2283,    1085,     399,    2284
    3080,     426,     402,     401,     425
    3081,     428,     404,     403,     427
    3082,     795,     788,     102,     745
    3083,    1297,     383,    2021,     407
    3084,    1757,     410,    2080,    2112
    3085,    1672,    1678,    1705,     411
    3086,    2174,    1647,    2216,     413
    3087,     995,     392,    1020,    1015
    3088,     419,     905,     947,    1145
    3089,    1035,     420,    1959,     871
    3090,    1136,    1187,     910,    2000
    3091,     926,    1062,     422,    1152
    3092,    1246,    1313,     424,    1162
    3093,    1251,     425,    1162,     424
    3094,    1368,    1257,     427,    1157
    3095,    1095,    1325,    1207,    1037
    3096,    1760,    1601,    1665,    1719
    3097,    1575,    1601,    1760,    1522
    3098,    2192,    1460,    1539,     434
    3099,     435,    1182,    1112,    2147
    3100,    1021,    1044,    1010,    1015
    3101,    1028,     440,     991,     462
    3102,    2160,    1293,    1259,    1203
    3103,    1323,    1346,     443,    2075
    3104,    1254,    1364,     444,    1353
    3105,     445,    1453,    1502,    2091
    3106,     446,    1251,    1597,     468
    3107,    1425,    1369,    1344,    1572
    3108,     448,    1433,    1390,    1310
    3109,    1437,     448,    1369,    1425
    3110,    1312,    1408,     449,    1109
    3111,    1325,     450,    1982,    1983
    3112,     451,     452,    1983,    1982
    3113,    1738,     454,    1762,    2081
    3114,    1769,    1522,    1760,     454
    3115,    1182,    1253,    1359,     436
    3116,    1169,    1324,    1026,    1044
    3117,     437,    2181,    1024,    1005
    3118,    1595,     467,    2091,    2135
    3119,     469,    1605,    2065,    1680
    3120,    1571,     470,    1526,    1891
    3121,     472,    1674,     495,    1119
    3122,     471,    1559,    1609,    1674
    3123,    1798,     475,     476,    2064
    3124,    2064,    1738,    2081,    1798
    3125,     478,     479,    1531,     455
    3126,    1475,     456,    1560,    1543
    3127,    2205,     481,    1294,     482
    3128,    1025,    1031,    2248,     483
    3129,    1146,    1030,    1025,     483
    3130,    1029,    1027,    2187,    2225
    3131,    1595,     489,    1882,     490
    3132,     491,    1846,    1876,    1895
    3133,    1376,     518,     519,    1128
    3134,     497,    1981,    1384,    1334
    3135,    2017,     498,     499,    1735
    3136,    1693,     500,     501,    2123
    3137,    2169,    2123,     501,    1675
    3138,    1796,     503,    2200,     502
    3139,    1715,    1562,    2252,    1773
    3140,    1174,    1294,    1348,     506
    3141,     507,    1197,    1300,    1504
    3142,     483,    1316,    2253,    1146
    3143,    2261,    1361,    1255,     484
    3144,    1780,    2153,    2152,    1826
    3145,     519,     518,     543,    1224
    3146,     541,     542,    1852,    1862
    3147,     495,    1376,    1128,    1119
    3148,    1242,     520,    1398,    1305
    3149,     521,     522,    1305,    1398
    3150,    1713,    1737,     524,    1689
    3151,    1675,     525,    2184,     526
    3152,    2178,    1691,    1715,     503
    3153,    1541,     529,    1524,    1621
    3154,    1524,    1589,    1458,    1446
    3155,    1545,    1504,    1354,    2254
    3156,    2265,    2266,    1449,    1520
    3157,    2267,     508,    2264,    1423
    3158,     509,    1542,    1459,    1270
    3159,     534,    1660,    1658,    1637
    3160,     537,    1825,     538,    1842
    3161,    1739,    1730,     539,    2185
    3162,     540,    1763,    1694,    1802
    3163,    1214,    1879,    1839,     567
    3164,    1836,    1811,     542,     541
    3165,    1536,    1574,     545,     569
    3166,    1596,    2055,     546,    2077
    3167,     550,    1537,    1576,    2165
    3168,    1673,     527,    2177,    1712
    3169,    1613,    1589,    1524,     529
    3170,     530,    2230,    1545,    2254
    3171,    2240,     531,    1602,    1682
    3172,    1525,     532,    1558,    1617
    3173,    1659,    2224,    1667,     558
    3174,     564,     563,    2129,    1630
    3175,     566,    2014,    1874,    1850
    3176,     568,    1516,    1302,    1949
    3177,    1536,     569,    1447,     570
    3178,    1599,     571,    2143,    1582
    3179,    1488,    1547,    1599,    1582
    3180,    2087,     574,    1537,     550
    3181,    1791,    1698,     575,    1817
    3182,    2088,    1699,     576,    1745
    3183,    1697,    2131,    1727,    2179
    3184,    2150,    1717,    2117,    1748
    3185,    1830,     583,    1898,     584
    3186,    1641,    1630,    1593,    1563
    3187,    1135,     567,    1850,     589
    3188,    2051,    1447,     590,    2011
    3189,     591,    1642,    1664,    2051
    3190,     593,    2114,    1530,    2102
    3191,     594,    2096,    1330,    1381
    3192,     595,     596,    1484,     573
    3193,     596,     597,    1538,    1484
    3194,    1745,    1791,    1817,    1779
    3195,    2054,    1726,    2088,     598
    3196,     577,     599,     600,    2106
    3197,    2106,    2105,    1677,     578
    3198,    1701,     601,    1790,    1741
    3199,     604,    2072,    1880,    1409
    3200,    1401,     631,    2039,    1417
    3201,    1167,    1194,    1955,    1068
    3202,     610,    1429,    1420,    1374
    3203,      88,     729,    1083,    1033
    3204,     612,    1170,    1960,    1317
    3205,    1298,    1960,    1176,     613
    3206,    1414,     613,     614,    1456
    3207,    1179,    1278,     614,    2028
    3208,    1178,    1314,    2113,    1352
    3209,     617,    1301,     641,    1415
    3210,     641,    1969,    1485,    1415
    3211,     597,    1828,    1779,    1817
    3212,    2068,    2012,    2019,    2057
    3213,    1871,    2063,    1858,     623
    3214,    1887,     624,    1892,    1880
    3215,    1409,     625,     626,     605
    3216,    1244,    1304,     626,    2010
    3217,    2009,     606,    2032,     627
    3218,     628,    1974,    1578,     607
    3219,    1176,    1960,    1170,     635
    3220,     863,     888,     635,     857
    3221,    1034,     636,    1963,    1058
    3222,    1042,    1177,     638,     875
    3223,     639,     640,    1243,     616
    3224,    1118,    1301,     640,    1200
    3225,    1969,     642,     618,    1485
    3226,     643,     618,     642,    1103
    3227,    1980,     643,    1103,    1108
    3228,     645,    1979,     644,    1115
    3229,     645,    1978,    2012,     621
    3230,    1977,     647,    2016,     622
    3231,     623,    1976,    1173,    1871
    3232,     649,    1901,     648,    1101
    3233,     649,    1252,    1333,    1901
    3234,    1975,     650,    1142,    1937
    3235,    1092,    1237,     653,    1113
    3236,     658,      26,     699,     762
    3237,     698,     697,     787,     852
    3238,     772,     777,     660,     659
    3239,     786,     798,       1,     661
    3240,     798,     811,     662,       1
    3241,     832,    1040,       3,       2
    3242,    1931,    1930,    1077,     125
    3243,    1129,     670,      14,    1213
    3244,    1126,     671,      16,    1210
    3245,      21,    1140,    1117,     673
    3246,     674,     874,     828,      24
    3247,     675,     812,     802,     676
    3248,     676,     802,     792,      25
    3249,     677,    1933,     775,     678
    3250,     769,     839,     842,     761
    3251,     750,     761,     842,     751
    3252,     681,      53,     724,     763
    3253,     763,     790,     682,     681
    3254,     805,     831,      28,     683
    3255,     686,      32,    1202,    1125
    3256,     872,     822,     689,      39
    3257,     825,    1052,      41,     690
    3258,    1104,    1070,     695,      49
    3259,     869,     824,     696,      51
    3260,     801,     787,     697,      52
    3261,     772,     762,     852,     841
    3262,     698,     852,     762,     699
    3263,      79,     735,    1932,     700
    3264,     734,     733,     780,     851
    3265,     770,     702,     701,     764
    3266,     782,     794,      54,     703
    3267,     794,     804,     704,      54
    3268,     823,    1043,      55,     705
    3269,      60,    1223,    1937,     708
    3270,      62,    1252,     649,     709
    3271,    1102,     710,      64,    1100
    3272,      73,    1079,    1042,     714
    3273,     715,     830,     821,      75
    3274,      76,     818,     819,     717
    3275,     718,     817,     810,      77
    3276,     719,     808,     800,     720
    3277,     720,     800,     793,      78
    3278,     721,     784,     776,     722
    3279,     723,     771,     763,     724
    3280,     771,     723,     722,     776
    3281,    2294,    2293,    1060,     725
    3282,    1109,     726,      81,    1312
    3283,     728,      85,    1224,    1143
    3284,      87,     589,    1083,     729
    3285,     730,      88,    1033,     873
    3286,     827,     813,     731,      89
    3287,     797,     785,     732,      90
    3288,     785,     780,     733,     732
    3289,     851,     838,     764,    1932
    3290,     734,     851,    1932,     735
    3291,     403,    2290,    2289,    1939
    3292,     398,    2282,    2281,     911
    3293,     742,     372,     860,     743
    3294,     908,     820,    2279,    2278
    3295,     807,     809,    2276,    2275
    3296,    2278,    2277,     396,     908
    3297,     745,     744,     855,     795
    3298,     799,     807,    2275,    2274
    3299,     789,     796,    2273,    2272
    3300,     796,     799,    2274,    2273
    3301,     778,     773,     747,     746
    3302,     779,     789,    2272,    2271
    3303,     773,     767,     748,     747
    3304,     774,     779,    2271,    2270
    3305,     768,     774,    2270,    2269
    3306,    2269,     103,     766,     768
    3307,     750,      27,     680,     761
    3308,     751,     842,     783,     752
    3309,     752,     783,     791,     753
    3310,     104,     803,     829,     754
    3311,    1069,     755,     106,    1057
    3312,     769,     679,     678,     775
    3313,     762,     772,     659,     658
    3314,     701,     700,    1932,     764
    3315,     836,     765,     767,     837
    3316,     765,     836,     877,     833
    3317,     880,     766,     834,     902
    3318,     837,     767,     773,     843
    3319,     774,     768,     835,     394
    3320,     839,     769,     775,    1942
    3321,     764,     838,    1940,     770
    3322,     779,     774,     394,    1958
    3323,     775,    1933,     781,    1942
    3324,     839,    1942,     783,     842
    3325,     805,     790,     840,     896
    3326,     777,     772,     841,    1943
    3327,     846,     778,     788,     853
    3328,     845,     854,     796,     789
    3329,     844,     780,     785,    1954
    3330,     781,     848,     847,    1942
    3331,     794,     782,    1947,     849
    3332,     891,     787,     801,    1952
    3333,     788,     795,    1951,     853
    3334,     803,     791,     847,     115
    3335,     850,     793,     800,     634
    3336,     371,    1951,     795,     855
    3337,     799,     796,     854,     395
    3338,     849,    1954,     887,     657
    3339,     909,     811,     798,     116
    3340,     857,     800,     808,     863
    3341,    1943,     841,     891,     856
    3342,     861,     802,     812,     136
    3343,     823,     804,     864,     656
    3344,     805,     896,    1944,     831
    3345,     855,     806,    1950,     371
    3346,     809,     396,    2277,    2276
    3347,     817,     718,     717,     819
    3348,     826,     811,     909,     117
    3349,     813,     870,     887,     797
    3350,     867,     814,     822,     382
    3351,     865,     816,     821,     637
    3352,     866,     817,     819,     636
    3353,     636,     819,     818,    1963
    3354,     863,    1962,     866,     888
    3355,     820,     908,     892,     862
    3356,    1043,     823,     656,    1199
    3357,     874,     674,      23,    1045
    3358,     136,     812,     828,    1196
    3359,    1049,     829,    1228,     157
    3360,    1147,     830,     875,     638
    3361,     900,     834,     878,     916
    3362,     878,     103,     833,     898
    3363,     918,     932,     920,     883
    3364,     879,     901,     836,     837
    3365,     370,     879,     837,     843
    3366,    1940,     838,    1947,     782
    3367,     776,     784,     896,     840
    3368,     797,     887,    1954,     785
    3369,     883,     907,    1958,     394
    3370,     370,     843,     846,    1968
    3371,     791,     783,    1942,     847
    3372,     115,     847,     848,     861
    3373,     864,     849,     657,    1047
    3374,     850,     634,    1944,     896
    3375,     793,     850,     896,     784
    3376,     904,    2002,     349,     924
    3377,    1967,     904,     912,     882
    3378,     895,     886,     395,     854
    3379,    1943,     856,     786,     777
    3380,    1063,     857,     635,    1170
    3381,     886,     884,     858,     395
    3382,     893,     859,     860,     372
    3383,     861,     136,    1059,     115
    3384,     889,     862,     910,     421
    3385,    1058,    1963,     865,    2028
    3386,     888,     866,     636,    1034
    3387,    1394,     868,    1260,     351
    3388,     868,    1394,    1964,     350
    3389,    1038,     869,      51,      50
    3390,     870,     633,    1047,     657
    3391,     396,     809,     871,    1959
    3392,     382,     822,     872,    1154
    3393,     827,     873,    1955,     633
    3394,     612,    1127,     876,    1048
    3395,     899,     898,     833,     877
    3396,     900,     916,     946,     930
    3397,     903,     370,    1968,     919
    3398,     933,     903,     919,     936
    3399,     902,     834,     900,     914
    3400,     921,     918,     835,     880
    3401,     845,    1958,     907,     881
    3402,     895,     881,     923,     905
    3403,     882,     912,     919,    1968
    3404,    1035,     884,    2034,    2035
    3405,     885,    2003,     349,    1966
    3406,    1950,     859,     885,    1966
    3407,     886,     895,     905,     419
    3408,     888,    1034,    1176,     635
    3409,     421,    1062,     926,     889
    3410,     890,    1053,    2006,    2038
    3411,     358,     867,     890,    1064
    3412,    1952,     801,     824,    1205
    3413,    1959,     892,     908,     396
    3414,     893,     372,     868,     350
    3415,    1967,     882,     853,    1951
    3416,     894,    1967,    1951,     371
    3417,     923,     881,     907,     934
    3418,    1037,     897,      38,     688
    3419,     939,     946,     927,     913
    3420,     915,     929,     899,     877
    3421,     916,     878,     898,     927
    3422,     903,     917,     879,     370
    3423,     917,     928,     901,     879
    3424,     944,     933,     936,     348
    3425,     935,     932,     918,     921
    3426,    2003,     885,     906,    2056
    3427,     920,     934,     907,     883
    3428,     909,     116,    1986,     925
    3429,     862,     892,    2000,     910
    3430,     912,     922,     936,     919
    3431,     898,     899,     913,     927
    3432,     914,     393,     931,     902
    3433,     913,     899,     929,     369
    3434,     913,     369,     950,     939
    3435,     933,     942,     917,     903
    3436,     934,     920,     943,     418
    3437,     937,     935,     921,     931
    3438,     349,    2003,    1002,     924
    3439,     348,     936,     922,    2110
    3440,    1002,    1006,     996,     924
    3441,     117,     909,     925,    1272
    3442,     930,     946,     956,     941
    3443,     951,     948,     938,     928
    3444,     915,     901,     928,     938
    3445,     943,     952,    2078,     959
    3446,     942,     933,     944,     958
    3447,     943,     920,     932,     952
    3448,     947,     418,     957,     969
    3449,     935,     937,     953,     945
    3450,     941,     949,     393,     914
    3451,     953,     937,     949,     967
    3452,     956,     946,     954,     974
    3453,     985,     968,     973,     982
    3454,     369,     929,     940,    2001
    3455,     941,     966,     967,     949
    3456,     958,    2101,     951,     942
    3457,     928,     917,     942,     951
    3458,     945,     952,     932,     935
    3459,     955,     944,     348,    2128
    3460,     945,     962,    2078,     952
    3461,     939,     950,    1999,     965
    3462,     970,     954,     965,     368
    3463,    1145,     947,     969,     981
    3464,    2001,     968,     950,     369
    3465,     956,     980,     966,     941
    3466,     939,     965,     954,     946
    3467,     968,    2001,     940,     973
    3468,     959,    2078,     978,    2119
    3469,     945,     953,     961,     962
    3470,     974,     954,     970,    1054
    3471,     975,    2155,    2128,    2144
    3472,     963,     958,     944,     955
    3473,     980,     956,     974,    2027
    3474,     969,     957,     439,    2120
    3475,    2101,     963,     972,     960
    3476,    2078,     962,     964,     978
    3477,     960,     948,     951,    2101
    3478,     961,     967,     986,     976
    3479,     417,     962,     961,     976
    3480,     964,     962,     417,     984
    3481,     971,     988,     972,     963
    3482,     324,    1001,     975,     996
    3483,     977,     950,     968,     985
    3484,     980,     986,     967,     966
    3485,     973,     948,     960,     982
    3486,     990,     998,    2119,     978
    3487,    1003,     983,    1001,     323
    3488,     982,     960,     972,     347
    3489,     985,     982,     993,    2049
    3490,    2027,     974,     392,     995
    3491,     984,     417,    2100,     997
    3492,     987,     977,     985,    2049
    3493,     977,     979,    1999,     950
    3494,    2100,     417,     976,    2093
    3495,     990,     984,     997,     438
    3496,    2050,     989,     368,     979
    3497,     995,    2066,     980,    2027
    3498,    2066,     995,     416,     994
    3499,     981,     440,    1195,    1145
    3500,     439,    1022,    2175,    2120
    3501,     993,     982,     347,     992
    3502,     988,     983,    1003,     992
    3503,     994,     416,    1005,     999
    3504,     997,     999,    1004,     438
    3505,     993,     992,    1007,    1000
    3506,     996,     975,    2144,     924
    3507,    2050,     987,    2086,     346
    3508,     977,     987,    2050,     979
    3509,     972,     988,     992,     347
    3510,     971,    2155,     983,     988
    3511,     994,    2099,    2067,    2066
    3512,    1018,     438,    1004,    2202
    3513,    2119,     439,     957,     959
    3514,     999,    1005,    1024,    1004
    3515,     999,     997,    2099,     994
    3516,    1007,     992,    1003,    1008
    3517,    2086,    1000,    1013,    2122
    3518,    1006,    1002,     325,    1012
    3519,    1005,     416,    1010,     437
    3520,     324,     996,    1006,    1011
    3521,    1013,    1007,    1008,     322
    3522,    1026,     459,    2181,     437
    3523,    1021,    1015,     415,    1112
    3524,    1051,    1012,     325,     326
    3525,    1013,    1019,    2161,    2122
    3526,    2202,     460,    1032,    1018
    3527,    1144,    1014,    1188,     299
    3528,    1188,    1014,    1017,     300
    3529,     459,    1023,    1016,    2181
    3530,    1018,    1032,    1022,     439
    3531,    1020,     392,    1130,    1231
    3532,    2187,    1022,     461,    1055
    3533,    2180,    1031,    1023,     459
    3534,    1023,    1031,    1025,     460
    3535,    1030,    1146,    1055,     461
    3536,    1203,    1148,    2159,    2160
    3537,    1028,    2159,    1148,     440
    3538,    2246,    1029,    2225,    1255
    3539,    1193,    1320,    1029,    2246
    3540,    1032,    1030,     461,    1022
    3541,    1031,     482,    1149,    2248
    3542,     611,    1068,    1033,    1083
    3543,    1145,    1195,    2034,     419
    3544,    2035,    1183,     420,    1035
    3545,     118,    1221,    1036,    1040
    3546,     119,    1041,    1036,    1221
    3547,     869,    1038,    1168,     137
    3548,    1233,     345,    2161,    2194
    3549,    1040,     832,    1217,     118
    3550,    1229,    1946,     119,    1280
    3551,     639,    1177,    1042,    1079
    3552,    1044,    1021,     436,    1169
    3553,    1045,      23,      22,    1086
    3554,    1046,     399,    1172,    1246
    3555,     400,    1046,    1246,    1162
    3556,    1194,    1047,     633,    1955
    3557,     634,    1063,    1048,    1944
    3558,     989,    1050,     345,    2103
    3559,    2122,    1050,     346,    2086
    3560,     302,    1051,     326,    1625
    3561,     336,    1093,    1052,    1190
    3562,     691,      41,    1052,    1093
    3563,     382,    1154,    1985,    1053
    3564,    1130,    1054,    1219,     391
    3565,     392,     974,    1054,    1130
    3566,    2225,    2187,    1055,     484
    3567,    1028,    1056,     463,    2159
    3568,     179,    1069,    1057,    1225
    3569,     614,     613,    1058,    2028
    3570,     725,    1060,    1938,      80
    3571,    1097,    1061,    1946,     120
    3572,       5,     665,    1061,    1097
    3573,    2036,    1187,    2074,    1323
    3574,    1067,    1065,     111,     758
    3575,    1066,    1227,     335,    1071
    3576,     759,     112,    1066,    1071
    3577,    1319,    1189,    1067,    1076
    3578,    1074,    1069,    1236,     199
    3579,     335,     357,    1111,    1071
    3580,     654,    1948,    1212,    1479
    3581,     301,    1290,     278,    1166
    3582,    1387,    1074,     199,     220
    3583,      12,      11,    1075,    1930
    3584,    1080,    1075,      11,     668
    3585,     265,    1319,    1076,    1226
    3586,    1078,     379,    1471,    1396
    3587,    1234,    1192,    1080,    1088
    3588,    1084,    1081,     568,    1949
    3589,     121,    1211,    1082,    1308
    3590,       7,     666,    1082,    1211
    3591,      32,      31,    1084,    1202
    3592,    1085,     398,    1152,    1961
    3593,    1961,    1172,     399,    1085
    3594,    1086,      22,     673,    1117
    3595,    1096,    1088,      10,       9
    3596,     126,    1213,    1089,    1287
    3597,    1097,    1090,       6,       5
    3598,    1127,    1091,      30,      29
    3599,    1222,    1238,    1091,    1127
    3600,    1094,    1072,     655,    1948
    3601,    1087,    1094,    1948,     654
    3602,    1120,    1096,       9,     667
    3603,    1098,    1935,    1934,     289
    3604,     312,     289,    1934,    1099
    3605,     647,    1107,    1102,    1976
    3606,    1118,    1105,     641,    1301
    3607,     312,    1099,    1106,    1235
    3608,    1109,     449,    1945,     472
    3609,     130,    1403,    1110,    1336
    3610,    1133,    1111,     357,    1160
    3611,     436,    1021,    1112,    1182
    3612,    1113,     652,      59,      58
    3613,    1114,    1941,    1995,    1362
    3614,     243,    1338,    1114,    1362
    3615,     326,     325,    1996,    1964
    3616,     645,    1115,    1116,    1978
    3617,    1191,    1117,    1140,     133
    3618,     122,    1198,    1120,    1131
    3619,     131,    1137,    1121,    1470
    3620,     242,     265,    1226,    1122
    3621,     374,    1180,    1261,    1123
    3622,      36,     687,    1124,    1208
    3623,    1125,    1202,     544,    1318
    3624,    1222,    1127,     612,    1317
    3625,    1128,     519,      84,     727
    3626,    1130,     391,    2084,    1231
    3627,    1211,    1131,       8,       7
    3628,     128,    1210,    1132,    1956
    3629,    1337,    1992,    1957,     220
    3630,    1135,     589,      87,      86
    3631,     420,    1183,    1136,    2000
    3632,    1187,    1136,    1269,    2074
    3633,    1137,     131,    1970,     132
    3634,     200,    1220,    1138,    1250
    3635,     520,    1242,     496,    1139
    3636,     458,    1540,    2241,    1141
    3637,     482,    1031,    2180,    2205
    3638,    1937,    1223,     651,    1975
    3639,    1244,    2010,    1975,     651
    3640,     543,    1214,    1143,    1224
    3641,    1181,    1144,     299,    1503
    3642,    1316,     483,    1197,     507
    3643,     638,    1178,    2029,    1147
    3644,    1147,    2029,    1179,     637
    3645,    2073,     441,    1183,    2035
    3646,    1149,    1174,    1300,    1197
    3647,    1150,    1296,    1180,     374
    3648,     422,    1164,    1961,    1152
    3649,    1153,     380,    1160,     356
    3650,    1355,    1471,     379,    1153
    3651,     375,    1478,    1296,    1150
    3652,    1396,    1156,     378,    1078
    3653,     402,     426,    1157,    1939
    3654,    1368,    1157,     426,    1258
    3655,    2103,    1158,     367,    1151
    3656,     344,    1385,    1158,    1281
    3657,    1159,     404,     428,    1206
    3658,    2261,    1163,    2268,    2266
    3659,    2261,     508,    2267,    1361
    3660,    1164,     422,    1186,    1254
    3661,    1164,    1254,    1353,     423
    3662,    1190,    1165,    1322,     336
    3663,     337,    1322,    1165,    1295
    3664,    1297,     407,     408,     384
    3665,    1166,     278,    1406,     277
    3666,     277,    2229,    2188,    1166
    3667,    1374,    1167,    1299,     610
    3668,    1167,    1374,     632,    1194
    3669,    1402,     158,    1201,    1497
    3670,    1324,    1169,     458,    1141
    3671,    1171,     373,    1123,    1261
    3672,    1976,     623,    2016,     647
    3673,    1448,    1348,    1294,     481
    3674,    1175,     120,    1262,    1367
    3675,    1177,    1314,    1178,     638
    3676,    1180,     352,    1965,    1261
    3677,    1183,     441,    1269,    1136
    3678,    1288,    1184,     156,    1971
    3679,    1364,    1254,    2075,     443
    3680,     422,    1062,    2037,    1186
    3681,     910,    1187,    2036,     421
    3682,    1320,    1193,     485,    1356
    3683,    1265,    1973,     632,    1345
    3684,    2035,    2034,    1195,    2073
    3685,    1264,    1184,     135,    1232
    3686,    1988,    1198,     122,    1240
    3687,    1199,    1265,    1285,     655
    3688,    1497,    1201,     180,    1327
    3689,    1148,    1203,     441,    2073
    3690,     426,     425,    1632,    1258
    3691,     116,    1952,    1205,    1986
    3692,    1408,    1206,    1390,     449
    3693,     429,    1159,    1206,    1408
    3694,     428,     427,    1257,    1310
    3695,     430,     407,    2021,    1207
    3696,    1210,      16,      15,    1132
    3697,    1479,    1212,    1401,     630
    3698,    1213,      14,      13,    1089
    3699,    1879,    1214,     543,    1326
    3700,     200,     180,    1215,    1220
    3701,     473,    1216,     496,    1334
    3702,    1217,     117,    1272,    1987
    3703,     243,     221,    1218,    1338
    3704,    1274,    1221,     118,    1405
    3705,    1991,    1317,    1960,    1298
    3706,    1282,    1284,    2022,    1347
    3707,     120,    1946,    1229,    1262
    3708,     125,    1077,    1230,    1444
    3709,    2133,    1303,    2173,     390
    3710,    1232,     134,    1291,    1264
    3711,    2226,    1407,    2195,    1268
    3712,    2161,     345,    1050,    2122
    3713,    1365,     198,    1266,    1236
    3714,    1237,     654,    1479,    1507
    3715,     653,    1237,    1507,     629
    3716,    1343,    1286,     590,    1447
    3717,     152,    1970,    1239,    2005
    3718,     143,    1988,    1240,    1382
    3719,    1243,     640,    1301,     617
    3720,     627,    1244,     651,    1331
    3721,     148,     149,     129,     128
    3722,    1395,    1245,     126,    1287
    3723,     127,     147,    1247,    1956
    3724,     451,    1248,     473,    1384
    3725,     153,    1315,     133,    1249
    3726,    1249,     132,    1970,     152
    3727,    1251,     424,     445,    1597
    3728,    1193,    1361,    1270,     485
    3729,     356,    1953,    1355,    1153
    3730,    1209,    1256,    1953,     356
    3731,    1368,    1258,     447,    1344
    3732,     441,    1203,    1259,    1269
    3733,     155,    1341,    2044,    1399
    3734,    1366,    1266,    1492,     219
    3735,    1290,    1267,    1388,     278
    3736,    2195,    1407,     344,    1281
    3737,    1279,    1271,    1454,     138
    3738,    1454,    1271,    1402,    1508
    3739,     359,    1273,     360,    1295
    3740,     384,     360,    1273,    1297
    3741,    1280,    1274,    1380,     140
    3742,    1467,    2023,     288,    1643
    3743,    1373,    1289,     124,    1192
    3744,    1365,     179,     178,    1443
    3745,     615,    1352,    2060,    1278
    3746,    1278,    2060,    1456,     614
    3747,    2229,    1389,    1283,    2188
    3748,    1463,    1283,    1389,     276
    3749,    1238,    1222,    1286,    1343
    3750,     157,    1228,    1288,    1971
    3751,    1293,    2160,    1370,    2207
    3752,    1346,     442,     464,     465
    3753,    2018,    1298,     613,    1414
    3754,    2011,    1991,    1298,    2018
    3755,    1300,    1174,     506,    1354
    3756,     544,    1949,    1302,    1657
    3757,     391,    1219,    1303,    2133
    3758,     605,     626,    1304,    1898
    3759,     497,    1242,    1305,    1993
    3760,    1155,     376,    1161,     353
    3761,    1395,    1457,    1309,    1245
    3762,    1669,    2015,    1309,    1350
    3763,    1569,    2047,    1640,    1636
    3764,     429,    1408,    1312,    1938
    3765,     424,    1313,    1453,     445
    3766,    1989,    1988,     143,    1587
    3767,     616,    1357,    2113,    1314
    3768,     507,    1449,    2268,    1316
    3769,    1163,    2253,    1316,    2268
    3770,    1318,    1714,    1398,     520
    3771,    1615,    1321,    1668,     329
    3772,     459,    1026,    1324,    2180
    3773,     542,    1879,    1326,    1852
    3774,    2026,     264,    1241,    1994
    3775,    1329,     244,    1413,    2109
    3776,    1357,    2096,     594,    1422
    3777,     595,    1330,     617,    1415
    3778,    2010,    1333,     650,    1975
    3779,    1335,     306,    1465,     330
    3780,     307,    1335,     331,    1410
    3781,     219,    1411,    1337,    1366
    3782,     154,    1315,    1339,    2048
    3783,     144,    1292,    1340,    1435
    3784,    2044,     156,    1184,    1264
    3785,    1516,    1343,    1447,     569
    3786,    1526,    1425,    1572,     469
    3787,     443,    1346,     465,    1364
    3788,    2024,     310,    2023,    1467
    3789,     334,    1256,    1347,     310
    3790,     505,    1446,    1348,    1448
    3791,    1476,     333,    1528,     355
    3792,    1494,    1416,    1457,     146
    3793,    1178,    1352,     615,    2029
    3794,     592,    2102,    1530,    2111
    3795,    1353,     444,    1502,    1453
    3796,     355,    1471,    1355,    1476
    3797,    1459,     510,     485,    1270
    3798,     463,    1356,     486,    1370
    3799,    2096,    1357,     616,    1243
    3800,    1477,    1358,     313,    1490
    3801,    1359,     458,    1169,     436
    3802,     288,    1275,    1360,    1452
    3803,    1424,    2264,     508,    2265
    3804,    1362,     267,    2042,     244
    3805,    2192,    2206,    1363,     435
    3806,    1364,     465,     466,     444
    3807,    1804,    2207,    1764,     487
    3808,    1965,    1426,    2020,    1372
    3809,    1372,    2020,    1451,     351
    3810,    1404,    1434,    1373,    1276
    3811,    1990,    1375,    1974,     628
    3812,    1378,    1511,    1431,     153
    3813,     285,    1379,     307,    1481
    3814,    1608,    1687,     306,    1379
    3815,    1418,    1438,     139,    1351
    3816,    1381,     572,    1421,     594
    3817,    1470,     151,    1584,     131
    3818,     130,    1336,    1473,     150
    3819,    1555,    1910,     163,     142
    3820,    1528,    1383,    1501,     355
    3821,    1383,    1528,     332,    2033
    3822,    1384,    1981,     474,     451
    3823,    1385,     343,    2214,     365
    3824,    1158,     366,    2173,     367
    3825,    1643,    1386,    1681,     287
    3826,    1681,    1386,     263,    1466
    3827,    1134,    1387,     220,    1957
    3828,    1428,    1462,     277,    1406
    3829,     448,    1437,    1509,    1433
    3830,    1455,    1391,     145,    1515
    3831,    1450,    1392,     140,     160
    3832,    1393,    1275,     288,    2058
    3833,    1393,    2058,    2022,    1284
    3834,    1478,    1615,    1397,    1296
    3835,    1272,    1400,     138,    1987
    3836,    2039,    1420,    1429,    1529
    3837,    1402,    1497,    1419,    1508
    3838,    1403,      18,      17,    1110
    3839,     144,    1435,     165,    1506
    3840,    2228,    1406,     278,    1388
    3841,    1411,     241,    1992,    1337
    3842,    1412,     239,    1483,     262
    3843,    2082,     168,    1581,     190
    3844,     159,    1438,    1418,    2125
    3845,     631,    1345,    1420,    2039
    3846,    2114,     593,    2145,    1422
    3847,    1421,    2114,    1422,     594
    3848,    1525,    2250,    1423,    2264
    3849,    1424,    2265,    1520,     532
    3850,    2264,    1424,     532,    1525
    3851,     470,    1437,    1425,    1526
    3852,    2025,     352,    1397,    1583
    3853,    1496,    1451,    2020,    1426
    3854,    1518,    1349,    1427,     309
    3855,    1428,    1514,     254,    2262
    3856,    1500,     610,    1896,    1886
    3857,     177,    1341,     155,    1468
    3858,     177,    2045,    2008,    1432
    3859,     471,    1945,    1433,    1509
    3860,    1559,    1509,    1437,     470
    3861,     140,    1380,    1439,     160
    3862,    1404,    1440,    2062,    1434
    3863,     279,    1570,     280,    1519
    3864,     198,    1365,    1443,    1517
    3865,     255,    1514,    2228,    1445
    3866,    1448,     481,    1491,     505
    3867,    1520,    1449,     531,    2240
    3868,     327,    1436,    1451,    1496
    3869,     146,    1391,    1455,    1494
    3870,     592,    1414,    1456,    2102
    3871,     506,    1458,    2254,    1354
    3872,     509,    1499,     533,    1542
    3873,    1459,    1542,    1637,    1658
    3874,    2147,    1460,    2192,     435
    3875,     413,    1539,    1460,    2174
    3876,    2262,    1670,    1462,    1428
    3877,    2263,    2255,    1462,    1670
    3878,    1517,    1585,    1464,     198
    3879,    1465,     329,    1668,     330
    3880,    1681,    1466,    1729,    1533
    3881,     177,    1468,    1799,    2045
    3882,    1543,    1540,     457,    1475
    3883,    1473,    1569,    1498,     150
    3884,    1560,     456,    1531,     479
    3885,    1349,     333,    1476,    1972
    3886,    1764,    1480,    1728,     487
    3887,     486,     510,    1480,    1764
    3888,    1481,     308,    2090,     286
    3889,     239,    1482,     217,    2118
    3890,     238,    1523,    2176,    1483
    3891,    1998,    1828,    1485,     618
    3892,    2206,    1486,     456,    1475
    3893,    1518,    1487,     333,    1349
    3894,    1547,    1633,    1654,     548
    3895,    1799,    1468,    1489,    1774
    3896,    1621,     504,    1691,    1541
    3897,    1588,    1503,    1493,     275
    3898,     168,    1416,    1494,    1566
    3899,    1622,     304,    1544,     328
    3900,     298,    1181,    1503,    1588
    3901,     531,    1449,    1504,    1545
    3902,    1612,    1893,     164,    1587
    3903,    1506,     165,    1550,     166
    3904,    2259,    2241,    1540,    1543
    3905,    1508,    1548,    2125,    1418
    3906,     159,     182,    2168,    1510
    3907,     160,    1439,    1510,    2124
    3908,    1512,     174,    1750,    2046
    3909,    1513,    2082,    1628,    1567
    3910,     231,    2243,    1556,    1557
    3911,    1515,     145,    1434,    2062
    3912,    1619,    1585,    1517,    1564
    3913,    1519,     280,    1635,     256
    3914,     256,    1635,     257,    1626
    3915,     555,    1682,    1602,    2212
    3916,    2142,    1743,    2176,     261
    3917,     455,    1486,    1522,    1769
    3918,     261,    2176,    1523,    1604
    3919,    1617,    1551,    2250,    1525
    3920,     492,    1571,    1891,    1680
    3921,     609,    1417,    1529,    1563
    3922,     592,    2111,    1642,     591
    3923,    2013,    1578,    1974,     629
    3924,     629,    1507,    1532,    2013
    3925,     238,    2118,    1534,    2158
    3926,    1585,    1535,     218,    1464
    3927,    1536,     570,    1664,    2077
    3928,    1639,    1537,     574,    1806
    3929,     574,    1484,    1538,    1806
    3930,    1539,     412,    1575,     434
    3931,    1616,    2224,     533,    1499
    3932,    1637,    1542,    1659,     534
    3933,     480,    2259,    1543,    1560
    3934,    1688,    1565,    1544,     304
    3935,     530,    1611,    1683,    2230
    3936,    1489,    1546,    1706,    1774
    3937,    1599,    1547,     548,    1629
    3938,     159,    2125,    1548,     182
    3939,    1563,    1549,     587,    1641
    3940,    1873,    1550,     165,    1505
    3941,    2196,    1551,    1617,    2197
    3942,    1552,    1692,     284,    1608
    3943,     285,    1521,    2142,    1552
    3944,    1884,    1553,     186,    2097
    3945,    1910,    1555,     162,    2076
    3946,     142,     163,     143,    1382
    3947,    2243,     230,     254,    1556
    3948,    2239,    1606,     231,    1557
    3949,    1682,     556,    1558,    2240
    3950,    1617,    1558,     556,    2197
    3951,    1623,    2256,     276,    1389
    3952,    2252,     479,    2211,    1773
    3953,    1562,     504,    1491,    2259
    3954,    1619,    1564,    1799,    1774
    3955,    1565,     303,    1625,     327
    3956,     167,    2108,    1618,    1566
    3957,     174,    1568,    1813,    2115
    3958,     493,    1571,     492,    1875
    3959,    1571,     493,     494,    1609
    3960,     175,    1725,    2098,    1573
    3961,    1714,    1574,     521,    1398
    3962,    1608,    1379,     285,    1552
    3963,     550,    2165,    1676,    1638
    3964,    1706,    1652,     216,    1579
    3965,     309,    2061,    1580,    2070
    3966,    1583,     329,     305,    1622
    3967,    1612,    1587,     143,     163
    3968,    1589,     530,    2254,    1458
    3969,    2200,    1773,    2211,    1591
    3970,    2170,    1591,     478,    1644
    3971,    1592,     573,    2087,    2104
    3972,    1592,     549,    1654,    1633
    3973,    2071,    1593,    1630,    2129
    3974,    1563,    1593,    2040,     609
    3975,    1594,     413,    2216,    2217
    3976,    2135,    1889,     489,    1595
    3977,    1882,     489,    2237,     513
    3978,     571,    1599,    1629,    1596
    3979,    1597,     445,    2091,     467
    3980,     454,    1738,    1598,    1769
    3981,    1709,     281,    1656,     303
    3982,    1570,    1600,    1661,     280
    3983,    2112,    2080,     411,    1705
    3984,    2212,    1602,    2230,    1683
    3985,     556,    1682,     555,    2156
    3986,     215,    1603,    1704,    2127
    3987,    1605,     446,     468,    2065
    3988,    1662,    1606,    1655,    1716
    3989,    1567,    1731,    1624,     169
    3990,    1674,    1609,     494,     495
    3991,    2137,    1614,    1818,    2171
    3992,     189,    1618,    1610,    2172
    3993,    2146,    1611,    1613,     553
    3994,     554,    1683,    1611,    2146
    3995,    1899,    1612,     163,    1910
    3996,    1613,     529,    1620,     553
    3997,     188,    1818,    1614,    1848
    3998,    1616,    2231,    1667,    2224
    3999,    2196,    1690,    2231,    1551
    4000,    1679,    1619,    1774,    1706
    4001,    1620,     528,    1673,     552
    4002,    1621,     505,    1491,     504
    4003,     170,    1669,    1624,    1749
    4004,    1627,    1924,    2124,    1554
    4005,    1649,    1708,     190,    1581
    4006,     191,    1567,    1628,    1666
    4007,    1596,    1629,     547,    2055
    4008,    1685,    1632,     446,    1605
    4009,     572,    1592,    1633,    1547
    4010,    2158,    1534,    1634,    1742
    4011,    1720,    1650,    1671,     281
    4012,    1851,    2132,     172,    1838
    4013,    1834,    1636,    2132,    1890
    4014,    1676,    1651,     549,    1638
    4015,    1636,    1640,     172,    2132
    4016,     181,    1577,     182,    1548
    4017,    1641,    1703,     564,    1630
    4018,     571,    1664,    1642,    2143
    4019,    2169,    2170,    1644,    2123
    4020,    2123,    1644,     477,    1693
    4021,    1645,     585,     607,    1578
    4022,    1717,    2151,     579,    2117
    4023,     555,    2179,    1646,    2156
    4024,     414,    1263,    1647,    2174
    4025,     490,    1854,    1883,    1648
    4026,    1710,     258,     234,    1815
    4027,     257,    1635,    1671,    1650
    4028,    1651,     525,    1737,    1713
    4029,    1714,    1657,     545,    1574
    4030,    1658,    1660,    1733,     511
    4031,    1659,     558,    1722,     534
    4032,    1733,    1660,     535,    1792
    4033,    1734,    1724,    2247,    1662
    4034,    1716,    1746,    1663,    1662
    4035,    2080,    2079,    1665,     411
    4036,     433,    1719,    1665,    2079
    4037,    1734,    1653,     211,    1724
    4038,    1700,     557,    1702,     580
    4039,    2015,     170,    1723,     147
    4040,    2260,     254,     230,     229
    4041,    1678,    1672,     412,    1594
    4042,     525,    1675,     501,    1737
    4043,     526,    1796,     502,    1675
    4044,    2184,    1676,    2165,     526
    4045,    2106,     578,    1727,     577
    4046,    1701,    1677,    2105,     601
    4047,    2212,    1683,     554,    1697
    4048,    1824,    1684,    2083,     171
    4049,    1687,     283,    1736,     305
    4050,     547,    1689,     523,    2055
    4051,    1717,    2150,    1690,    2196
    4052,     528,    1541,    1691,    2178
    4053,    1867,     260,    1761,     236
    4054,    1693,     476,    1735,     500
    4055,     539,    1730,    1694,    1763
    4056,    1695,    2069,     517,    2092
    4057,    1697,     554,    1699,    2131
    4058,     553,    1698,     576,    2146
    4059,     552,    1767,     575,    1698
    4060,    2131,    1699,    2088,    1726
    4061,    1700,     580,    1808,     581
    4062,    1700,     581,    1755,     558
    4063,    2116,    1748,    1741,     602
    4064,     579,    1677,    1701,    2117
    4065,    2085,    1768,    1703,     565
    4066,     197,    1753,     196,    1744
    4067,    2140,    1757,    2112,    2191
    4068,    1708,    1771,    1765,     211
    4069,     257,    1710,     233,    1626
    4070,    1758,    2242,    1868,    1878
    4071,    1623,    1711,     253,    2256
    4072,     551,    1639,    1712,    2177
    4073,    1673,    1712,    1767,     552
    4074,     527,    2178,     503,    1796
    4075,    2151,    1717,    2196,    2197
    4076,    1718,     232,    1759,    1803
    4077,    1805,    1762,    1719,     433
    4078,     258,    1650,    1720,    1754
    4079,     535,    1722,     559,    1775
    4080,    1662,    1663,    1666,    1734
    4081,    1724,     211,    1794,    2199
    4082,     197,    2098,    1725,    1753
    4083,     599,     577,    1726,    2054
    4084,    1747,    1728,     511,    1733
    4085,    2154,    1743,    2142,    1521
    4086,    1533,    1729,     286,    2090
    4087,    1694,    1730,    2130,     563
    4088,    1752,     203,    1732,     202
    4089,     477,    1598,    1738,    2064
    4090,    1820,    1739,    2185,     515
    4091,     538,    1783,    1739,    1820
    4092,    1917,    2233,     204,    1921
    4093,    1740,     204,    2233,    2234
    4094,    1790,     601,     622,    2016
    4095,    1800,    1816,     580,    2148
    4096,    1744,     196,    1832,     214
    4097,    1744,     214,    1787,    2157
    4098,     598,    2088,    1745,    1779
    4099,    1766,    1786,     212,    1718
    4100,    1702,    2149,    2148,     580
    4101,    2046,     175,    1430,    2005
    4102,    2115,    1778,    1750,     174
    4103,    2164,    1824,    1751,    1777
    4104,    1795,     259,    1831,     235
    4105,    1755,     582,    1809,     559
    4106,    1782,    1756,     282,    1770
    4107,    1758,     252,    1793,     253
    4108,    1759,     233,    2210,    1803
    4109,    2218,    1759,     232,    2239
    4110,    1814,    1761,     260,    1721
    4111,    1784,     539,    1763,    1826
    4112,    1765,     210,    1819,    2198
    4113,    2215,    1766,     213,    1822
    4114,     540,    1802,    1768,    1827
    4115,    1703,    1768,    1802,     564
    4116,    1626,     233,    1759,    2218
    4117,    1782,    1770,    1788,     259
    4118,    1755,     559,    1722,     558
    4119,     565,    1703,    1772,    2014
    4120,    1772,    1886,    1874,    2014
    4121,    1775,     560,    1797,     536
    4122,     209,    1819,     210,    1776
    4123,     229,     230,    1794,    2198
    4124,     193,    2215,    1822,    1838
    4125,     193,    2164,    1777,    2215
    4126,    2134,    1860,    1813,     173
    4127,     196,    1753,    1778,    1860
    4128,    1829,    1781,    1811,    1836
    4129,    1783,     538,    1825,     562
    4130,    2130,    1783,     562,    1696
    4131,    1785,     237,    1761,    1814
    4132,    1777,    1786,    1766,    2215
    4133,    1787,     214,    1881,     236
    4134,     204,    1740,    1789,    1869
    4135,    1817,     575,    1538,     597
    4136,    1792,     536,    1812,     512
    4137,    2199,    1794,     230,    2243
    4138,     235,    1857,     234,    1795
    4139,    1798,     453,    2004,     475
    4140,    2116,    1800,    2148,    2149
    4141,    1801,     488,    1804,     487
    4142,    2207,    1804,     464,    1293
    4143,     388,     364,    2221,    1807
    4144,    1809,     583,    1830,     560
    4145,     582,    1810,     604,    1847
    4146,    1866,    1810,     581,    1808
    4147,    1860,    2134,    1834,    1897
    4148,    1815,    1849,    1821,    2210
    4149,     602,    1841,    1800,    2116
    4150,    1866,    1816,     603,    2072
    4151,    1820,     514,    1842,     538
    4152,     489,    1889,    1801,    2237
    4153,    1867,    1833,    1823,     260
    4154,    1684,     193,    1838,     172
    4155,     517,    2139,    1888,    2092
    4156,    1835,    1789,    2182,     223
    4157,    1998,    1997,    2031,    1828
    4158,    2031,    1844,    2054,     598
    4159,    1827,    1829,    1836,     541
    4160,     565,    1781,    1829,    2085
    4161,    1830,     584,    2041,     561
    4162,    2258,    1840,     274,    2245
    4163,    1832,    1897,    1837,    2236
    4164,     465,     464,    1804,     488
    4165,    2251,    1833,    1881,    2236
    4166,     173,    1636,    1834,    2134
    4167,     195,    1897,    1834,    1890
    4168,    2201,    1853,    1856,    2249
    4169,     194,    1851,    1838,    1822
    4170,    1878,    1865,     252,    1758
    4171,     274,    1840,     251,    2244
    4172,    1841,     602,    1858,    2063
    4173,    1841,    2063,    1887,     603
    4174,     514,    1882,     513,    1842
    4175,    1854,     515,    1861,    1883
    4176,     512,    1812,     513,    2237
    4177,    2193,    1863,     208,    1859
    4178,     187,    1845,     188,    1848
    4179,     188,    1845,     209,    1776
    4180,    1863,    1845,     187,    1870
    4181,     588,     589,    1850,    1874
    4182,    1851,     194,    2201,    1872
    4183,    1862,    1852,    1695,    2092
    4184,    2053,    1695,    1852,     518
    4185,     235,    1831,    2251,    1856
    4186,    1881,    1833,    1867,     236
    4187,    1857,     235,    1856,    1853
    4188,    1859,     208,     228,    1865
    4189,     491,    1883,    1861,    1846
    4190,    2092,    1888,    2138,    1862
    4191,     541,    1862,    2138,    1827
    4192,     209,    1845,    1863,    2193
    4193,     516,    2153,    1888,    2139
    4194,    1864,     492,    1680,    1876
    4195,    1868,    1859,    1865,    1878
    4196,    1865,     228,    2209,     251
    4197,    1849,    1853,    2201,     194
    4198,     208,    1863,    1870,    1885
    4199,     624,    1887,    2063,    1871
    4200,    2201,    2249,    2223,    1872
    4201,     195,    1890,    1872,    2223
    4202,    2014,     566,    1781,     565
    4203,     493,    1875,     517,    2069
    4204,    1928,     248,    1919,     225
    4205,    2162,    1877,     224,    2203
    4206,    1887,    1880,    2072,     603
    4207,    1409,    1880,    1892,     625
    4208,    2236,    1881,     214,    1832
    4209,    1902,     207,    2097,     186
    4210,     207,    1894,    1885,    2097
    4211,    1874,    1886,    1896,     588
    4212,    1901,    1892,     624,     648
    4213,    1780,    2138,    1888,    2153
    4214,    2139,     517,    1875,     516
    4215,     466,     465,    1889,    2135
    4216,    1893,     185,    1902,     186
    4217,     468,    1648,    1895,    2065
    4218,    1897,     195,    2223,    1837
    4219,     606,     584,    1898,    2032
    4220,    1904,    1907,    1900,     207
    4221,     226,    1920,     249,     250
    4222,    1903,     227,    1900,    1907
    4223,    1912,    1913,    1908,    1906
    4224,     185,    1899,    1905,    1912
    4225,    1908,     205,    1915,     206
    4226,    1911,     184,    2076,     162
    4227,    1916,    2126,    1923,     161
    4228,    1914,    1911,    2126,     183
    4229,     162,    1555,    1474,    1923
    4230,    1913,    1912,     184,    2167
    4231,    2167,    1914,    2233,    1917
    4232,    1914,     183,    2234,    2233
    4233,    1911,    1914,    2167,     184
    4234,    1921,    1925,     205,    2232
    4235,     225,    1918,    1915,    1925
    4236,    1924,    1916,     161,    1450
    4237,    2167,    1917,    2232,    1913
    4238,    1919,     248,    1927,    1926
    4239,    1916,    1922,     183,    2126
    4240,    1869,    2204,    2235,    1925
    4241,    1928,    2235,     224,    1877
    4242,    1930,    1931,     669,      12
    4243,    1933,     677,      25,     792
    4244,    1936,    1935,    1098,    1941
    4245,    1940,     782,     703,     770
    4246,    1941,    1098,     266,    1995
    4247,     849,    1947,     844,    1954
    4248,    1952,     116,     856,     891
    4249,    1972,    1953,    1256,     334
    4250,    1962,     810,     817,     866
    4251,    1426,    1965,     352,    2025
    4252,    1966,     349,    2002,     894
    4253,    1967,     894,    2002,     904
    4254,     622,    2057,    2019,    1977
    4255,    1979,     620,    1844,     619
    4256,    1981,     497,    1993,     498
    4257,     474,    1981,     498,    2017
    4258,    1154,     406,    1984,    1985
    4259,    1984,    2021,     383,    1985
    4260,    2009,    1990,     628,     606
    4261,    1331,    1990,    2009,     627
    4262,     590,    1286,    1991,    2011
    4263,     242,    1957,    1992,    1994
    4264,     618,     643,    1997,    1998
    4265,    1997,     619,    1844,    2031
    4266,    2013,    1532,    2040,     608
    4267,     310,    1347,    2022,    2023
    4268,    2023,    2022,    2058,     288
    4269,    1427,    2024,    2061,     309
    4270,    2028,     865,     637,    1179
    4271,    1062,     421,    2036,    2037
    4272,    1640,    2047,    1311,    2083
    4273,    2069,    2052,     494,     493
    4274,     518,    1376,    2052,    2053
    4275,    2056,     325,    1002,    2003
    4276,    2059,    1430,     175,    1573
    4277,    1410,    2033,     332,     308
    4278,     980,    2066,    2067,     986
    4279,    2068,     600,     621,    2012
    4280,     308,    1487,    2070,    2090
    4281,     410,     409,    2079,    2080
    4282,    2084,     391,    2133,    1263
    4283,    2104,    2087,     550,    1638
    4284,     339,    2089,     362,    2141
    4285,    2093,     976,     986,    2067
    4286,     150,    1498,    1568,    2095
    4287,    2098,     197,    2127,    1704
    4288,    2093,    2067,    2099,    2100
    4289,    2057,     601,    2105,    2068
    4290,     600,    2068,    2105,    2106
    4291,    2107,    1586,    2137,    1610
    4292,    2062,    2107,    2108,    1515
    4293,    2111,    1530,    1582,    2143
    4294,     981,     969,    2120,    2121
    4295,    2121,    2120,    2175,    1027
    4296,    2129,     563,     586,    2071
    4297,    2155,     971,     955,    2128
    4298,    2191,    2112,    1705,    1807
    4299,    2145,     593,    1352,    2113
    4300,    1748,    2116,    2149,    2150
    4301,    1702,    1690,    2150,    2149
    4302,     556,    2156,    2151,    2197
    4303,    1826,    2152,    1846,    1861
    4304,     516,    1864,    2152,    2153
    4305,     262,    1743,    2154,    1729
    4306,    2160,    2159,     463,    1370
    4307,    2161,    1019,    1039,    2194
    4308,    2165,    1576,    2186,     526
    4309,    1591,    2170,     502,    2200
    4310,    2171,    2172,    1610,    2137
    4311,     189,    2172,    2189,    1771
    4312,    2175,    1022,    2187,    1027
    4313,    2186,    2177,     527,    1796
    4314,    2202,    1024,    2181,    1016
    4315,     203,    1752,    2182,    1789
    4316,    2191,    2183,     387,    2140
    4317,    1651,    1713,    1654,     549
    4318,    1818,     188,    1776,    2171
    4319,    1814,    1721,    2190,    1604
    4320,    1835,    2163,    2203,    2204
    4321,    2235,    2204,    2203,     224
    4322,     481,    2205,    1141,    2241
    4323,     434,    1486,    2206,    2192
    4324,    2208,     227,     250,    2209
    4325,     228,    2166,    2208,    2209
    4326,     342,    2227,    2222,    2238
    4327,    2217,    2216,     389,    1631
    4328,    2219,     297,    2245,     274
    4329,     364,     388,    2220,    2222
    4330,    2221,     364,     341,     363
    4331,    1268,     321,    1377,    2226
    4332,    2227,     342,     317,     341
    4333,    2234,     183,    1922,    1740
    4334,    1606,    1662,    2247,     231
    4335,     250,     227,    1903,     226
    4336,    2243,     231,    2247,    2199
    4337,    2250,    1616,    1499,    1423
    4338,     484,    2253,    1163,    2261
    4339,     276,    2256,    2257,    1561
    4340,     480,    2252,    1562,    2259
    4341,    2260,    1670,    2262,     254
    4342,    2263,    1711,    1623,    2255
    4343,    2267,     509,    1270,    1361
*Element, type=U4
    4344,     135,    1184,    1196
    4345,    2032,    1898,    1304
    4346,    1354,    1504,    1300
    4347,    1979,     619,     644
    4348,    1384,     473,    1334
    4349,    1356,     463,    1056
    4350,    2190,     284,    1692
    4351,    1822,     213,    1821
    4352,    2247,    1724,    2199
    4353,    2232,    1917,    1921
    4354,    1857,    1853,    1849
    4355,     210,    1765,    1771
    4356,     946,     916,     927
    4357,    2025,     328,    1426
    4358,    2084,     415,    1231
    4359,     967,     961,     953
    4360,    2186,    1796,     526
    4361,     840,     771,     776
    4362,    1947,     838,     844
    4363,     770,     703,     702
    4364,     887,     870,     657
    4365,     418,     923,     934
    4366,     137,    1986,    1205
    4367,     971,     963,     955
    4368,    1056,    1028,     462
    4369,    1013,    1000,    1007
    4370,    2100,    2099,     997
    4371,    1255,    2225,     484
    4372,    1196,    1059,     136
    4373,    1297,    1273,     383
    4374,    1469,    1359,    1253
    4375,    1377,     321,    1590
    4376,    2195,    1233,    1268
    4377,    1504,    1449,     507
    4378,    2213,     319,     318
    4379,    2039,    1529,    1417
    4380,    1488,    2114,    1421
    4381,     176,    2059,    1573
    4382,    1549,    1500,     587
    4383,    1502,     444,     466
    4384,     457,    1540,    1469
    4385,    2168,    1686,    1554
    4386,    1559,     471,    1509
    4387,    1567,     169,    1513
    4388,    1642,    2111,    2143
    4389,    1302,     545,    1657
    4390,    1742,    1634,     215
    4391,    1749,    1723,     170
    4392,    1465,     305,     329
    4393,    1805,    2081,    1762
    4394,    1784,    1861,     515
    4395,    1925,    1915,     205
    4396,    1896,     610,    1299
    4397,    1996,     350,    1964
    4398,     925,    1400,    1272
    4399,     601,    2057,     622
    4400,    2015,    1669,     170
    4401,    1273,     359,    2038
    4402,    2049,     993,    1000
    4403,     308,     332,    1487
    4404,    2060,    1352,     593
    4405,     963,    2101,     958
    4406,    2162,    2203,    2163
    4407,    2166,     228,    1894
    4408,    1826,    1861,    1784
    4409,    1024,    2202,    1004
    4410,    2231,     557,    1667
    4411,    2221,     363,    2183
    4412,    2268,    1449,    2266
** ==========================================================
** Layer 3: Facsimile Visualization Elements (CPE4 Quads & CPE3 Tris)
** ==========================================================
*Element, type=CPE4
    4413,     761,     680,     679,     769
    4414,    1059,    1288,    1228,     115
    4415,    1291,    1399,    2044,    1264
    4416,    1191,     154,    1291,     134
    4417,    1249,     133,    1140,     132
    4418,    1239,    1970,     131,    1584
    4419,     130,     150,     151,    1470
    4420,    1956,    1247,     148,     128
    4421,     127,     126,    1245,     147
    4422,    1444,    1395,    1287,     125
    4423,    1444,    1230,    1391,     146
    4424,    1276,    1373,    1192,    1234
    4425,    1292,    1276,    1234,     123
    4426,    1340,    1198,    1988,    1989
    4427,    1240,     122,     121,    1472
    4428,    1367,    1495,    1308,    1175
    4429,    1262,    1229,    1392,     141
    4430,    1221,    1274,    1280,     119
    4431,    1217,    1987,    1405,     118
    4432,    1400,     925,    1986,     137
    4433,    1205,     824,     869,     137
    4434,    1070,    1038,      50,     695
    4435,    1168,    1038,    1070,     158
    4436,     158,    1070,    1104,    1201
    4437,    1497,    1327,     181,    1419
    4438,     202,    1577,     201,    1306
    4439,     223,     222,     246,    1855
    4440,     246,     269,     247,    1855
    4441,     293,    2136,     270,    2094
    4442,     295,     294,     318,     319
    4443,     343,    2213,     318,     342
    4444,    1385,     344,    2213,     343
    4445,     367,    2173,    1303,    1219
    4446,    1015,    1020,    1231,     415
    4447,     978,     964,     984,     990
    4448,     438,    1018,     998,     990
    4449,    1027,    1029,    1320,     462
    4450,     486,    1356,     485,     510
    4451,     510,    1459,    1658,     511
    4452,     536,    1792,     535,    1775
    4453,     560,    1830,     561,    1797
    4454,     584,     607,     585,    2041
    4455,     608,    1645,    1578,    2013
    4456,    1507,    1479,     630,    1532
    4457,    1094,    1087,      57,      56
    4458,    1072,    1094,      56,     706
    4459,    1043,    1072,     706,      55
    4460,    1072,    1043,    1199,     655
    4461,     804,     823,     705,     704
    4462,     632,    1973,    1047,    1194
    4463,    1068,     611,    1299,    1167
    4464,    1299,     611,     588,    1896
    4465,    1850,     567,    1839,     566
    4466,    1811,    1839,    1879,     542
    4467,    1326,     543,     518,    1852
    4468,    2052,    1376,     495,     494
    4469,    1674,     472,    1945,     471
    4470,     449,    1390,    1433,    1945
    4471,    1206,     428,    1310,    1390
    4472,     405,     404,    1159,     429
    4473,    2293,    2292,     405,    1060
    4474,     405,    2292,    2291,     404
    4475,     404,    2291,    2290,     403
    4476,    1369,     448,    1310,    1257
    4477,    1609,    1559,     470,    1571
    4478,    2053,    2052,    2069,    1695
    4479,    1781,     566,    1839,    1811
    4480,    1886,    1772,     587,    1500
    4481,    1500,    1549,    1429,     610
    4482,    1345,     632,    1374,    1420
    4483,    1199,     656,    1973,    1265
    4484,    1285,    1265,    1345,     631
    4485,     656,     864,    1047,    1973
    4486,     753,     791,     803,     104
    4487,     781,    1933,     792,     848
    4488,      24,     828,     812,     675
    4489,     135,     874,    1045,    1232
    4490,    1086,     134,    1232,    1045
    4491,    1140,      21,      20,     132
    4492,     132,      20,     672,    1137
    4493,    1121,      19,      18,    1403
    4494,    1121,    1403,     130,    1470
    4495,     671,    1126,    1110,      17
    4496,    1126,    1210,     128,     129
    4497,     670,    1129,    1132,      15
    4498,    1129,    1213,     126,     127
    4499,     669,    1931,    1089,      13
    4500,    1230,    1077,     124,    1289
    4501,    1088,    1080,     668,      10
    4502,     123,    1234,    1088,    1096
    4503,    1131,    1120,     667,       8
    4504,    1131,    1211,     121,     122
    4505,    1090,    1082,     666,       6
    4506,    1097,     120,    1175,    1090
    4507,    1061,    1041,     119,    1946
    4508,       4,     664,    1036,    1041
    4509,     826,     832,       2,     663
    4510,     856,     116,     798,     786
    4511,     841,     852,     787,     891
    4512,     777,     786,     661,     660
    4513,     824,     801,      52,     696
    4514,      49,      48,    1215,    1104
    4515,    1104,    1215,     180,    1201
    4516,     201,     200,    1250,    1306
    4517,    2109,    1413,     222,    1306
    4518,     269,     246,     245,     268
    4519,    2094,     270,     269,     268
    4520,     293,     317,     294,    2136
    4521,     317,     342,     318,     294
    4522,     343,     342,    2238,    2214
    4523,    2173,     366,     365,     390
    4524,     415,    2084,    1263,     414
    4525,    1015,    1010,     416,     995
    4526,     460,    1025,    1030,    1032
    4527,    1255,    1361,    1193,    2246
    4528,     535,    1660,     534,    1722
    4529,    1809,     560,    1775,     559
    4530,     605,    1898,     583,    1847
    4531,     606,     628,     607,     584
    4532,     629,    1974,    1375,     653
    4533,    1087,    1092,     707,      57
    4534,    1087,     654,    1237,    1092
    4535,    1220,    1215,      48,     694
    4536,     694,      47,    1138,    1220
    4537,    1329,    2109,     221,     243
    4538,     244,    2042,     245,    1413
    4539,     292,     316,     293,    2094
    4540,     316,     341,     317,     293
    4541,     341,     364,    2222,    2227
    4542,     365,    2214,    2220,    1631
    4543,    1647,     390,     389,    2216
    4544,     415,     414,    2147,    1112
    4545,     437,    1010,    1044,    1026
    4546,    1016,    1023,     460,    2202
    4547,    1146,    2253,     484,    1055
    4548,     509,    2267,    1423,    1499
    4549,     533,    2224,    1659,    1542
    4550,    1847,     583,    1809,     582
    4551,    1375,    1990,    1331,     652
    4552,    1113,     653,    1375,     652
    4553,    1092,    1113,      58,     707
    4554,      47,      46,    1218,    1138
    4555,    1138,    1218,     221,    1250
    4556,    1362,     244,    1329,     243
    4557,     268,     267,    2007,    2043
    4558,     291,     315,     292,    2043
    4559,     315,     340,     316,     292
    4560,     340,     363,     341,     316
    4561,    1807,    2221,    2183,    2191
    4562,    2217,    1631,    2220,     388
    4563,    2174,    1460,    2147,     414
    4564,     457,    1469,    1253,    1363
    4565,    2180,    1324,    1141,    2205
    4566,    1149,    1197,     483,    2248
    4567,    2265,     508,    2261,    2266
    4568,    1616,    2250,    1551,    2231
    4569,    1700,     558,    1667,     557
    4570,     581,    1810,     582,    1755
    4571,     604,    1409,     605,    1847
    4572,    1304,    1244,     627,    2032
    4573,    1223,     652,    1331,     651
    4574,      59,     652,    1223,      60
    4575,    1338,    1218,      46,     693
    4576,     693,      45,    1114,    1338
    4577,     267,     266,     290,    2007
    4578,    1490,     291,    2043,    2007
    4579,     314,     339,     315,     291
    4580,     362,     387,    2183,     363
    4581,     388,    1807,    1705,    1678
    4582,     412,    1539,     413,    1594
    4583,     435,    1363,    1253,    1182
    4584,     458,    1359,    1469,    1540
    4585,     482,    1294,    1174,    1149
    4586,    1558,     532,    1520,    2240
    4587,     557,    2231,    1690,    1702
    4588,    1808,     580,    1816,    1866
    4589,    2072,     604,    1810,    1866
    4590,     625,    1333,    2010,     626
    4591,      61,     708,    1937,    1142
    4592,    1252,    1142,     650,    1333
    4593,      44,    1935,    1936,      45
    4594,    1936,    1941,    1114,      45
    4595,    1477,     290,     289,     312
    4596,     337,     313,    1358,    1322
    4597,     338,     361,    2089,     339
    4598,     362,    2089,     386,     387
    4599,     387,     386,    1757,    2140
    4600,    1575,     412,    1672,    1601
    4601,    1475,     457,    1363,    2206
    4602,    1491,     481,    2241,    2259
    4603,     506,    1348,    1446,    1458
    4604,     531,    1545,    2230,    1602
    4605,    2156,    1646,     579,    2151
    4606,    1741,    1748,    2117,    1701
    4607,    1841,     603,    1816,    1800
    4608,     625,    1892,    1901,    1333
    4609,      61,    1142,    1252,      62
    4610,     692,    1934,    1935,      44
    4611,     692,      43,    1099,    1934
    4612,    1235,    1358,    1477,     312
    4613,    1295,     338,    1461,     337
    4614,     385,     361,     360,     384
    4615,     386,     385,     410,    1757
    4616,     411,    1665,    1601,    1672
    4617,     434,    1575,    1522,    1486
    4618,     456,    1486,     455,    1531
    4619,    2252,     480,    1560,     479
    4620,    1524,    1446,     505,    1621
    4621,    1611,     530,    1589,    1613
    4622,    2212,    1697,    2179,     555
    4623,     579,    1646,     578,    1677
    4624,     602,    1741,    1790,    1858
    4625,     624,    1871,    1173,     648
    4626,    1101,      63,     709,     649
    4627,    1100,    1101,     648,    1173
    4628,      43,      42,    1106,    1099
    4629,     336,    1235,    1106,    1093
    4630,    1165,    1064,     359,    1295
    4631,     385,     384,     409,     410
    4632,     433,    2079,     409,     432
    4633,     455,    1769,    1598,     478
    4634,     479,     478,    1591,    2211
    4635,    1715,    1691,     504,    1562
    4636,    1620,     529,    1541,     528
    4637,    1699,     554,    2146,     576
    4638,    2179,    1727,     578,    1646
    4639,    1790,    2016,     623,    1858
    4640,    1102,    1100,    1173,    1976
    4641,      63,    1101,    1100,      64
    4642,      42,     691,    1093,    1106
    4643,    1052,     825,     358,    1190
    4644,    1064,     890,    2038,     359
    4645,     408,     432,     409,     384
    4646,    1805,     433,     432,     453
    4647,    1762,     454,    1760,    1719
    4648,    1644,     478,    1598,     477
    4649,    1773,    2200,     503,    1715
    4650,    1673,     528,    2178,     527
    4651,    1698,     553,    1620,     552
    4652,    2131,    1726,     577,    1727
    4653,     621,     600,     599,     620
    4654,    2019,    2012,    1978,    1977
    4655,     646,    1107,     647,    1977
    4656,     710,    1102,    1107,      65
    4657,     814,     825,     690,      40
    4658,     825,     814,     867,     358
    4659,    2006,    1053,    1985,     383
    4660,     431,     408,     407,     430
    4661,     431,     453,     432,     408
    4662,    1805,     453,    1798,    2081
    4663,    1693,     477,    2064,     476
    4664,    2169,    1675,     502,    2170
    4665,    2177,    2186,    1576,     551
    4666,    1767,    1712,    1639,    1806
    4667,    1791,    1745,     576,    1698
    4668,    2054,    1844,     620,     599
    4669,     645,     621,     620,    1979
    4670,    1978,    1116,     646,    1977
    4671,      66,      65,    1107,     646
    4672,     822,     814,      40,     689
    4673,     872,     897,     406,    1154
    4674,    1207,    2021,    1984,     406
    4675,     431,     430,    1983,     452
    4676,     452,    2004,     453,     431
    4677,    1735,     476,     475,    2017
    4678,    1737,     501,     500,     524
    4679,     525,    1651,    1676,    2184
    4680,     551,    1576,    1537,    1639
    4681,    1806,    1538,     575,    1767
    4682,     598,    1779,    1828,    2031
    4683,    1115,     711,      67,    1116
    4684,      66,     646,    1116,      67
    4685,      39,      38,     897,     872
    4686,     406,     897,    1037,    1207
    4687,    1207,    1325,    1983,     430
    4688,     452,     451,     474,    2004
    4689,    2017,     475,    2004,     474
    4690,     499,     524,     500,    1735
    4691,    1654,    1713,    1689,     548
    4692,    1592,    2104,    1638,     549
    4693,    1484,     574,    2087,     573
    4694,     597,     596,    1485,    1828
    4695,    1997,     643,    1980,     619
    4696,    1980,    1108,     644,     619
    4697,      68,     711,    1115,     644
    4698,    1095,    1037,     688,      37
    4699,    1095,    1208,     450,    1325
    4700,    1248,     451,    1982,     450
    4701,     523,     499,     498,     522
    4702,     523,    1689,     524,     499
    4703,     572,    1547,    1488,    1421
    4704,     572,    1381,     573,    1592
    4705,     596,     595,    1415,    1485
    4706,    1103,     712,      69,    1108
    4707,      68,     644,    1108,      69
    4708,      37,      36,    1208,    1095
    4709,     450,    1208,    1124,    1248
    4710,    1993,    1305,     522,     498
    4711,    2055,     523,     522,     546
    4712,    1629,     548,    1689,     547
    4713,    1381,    1330,     595,     573
    4714,     641,    1105,     642,    1969
    4715,     642,      70,     712,    1103
    4716,    1216,    1124,     687,      35
    4717,    1124,    1216,     473,    1248
    4718,    1242,     497,    1334,     496
    4719,     522,     521,    1574,     546
    4720,    2114,    1488,    1582,    1530
    4721,    1422,    2145,    2113,    1357
    4722,    1243,     617,    1330,    2096
    4723,    1118,     713,      71,    1105
    4724,      70,     642,    1105,      71
    4725,      34,     496,    1216,      35
    4726,    1139,     496,      34,      33
    4727,    1657,    1714,    1318,     544
    4728,    1574,    1536,    2077,     546
    4729,    1664,     571,    1596,    2077
    4730,    2060,     593,    2102,    1456
    4731,     616,    1314,    1177,     639
    4732,     639,    1079,    1200,     640
    4733,     713,    1118,    1200,      72
    4734,    1125,    1139,      33,     686
    4735,     569,     545,    1302,    1516
    4736,     570,    1447,    2051,    1664
    4737,    1414,     592,     591,    2018
    4738,    1278,    1179,    2029,     615
    4739,     714,    1042,     875,      74
    4740,    1079,      73,      72,    1200
    4741,     520,    1139,    1125,    1318
    4742,    1202,    1084,    1949,     544
    4743,    1238,    1343,    1516,     568
    4744,    2051,    2011,    2018,     591
    4745,    1034,    1058,     613,    1176
    4746,     637,     821,     830,    1147
    4747,      74,     875,     830,     715
    4748,    1081,    1084,      31,     685
    4749,    1091,    1081,     685,      30
    4750,    1286,    1222,    1317,    1991
    4751,     818,     816,     865,    1963
    4752,      75,     821,     816,     716
    4753,    1081,    1091,    1238,     568
    4754,    1048,    1063,    1170,     612
    4755,     810,    1962,     863,     808
    4756,     716,     816,     818,      76
    4757,     876,    1127,      29,     684
    4758,     831,     876,     684,      28
    4759,     634,     800,     857,    1063
    4760,      77,     810,     808,     719
    4761,    1944,    1048,     876,     831
    4762,     790,     805,     683,     682
    4763,      78,     793,     784,     721
    4764,     771,     840,     790,     763
    4765,     804,     794,     849,     864
    4766,     838,     851,     780,     844
    4767,     813,     797,      90,     731
    4768,     870,     813,     827,     633
    4769,     873,     827,      89,     730
    4770,     873,    1033,    1068,    1955
    4771,     611,    1083,     589,     588
    4772,    1143,    1135,      86,     728
    4773,     567,    1135,    1143,    1214
    4774,      84,     519,    1224,      85
    4775,    1119,    1128,     727,      83
    4776,      82,     472,    1119,      83
    4777,      82,     726,    1109,     472
    4778,      80,    1938,    1312,      81
    4779,    1060,     405,     429,    1938
    4780,     380,    1153,      93,      92
    4781,    1939,    2289,    2288,     402
    4782,    1157,     427,     403,    1939
    4783,    1368,    1344,    1369,    1257
    4784,     447,    1685,    1572,    1344
    4785,    1526,     469,    1680,    1891
    4786,    1864,     516,    1875,     492
    4787,     540,    1827,    2138,    1780
    4788,    1768,    2085,    1829,    1827
    4789,     587,    1772,    1703,    1641
    4790,    1549,    1563,    1529,    1429
    4791,     630,    1401,    1417,     609
    4792,     655,    1285,    1212,    1948
    4793,    1212,    1285,     631,    1401
    4794,     402,    2288,    2287,     401
    4795,    1258,    1632,    1685,     447
    4796,    1605,     469,    1572,    1685
    4797,    1895,    1876,    1680,    2065
    4798,    2152,    1864,    1876,    1846
    4799,    1763,     540,    1780,    1826
    4800,    1694,     563,     564,    1802
    4801,     608,    2040,    1593,    2071
    4802,    1532,     630,     609,    2040
    4803,     738,      95,     378,     377
    4804,    2286,     400,     401,    2287
    4805,    1162,     425,     401,     400
    4806,    1251,     446,    1632,     425
    4807,     468,    1597,     467,    1648
    4808,     491,    1895,    1648,    1883
    4809,    1854,     514,    1820,     515
    4810,    2185,     539,    1784,     515
    4811,    1783,    2130,    1730,    1739
    4812,    2130,    1696,     586,     563
    4813,    1645,     608,    2071,     586
    4814,     585,    1645,     586,    1696
    4815,     400,    2286,    2285,    1046
    4816,    1046,    2285,    2284,     399
    4817,     423,    1313,    1246,    1172
    4818,    1353,    1453,    1313,     423
    4819,    1502,     466,    2135,    2091
    4820,     467,    1595,     490,    1648
    4821,    1882,     514,    1854,     490
    4822,    1812,     537,    1842,     513
    4823,    1825,     561,    2041,     562
    4824,     562,    2041,     585,    1696
    4825,     376,    1155,      97,      96
    4826,     398,    1085,    2283,    2282
    4827,    1961,    1164,     423,    1172
    4828,    2075,    1254,    1186,    2037
    4829,     488,    1801,    1889,     465
    4830,     512,    2237,    1801,    1747
    4831,    1797,     561,    1825,     537
    4832,     536,    1797,     537,    1812
    4833,     374,     740,      98,    1150
    4834,     397,     911,    2281,    2280
    4835,     911,     926,    1152,     398
    4836,    2037,    2036,    1323,    2075
    4837,     442,    1346,    1323,    2074
    4838,    1728,    1747,    1801,     487
    4839,    1792,     512,    1747,    1733
    4840,     373,     741,      99,    1123
    4841,     820,     397,    2280,    2279
    4842,     420,    2000,     892,    1959
    4843,    1259,     442,    2074,    1269
    4844,     442,    1259,    1293,     464
    4845,    1370,     486,    1764,    2207
    4846,     511,    1728,    1480,     510
    4847,     742,     100,     815,     372
    4848,     395,     858,     807,     799
    4849,     871,     858,     884,    1035
    4850,    2073,    1195,     440,    1148
    4851,     462,     991,    2121,    1027
    4852,    1320,    1356,    1056,     462
    4853,     744,     101,     806,     855
    4854,     779,    1958,     845,     789
    4855,     886,     419,    2034,     884
    4856,     923,     418,     947,     905
    4857,    2121,     991,     440,     981
    4858,     788,     778,     746,     102
    4859,     768,     766,     880,     835
    4860,     921,     880,     902,     931
    4861,     439,    2119,     998,    1018
    4862,     959,     957,     418,     943
    4863,      92,     736,     381,     380
    4864,     760,     381,     736,      91
    4865,     760,     114,    1133,     381
    4866,    1209,     356,    1160,     357
    4867,     334,    1427,    1349,    1972
    4868,    1533,    2090,    2070,    1580
    4869,    1521,     285,    1481,     286
    4870,    1604,    1523,    1785,    1814
    4871,    1787,     237,    1742,    2157
    4872,    1860,    1897,    1832,     196
    4873,    1851,    1872,    1890,    2132
    4874,     171,    2083,    1311,    1307
    4875,    1247,     147,    1723,    1307
    4876,    1307,    1723,    1749,     171
    4877,     147,    1245,    1309,    2015
    4878,    1160,     380,     381,    1133
    4879,    1953,    1972,    1476,    1355
    4880,    1487,     332,    1528,     333
    4881,     308,    1481,     307,    1410
    4882,     261,    1692,    1552,    2142
    4883,    1788,    1721,     260,    1823
    4884,    2249,    1856,    1837,    2223
    4885,     193,    1684,    1824,    2164
    4886,    1731,    1751,    1749,    1624
    4887,     171,    1749,    1751,    1824
    4888,    1607,    1731,    1567,     191
    4889,    1669,    1350,     169,    1624
    4890,    1566,    1494,    1455,     167
    4891,    1586,    2107,    2062,    1440
    4892,    1506,    1440,    1404,     144
    4893,    1340,    1989,    1442,    1435
    4894,    1442,    1989,    1587,     164
    4895,    1495,    1555,     142,    1472
    4896,    1450,     161,     141,    1392
    4897,    1438,    1439,    1380,     139
    4898,     138,    1454,    1351,    1987
    4899,    1168,    1271,    1279,     137
    4900,    1271,    1168,     158,    1402
    4901,      94,     737,     379,    1078
    4902,     737,      93,    1153,     379
    4903,    1332,    1501,    1383,    2033
    4904,    2033,    1410,     331,    1332
    4905,    1379,     306,    1335,     307
    4906,     259,    1788,    1823,    1831
    4907,     234,    1857,    1849,    1815
    4908,    1786,    1777,    1751,     192
    4909,    1786,     192,    1746,     212
    4910,    1607,    1663,    1746,     192
    4911,    1731,    1607,     192,    1751
    4912,    1416,    1513,     169,    1350
    4913,    1581,     168,    1566,    1618
    4914,    1610,    1618,    2108,    2107
    4915,    1848,    1614,     166,    1550
    4916,    1873,    1505,    1553,    1884
    4917,     164,    1893,     186,    1553
    4918,    1899,     185,    1893,    1612
    4919,    1905,    2076,     184,    1912
    4920,    1916,    1924,    1627,    1922
    4921,    2124,    1510,    2168,    1554
    4922,    1419,     181,    1548,    1508
    4923,    1732,     182,    1577,     202
    4924,     181,    1327,     201,    1577
    4925,      95,      94,    1078,     378
    4926,     354,    1156,    1332,     331
    4927,     331,    1335,     330,    1204
    4928,    1770,     282,    1736,     283
    4929,     258,    1754,    1795,     234
    4930,    1815,    2210,     233,    1710
    4931,    1766,    1718,    1803,     213
    4932,     212,    1655,     232,    1718
    4933,    1716,    1655,     212,    1746
    4934,    1663,    1607,     191,    1666
    4935,    1666,    1628,    1653,    1734
    4936,    1653,     190,    1708,     211
    4937,    2189,    2172,    2171,    1776
    4938,    1870,     187,    1873,    1884
    4939,    1906,    1902,     185,    1912
    4940,     205,    1908,    1913,    2232
    4941,    1707,    1740,    1922,    1627
    4942,    1686,    1732,     203,    1707
    4943,     222,    1752,     202,    1306
    4944,    1752,     222,     223,    2182
    4945,      96,     738,     377,     376
    4946,     377,     378,    1156,     354
    4947,     353,    1161,    1204,    1321
    4948,    1687,     305,    1465,     306
    4949,    1756,    1720,     281,    1709
    4950,    1710,     257,    1650,     258
    4951,     256,    1626,    2218,    1527
    4952,    1557,    1527,    2218,    2239
    4953,    1655,    1606,    2239,     232
    4954,    1765,    2198,    1794,     211
    4955,    2198,    1819,    2242,     229
    4956,     209,    2193,    1843,    1819
    4957,    1894,     228,     208,    1885
    4958,    2166,    1900,     227,    2208
    4959,    1909,     226,    1903,    1907
    4960,    1869,    1925,    1921,     204
    4961,    1869,    1789,    1835,    2204
    4962,    2162,    2163,    1855,     247
    4963,     223,    1855,    2163,    1835
    4964,    1161,     376,     377,     354
    4965,    1321,    1615,    1478,     353
    4966,    1622,     328,    2025,    1583
    4967,     303,    1565,    1688,    1709
    4968,     281,    1671,    1661,    1656
    4969,    1441,    1519,     256,    1527
    4970,     279,    1519,    1441,    1445
    4971,    1445,    1441,    1527,     255
    4972,    1711,    2260,     229,    2242
    4973,     252,    1865,     251,    1840
    4974,    1918,    1920,     226,    1909
    4975,     248,    1928,    1877,    1929
    4976,    1929,    1877,    2162,     247
    4977,    1929,     270,    1927,     248
    4978,     271,    1927,     270,    2136
    4979,     114,     113,    1111,    1133
    4980,    1209,     357,     335,    1282
    4981,    1227,    1284,    1282,     335
    4982,    2061,    2024,    1467,    1580
    4983,    1483,    2176,    1743,     262
    4984,    1785,    2158,    1742,     237
    4985,    2157,    2127,     197,    1744
    4986,    1813,    1860,    1778,    2115
    4987,     173,    1498,    1569,    1636
    4988,     149,     148,    1311,    2047
    4989,    1307,    1311,     148,    1247
    4990,     113,     759,    1071,    1111
    4991,    1066,    1065,     311,    1227
    4992,    1275,    1393,     311,    1189
    4993,    1452,    1386,    1643,     288
    4994,    1466,    1412,     262,    1729
    4995,    2118,     238,    1483,     239
    4996,    1704,    1603,     216,    1652
    4997,    1725,    1750,    1778,    1753
    4998,    1498,     173,    1813,    1568
    4999,    1473,    1336,     129,     149
    5000,    2047,    1569,    1473,     149
    5001,     112,     111,    1065,    1066
    5002,    1065,    1067,    1189,     311
    5003,    1319,    1360,    1275,    1189
    5004,     264,     263,    1386,    1452
    5005,    1482,     239,     240,    2030
    5006,    1534,    1579,     216,    1634
    5007,    1652,    1573,    2098,    1704
    5008,    2046,    1750,    1725,     175
    5009,     151,     150,    2095,    1512
    5010,    1568,     174,    1512,    2095
    5011,    1076,    1067,     758,     110
    5012,    1360,    1241,     264,    1452
    5013,     241,    1411,    2030,     240
    5014,     217,    1482,    1535,    1679
    5015,    1489,     176,    1573,    1546
    5016,    2059,    1511,    1378,    1430
    5017,     151,    1512,    1239,    1584
    5018,    1512,    2046,    2005,    1239
    5019,     110,     757,    1226,    1076
    5020,     757,     109,    1122,    1226
    5021,    1994,    1992,     241,    2026
    5022,    1411,     219,     218,    2030
    5023,    1535,    1585,    1619,    1679
    5024,    1431,     176,    1489,    1339
    5025,    1249,     152,    1378,     153
    5026,    1378,     152,    2005,    1430
    5027,     109,     108,    1134,    1122
    5028,    1122,    1134,    1957,     242
    5029,    1492,    1266,     198,    1464
    5030,    1564,    1517,    1443,    2008
    5031,    1339,    1489,    1468,    2048
    5032,    1315,     154,    1191,     133
    5033,     153,    1431,    1339,    1315
    5034,     108,     756,    1387,    1134
    5035,     107,    1074,    1387,     756
    5036,     179,    1365,    1236,    1069
    5037,    1342,    1432,     178,    1277
    5038,    1399,    1291,     154,    2048
    5039,    1399,    2048,    1468,     155
    5040,    1074,     107,     755,    1069
    5041,    1971,    1277,    1225,     157
    5042,     156,    2044,    1341,    1342
    5043,    1432,    1342,    1341,     177
    5044,     105,    1049,    1057,     106
    5045,    1057,    1049,     157,    1225
    5046,    1184,    1288,    1059,    1196
    5047,    1277,    1971,     156,    1342
    5048,     754,     829,    1049,     105
    5049,     829,     803,     115,    1228
    5050,     811,     826,     663,     662
    5051,     832,     826,     117,    1217
    5052,     664,       3,    1040,    1036
    5053,    1041,    1061,     665,       4
    5054,    1175,    1308,    1082,    1090
    5055,     123,    1096,    1120,    1198
    5056,    1075,    1080,    1192,     124
    5057,    1075,     124,    1077,    1930
    5058,     125,    1287,    1089,    1931
    5059,    1956,    1132,    1129,     127
    5060,     129,    1336,    1110,    1126
    5061,    1137,     672,      19,    1121
    5062,     134,    1086,    1117,    1191
    5063,    1196,     828,     874,     135
    5064,     802,     861,     848,     792
    5065,    1400,     137,    1279,     138
    5066,    1351,     139,    1405,    1987
    5067,     139,    1380,    1274,    1405
    5068,    1392,    1229,    1280,     140
    5069,    1367,    1262,     141,    1474
    5070,    1308,    1495,    1472,     121
    5071,    1240,    1472,     142,    1382
    5072,    1198,    1340,    1292,     123
    5073,    1404,    1276,    1292,     144
    5074,     145,    1289,    1373,    1434
    5075,    1391,    1230,    1289,     145
    5076,    1395,    1444,     146,    1457
    5077,    1454,    1508,    1418,    1351
    5078,    1438,     159,    1510,    1439
    5079,    1924,    1450,     160,    2124
    5080,    1923,    1474,     141,     161
    5081,    1474,    1555,    1495,    1367
    5082,    1442,    1505,     165,    1435
    5083,    1440,    1506,     166,    1586
    5084,     167,    1455,    1515,    2108
    5085,    1457,    1416,    1350,    1309
    5086,    1684,     172,    1640,    2083
    5087,    1511,    2059,     176,    1431
    5088,    1652,    1706,    1546,    1573
    5089,    2045,    1799,    1564,    2008
    5090,     178,    1432,    2008,    1443
    5091,    1277,     178,     179,    1225
    5092,    2168,     182,    1732,    1686
    5093,    1707,    1627,    1554,    1686
    5094,     162,    1923,    2126,    1911
    5095,    1899,    1910,    2076,    1905
    5096,     164,    1553,    1505,    1442
    5097,    1848,    1550,    1873,     187
    5098,    1586,     166,    1614,    2137
    5099,    1649,    1581,    1618,     189
    5100,    1513,    1416,     168,    2082
    5101,     194,    1822,    1821,    1849
    5102,    1679,    1706,    1579,     217
    5103,    1266,    1366,     199,    1236
    5104,     200,     201,    1327,     180
    5105,    1740,    1707,     203,    1789
    5106,    1906,    1908,     206,    1904
    5107,    1904,     207,    1902,    1906
    5108,    1885,    1870,    1884,    2097
    5109,    1776,     210,    1771,    2189
    5110,    1708,    1649,     189,    1771
    5111,     190,    1653,    1628,    2082
    5112,    2210,    1821,     213,    1803
    5113,    1856,    2251,    2236,    1837
    5114,    2157,    1742,     215,    2127
    5115,     215,    1634,     216,    1603
    5116,     217,    1579,    1534,    2118
    5117,     218,    1535,    1482,    2030
    5118,    1464,     218,     219,    1492
    5119,    1366,    1337,     220,     199
    5120,    1250,     221,    2109,    1306
    5121,    2235,    1928,     225,    1925
    5122,    1918,    1909,     206,    1915
    5123,    1907,    1904,     206,    1909
    5124,    1900,    2166,    1894,     207
    5125,    1859,    1868,    1843,    2193
    5126,    1868,    2242,    1819,    1843
    5127,     259,    1795,    1754,    1782
    5128,    1831,    1823,    1833,    2251
    5129,     236,    1761,     237,    1787
    5130,    1785,    1523,     238,    2158
    5131,     240,     239,    1412,    1328
    5132,     241,     240,    1328,    2026
    5133,    1994,    1241,     265,     242
    5134,     246,     222,    1413,     245
    5135,    1918,     225,    1919,    1920
    5136,    1926,     249,    1920,    1919
    5137,     273,     272,     296,    2219
    5138,     320,     297,    2219,     296
    5139,     321,    1268,    1233,    2194
    5140,     989,    2050,     346,    1050
    5141,     103,     878,     834,     766
    5142,     103,     749,     765,     833
    5143,     749,     748,     767,     765
    5144,     778,     846,     843,     773
    5145,    1966,     894,     371,    1950
    5146,     904,     924,     922,     912
    5147,    1012,    1185,    1011,    1006
    5148,     279,    1388,    1267,    1570
    5149,    1388,     279,    1445,    2228
    5150,     254,    1514,     255,    1556
    5151,    1557,    1556,     255,    1527
    5152,     250,     249,     273,    2244
    5153,    2219,     274,    2244,     273
    5154,     298,     297,    1377,    1590
    5155,     322,    1039,    1019,    1013
    5156,    1999,     979,     368,     965
    5157,     901,     915,     877,     836
    5158,     929,     915,     938,     940
    5159,     846,     853,     882,    1968
    5160,    2209,     250,    2244,     251
    5161,    2245,    1588,     275,    2258
    5162,    1181,    1039,     322,    1144
    5163,    1017,    1014,     323,    1001
    5164,    2144,    2128,     348,    2110
    5165,    2155,     975,    1001,     983
    5166,     924,    2144,    2110,     922
    5167,    1840,    2257,    1793,     252
    5168,    1493,    1463,     276,    1561
    5169,    1014,    1008,    1003,     323
    5170,    1009,    1017,    1001,     324
    5171,    1017,    1009,    1073,     300
    5172,    1009,     324,    1011,     301
    5173,    1758,     253,    1711,    2242
    5174,    1793,    2257,    2256,     253
    5175,    1283,    1188,     300,    2188
    5176,    1073,    1166,    2188,     300
    5177,     301,    1166,    1073,    1009
    5178,     301,    1011,    1185,    1290
    5179,    1670,    2260,    1711,    2263
    5180,    1462,    2255,    2229,     277
    5181,    1406,    2228,    1514,    1428
    5182,     280,    1661,    1671,    1635
    5183,    1720,    1756,    1782,    1754
    5184,    1788,    1770,     283,    1721
    5185,     284,    2190,    1721,     283
    5186,    1692,     261,    1604,    2190
    5187,    1729,    2154,    1521,     286
    5188,    1466,     263,    1328,    1412
    5189,    1328,     263,     264,    2026
    5190,    1319,     265,    1241,    1360
    5191,     267,    1362,    1995,     266
    5192,    2042,     267,     268,     245
    5193,     247,     269,     270,    1929
    5194,     271,     272,    1926,    1927
    5195,     272,     271,     295,     296
    5196,     296,     295,     319,     320
    5197,     320,     319,    1407,    2226
    5198,     345,    1281,    1158,    2103
    5199,    1151,    1054,     970,     368
    5200,     393,     949,     937,     931
    5201,     941,     914,     900,     930
    5202,     272,     273,     249,    1926
    5203,    2257,    1840,    2258,    1561
    5204,    1493,    1561,    2258,     275
    5205,    2255,    1623,    1389,    2229
    5206,    1570,    1267,    1371,    1600
    5207,    1625,     303,    1656,     302
    5208,     352,    1180,    1296,    1397
    5209,     739,      97,    1155,     375
    5210,    1155,     353,    1478,     375
    5211,    1600,     302,    1656,    1661
    5212,    1709,    1688,     282,    1756
    5213,    1736,     282,    1688,     304
    5214,     284,     283,    1687,    1608
    5215,     287,    1681,    1533,    1580
    5216,    1580,    1467,    1643,     287
    5217,     289,     290,     266,    1098
    5218,    1490,    2007,     290,    1477
    5219,    2043,     292,    2094,     268
    5220,     294,     295,     271,    2136
    5221,     297,     298,    1588,    2245
    5222,    1463,    1493,    1503,     299
    5223,     299,    1188,    1283,    1463
    5224,    1185,    1371,    1267,    1290
    5225,    1051,     302,    1600,    1371
    5226,    1436,    1394,     351,    1451
    5227,    1372,    1171,    1261,    1965
    5228,     375,    1150,      98,     739
    5229,    1496,    1544,    1565,     327
    5230,    1544,    1496,    1426,     328
    5231,     304,    1622,     305,    1736
    5232,     309,    2070,    1487,    1518
    5233,    1427,     334,     310,    2024
    5234,    1284,    1227,     311,    1393
    5235,    1490,     313,     314,     291
    5236,     320,    2226,    1377,     297
    5237,    1590,    1039,    1181,     298
    5238,     322,    1008,    1014,    1144
    5239,    1185,    1012,    1051,    1371
    5240,    2056,     906,    1996,     325
    5241,    1260,     815,     373,    1171
    5242,     374,    1123,      99,     740
    5243,     327,    1625,     326,    1964
    5244,    1583,    1397,    1615,     329
    5245,     330,    1668,    1321,    1204
    5246,    1256,    1209,    1282,    1347
    5247,    1235,     336,    1322,    1358
    5248,     313,     337,    1461,     314
    5249,     338,     339,     314,    1461
    5250,    2141,     340,     315,     339
    5251,    1407,     319,    2213,     344
    5252,    1281,     345,    1233,    2195
    5253,    2194,    1039,    1590,     321
    5254,    2049,    1000,    2086,     987
    5255,     906,     893,     350,    1996
    5256,     100,     741,     373,     815
    5257,    1964,    1394,    1436,     327
    5258,    1171,    1372,     351,    1260
    5259,    1204,    1161,     354,     331
    5260,    1501,    1332,    1156,    1396
    5261,    1501,    1396,    1471,     355
    5262,    1064,    1165,    1190,     358
    5263,     360,     361,     338,    1295
    5264,     386,    2089,     361,     385
    5265,     362,     363,     340,    2141
    5266,    2222,    2220,    2214,    2238
    5267,    1385,     365,     366,    1158
    5268,     989,    2103,    1151,     368
    5269,     948,     973,     940,     938
    5270,     859,     893,     906,     885
    5271,     806,     860,     859,    1950
    5272,     860,     806,     101,     743
    5273,     868,     372,     815,    1260
    5274,     382,    1053,     890,     867
    5275,    2038,    2006,     383,    1273
    5276,    1594,    2217,     388,    1678
    5277,     390,     365,    1631,     389
    5278,    1263,    2133,     390,    1647
    5279,    1219,    1054,    1151,     367
    5280,     883,     394,     835,     918
    5281,     854,     845,     881,     895
    5282,     858,     871,     809,     807
    5283,     397,     820,     862,     889
    5284,     889,     926,     911,     397
    5285,    2283,    1085,     399,    2284
    5286,     426,     402,     401,     425
    5287,     428,     404,     403,     427
    5288,     795,     788,     102,     745
    5289,    1297,     383,    2021,     407
    5290,    1757,     410,    2080,    2112
    5291,    1672,    1678,    1705,     411
    5292,    2174,    1647,    2216,     413
    5293,     995,     392,    1020,    1015
    5294,     419,     905,     947,    1145
    5295,    1035,     420,    1959,     871
    5296,    1136,    1187,     910,    2000
    5297,     926,    1062,     422,    1152
    5298,    1246,    1313,     424,    1162
    5299,    1251,     425,    1162,     424
    5300,    1368,    1257,     427,    1157
    5301,    1095,    1325,    1207,    1037
    5302,    1760,    1601,    1665,    1719
    5303,    1575,    1601,    1760,    1522
    5304,    2192,    1460,    1539,     434
    5305,     435,    1182,    1112,    2147
    5306,    1021,    1044,    1010,    1015
    5307,    1028,     440,     991,     462
    5308,    2160,    1293,    1259,    1203
    5309,    1323,    1346,     443,    2075
    5310,    1254,    1364,     444,    1353
    5311,     445,    1453,    1502,    2091
    5312,     446,    1251,    1597,     468
    5313,    1425,    1369,    1344,    1572
    5314,     448,    1433,    1390,    1310
    5315,    1437,     448,    1369,    1425
    5316,    1312,    1408,     449,    1109
    5317,    1325,     450,    1982,    1983
    5318,     451,     452,    1983,    1982
    5319,    1738,     454,    1762,    2081
    5320,    1769,    1522,    1760,     454
    5321,    1182,    1253,    1359,     436
    5322,    1169,    1324,    1026,    1044
    5323,     437,    2181,    1024,    1005
    5324,    1595,     467,    2091,    2135
    5325,     469,    1605,    2065,    1680
    5326,    1571,     470,    1526,    1891
    5327,     472,    1674,     495,    1119
    5328,     471,    1559,    1609,    1674
    5329,    1798,     475,     476,    2064
    5330,    2064,    1738,    2081,    1798
    5331,     478,     479,    1531,     455
    5332,    1475,     456,    1560,    1543
    5333,    2205,     481,    1294,     482
    5334,    1025,    1031,    2248,     483
    5335,    1146,    1030,    1025,     483
    5336,    1029,    1027,    2187,    2225
    5337,    1595,     489,    1882,     490
    5338,     491,    1846,    1876,    1895
    5339,    1376,     518,     519,    1128
    5340,     497,    1981,    1384,    1334
    5341,    2017,     498,     499,    1735
    5342,    1693,     500,     501,    2123
    5343,    2169,    2123,     501,    1675
    5344,    1796,     503,    2200,     502
    5345,    1715,    1562,    2252,    1773
    5346,    1174,    1294,    1348,     506
    5347,     507,    1197,    1300,    1504
    5348,     483,    1316,    2253,    1146
    5349,    2261,    1361,    1255,     484
    5350,    1780,    2153,    2152,    1826
    5351,     519,     518,     543,    1224
    5352,     541,     542,    1852,    1862
    5353,     495,    1376,    1128,    1119
    5354,    1242,     520,    1398,    1305
    5355,     521,     522,    1305,    1398
    5356,    1713,    1737,     524,    1689
    5357,    1675,     525,    2184,     526
    5358,    2178,    1691,    1715,     503
    5359,    1541,     529,    1524,    1621
    5360,    1524,    1589,    1458,    1446
    5361,    1545,    1504,    1354,    2254
    5362,    2265,    2266,    1449,    1520
    5363,    2267,     508,    2264,    1423
    5364,     509,    1542,    1459,    1270
    5365,     534,    1660,    1658,    1637
    5366,     537,    1825,     538,    1842
    5367,    1739,    1730,     539,    2185
    5368,     540,    1763,    1694,    1802
    5369,    1214,    1879,    1839,     567
    5370,    1836,    1811,     542,     541
    5371,    1536,    1574,     545,     569
    5372,    1596,    2055,     546,    2077
    5373,     550,    1537,    1576,    2165
    5374,    1673,     527,    2177,    1712
    5375,    1613,    1589,    1524,     529
    5376,     530,    2230,    1545,    2254
    5377,    2240,     531,    1602,    1682
    5378,    1525,     532,    1558,    1617
    5379,    1659,    2224,    1667,     558
    5380,     564,     563,    2129,    1630
    5381,     566,    2014,    1874,    1850
    5382,     568,    1516,    1302,    1949
    5383,    1536,     569,    1447,     570
    5384,    1599,     571,    2143,    1582
    5385,    1488,    1547,    1599,    1582
    5386,    2087,     574,    1537,     550
    5387,    1791,    1698,     575,    1817
    5388,    2088,    1699,     576,    1745
    5389,    1697,    2131,    1727,    2179
    5390,    2150,    1717,    2117,    1748
    5391,    1830,     583,    1898,     584
    5392,    1641,    1630,    1593,    1563
    5393,    1135,     567,    1850,     589
    5394,    2051,    1447,     590,    2011
    5395,     591,    1642,    1664,    2051
    5396,     593,    2114,    1530,    2102
    5397,     594,    2096,    1330,    1381
    5398,     595,     596,    1484,     573
    5399,     596,     597,    1538,    1484
    5400,    1745,    1791,    1817,    1779
    5401,    2054,    1726,    2088,     598
    5402,     577,     599,     600,    2106
    5403,    2106,    2105,    1677,     578
    5404,    1701,     601,    1790,    1741
    5405,     604,    2072,    1880,    1409
    5406,    1401,     631,    2039,    1417
    5407,    1167,    1194,    1955,    1068
    5408,     610,    1429,    1420,    1374
    5409,      88,     729,    1083,    1033
    5410,     612,    1170,    1960,    1317
    5411,    1298,    1960,    1176,     613
    5412,    1414,     613,     614,    1456
    5413,    1179,    1278,     614,    2028
    5414,    1178,    1314,    2113,    1352
    5415,     617,    1301,     641,    1415
    5416,     641,    1969,    1485,    1415
    5417,     597,    1828,    1779,    1817
    5418,    2068,    2012,    2019,    2057
    5419,    1871,    2063,    1858,     623
    5420,    1887,     624,    1892,    1880
    5421,    1409,     625,     626,     605
    5422,    1244,    1304,     626,    2010
    5423,    2009,     606,    2032,     627
    5424,     628,    1974,    1578,     607
    5425,    1176,    1960,    1170,     635
    5426,     863,     888,     635,     857
    5427,    1034,     636,    1963,    1058
    5428,    1042,    1177,     638,     875
    5429,     639,     640,    1243,     616
    5430,    1118,    1301,     640,    1200
    5431,    1969,     642,     618,    1485
    5432,     643,     618,     642,    1103
    5433,    1980,     643,    1103,    1108
    5434,     645,    1979,     644,    1115
    5435,     645,    1978,    2012,     621
    5436,    1977,     647,    2016,     622
    5437,     623,    1976,    1173,    1871
    5438,     649,    1901,     648,    1101
    5439,     649,    1252,    1333,    1901
    5440,    1975,     650,    1142,    1937
    5441,    1092,    1237,     653,    1113
    5442,     658,      26,     699,     762
    5443,     698,     697,     787,     852
    5444,     772,     777,     660,     659
    5445,     786,     798,       1,     661
    5446,     798,     811,     662,       1
    5447,     832,    1040,       3,       2
    5448,    1931,    1930,    1077,     125
    5449,    1129,     670,      14,    1213
    5450,    1126,     671,      16,    1210
    5451,      21,    1140,    1117,     673
    5452,     674,     874,     828,      24
    5453,     675,     812,     802,     676
    5454,     676,     802,     792,      25
    5455,     677,    1933,     775,     678
    5456,     769,     839,     842,     761
    5457,     750,     761,     842,     751
    5458,     681,      53,     724,     763
    5459,     763,     790,     682,     681
    5460,     805,     831,      28,     683
    5461,     686,      32,    1202,    1125
    5462,     872,     822,     689,      39
    5463,     825,    1052,      41,     690
    5464,    1104,    1070,     695,      49
    5465,     869,     824,     696,      51
    5466,     801,     787,     697,      52
    5467,     772,     762,     852,     841
    5468,     698,     852,     762,     699
    5469,      79,     735,    1932,     700
    5470,     734,     733,     780,     851
    5471,     770,     702,     701,     764
    5472,     782,     794,      54,     703
    5473,     794,     804,     704,      54
    5474,     823,    1043,      55,     705
    5475,      60,    1223,    1937,     708
    5476,      62,    1252,     649,     709
    5477,    1102,     710,      64,    1100
    5478,      73,    1079,    1042,     714
    5479,     715,     830,     821,      75
    5480,      76,     818,     819,     717
    5481,     718,     817,     810,      77
    5482,     719,     808,     800,     720
    5483,     720,     800,     793,      78
    5484,     721,     784,     776,     722
    5485,     723,     771,     763,     724
    5486,     771,     723,     722,     776
    5487,    2294,    2293,    1060,     725
    5488,    1109,     726,      81,    1312
    5489,     728,      85,    1224,    1143
    5490,      87,     589,    1083,     729
    5491,     730,      88,    1033,     873
    5492,     827,     813,     731,      89
    5493,     797,     785,     732,      90
    5494,     785,     780,     733,     732
    5495,     851,     838,     764,    1932
    5496,     734,     851,    1932,     735
    5497,     403,    2290,    2289,    1939
    5498,     398,    2282,    2281,     911
    5499,     742,     372,     860,     743
    5500,     908,     820,    2279,    2278
    5501,     807,     809,    2276,    2275
    5502,    2278,    2277,     396,     908
    5503,     745,     744,     855,     795
    5504,     799,     807,    2275,    2274
    5505,     789,     796,    2273,    2272
    5506,     796,     799,    2274,    2273
    5507,     778,     773,     747,     746
    5508,     779,     789,    2272,    2271
    5509,     773,     767,     748,     747
    5510,     774,     779,    2271,    2270
    5511,     768,     774,    2270,    2269
    5512,    2269,     103,     766,     768
    5513,     750,      27,     680,     761
    5514,     751,     842,     783,     752
    5515,     752,     783,     791,     753
    5516,     104,     803,     829,     754
    5517,    1069,     755,     106,    1057
    5518,     769,     679,     678,     775
    5519,     762,     772,     659,     658
    5520,     701,     700,    1932,     764
    5521,     836,     765,     767,     837
    5522,     765,     836,     877,     833
    5523,     880,     766,     834,     902
    5524,     837,     767,     773,     843
    5525,     774,     768,     835,     394
    5526,     839,     769,     775,    1942
    5527,     764,     838,    1940,     770
    5528,     779,     774,     394,    1958
    5529,     775,    1933,     781,    1942
    5530,     839,    1942,     783,     842
    5531,     805,     790,     840,     896
    5532,     777,     772,     841,    1943
    5533,     846,     778,     788,     853
    5534,     845,     854,     796,     789
    5535,     844,     780,     785,    1954
    5536,     781,     848,     847,    1942
    5537,     794,     782,    1947,     849
    5538,     891,     787,     801,    1952
    5539,     788,     795,    1951,     853
    5540,     803,     791,     847,     115
    5541,     850,     793,     800,     634
    5542,     371,    1951,     795,     855
    5543,     799,     796,     854,     395
    5544,     849,    1954,     887,     657
    5545,     909,     811,     798,     116
    5546,     857,     800,     808,     863
    5547,    1943,     841,     891,     856
    5548,     861,     802,     812,     136
    5549,     823,     804,     864,     656
    5550,     805,     896,    1944,     831
    5551,     855,     806,    1950,     371
    5552,     809,     396,    2277,    2276
    5553,     817,     718,     717,     819
    5554,     826,     811,     909,     117
    5555,     813,     870,     887,     797
    5556,     867,     814,     822,     382
    5557,     865,     816,     821,     637
    5558,     866,     817,     819,     636
    5559,     636,     819,     818,    1963
    5560,     863,    1962,     866,     888
    5561,     820,     908,     892,     862
    5562,    1043,     823,     656,    1199
    5563,     874,     674,      23,    1045
    5564,     136,     812,     828,    1196
    5565,    1049,     829,    1228,     157
    5566,    1147,     830,     875,     638
    5567,     900,     834,     878,     916
    5568,     878,     103,     833,     898
    5569,     918,     932,     920,     883
    5570,     879,     901,     836,     837
    5571,     370,     879,     837,     843
    5572,    1940,     838,    1947,     782
    5573,     776,     784,     896,     840
    5574,     797,     887,    1954,     785
    5575,     883,     907,    1958,     394
    5576,     370,     843,     846,    1968
    5577,     791,     783,    1942,     847
    5578,     115,     847,     848,     861
    5579,     864,     849,     657,    1047
    5580,     850,     634,    1944,     896
    5581,     793,     850,     896,     784
    5582,     904,    2002,     349,     924
    5583,    1967,     904,     912,     882
    5584,     895,     886,     395,     854
    5585,    1943,     856,     786,     777
    5586,    1063,     857,     635,    1170
    5587,     886,     884,     858,     395
    5588,     893,     859,     860,     372
    5589,     861,     136,    1059,     115
    5590,     889,     862,     910,     421
    5591,    1058,    1963,     865,    2028
    5592,     888,     866,     636,    1034
    5593,    1394,     868,    1260,     351
    5594,     868,    1394,    1964,     350
    5595,    1038,     869,      51,      50
    5596,     870,     633,    1047,     657
    5597,     396,     809,     871,    1959
    5598,     382,     822,     872,    1154
    5599,     827,     873,    1955,     633
    5600,     612,    1127,     876,    1048
    5601,     899,     898,     833,     877
    5602,     900,     916,     946,     930
    5603,     903,     370,    1968,     919
    5604,     933,     903,     919,     936
    5605,     902,     834,     900,     914
    5606,     921,     918,     835,     880
    5607,     845,    1958,     907,     881
    5608,     895,     881,     923,     905
    5609,     882,     912,     919,    1968
    5610,    1035,     884,    2034,    2035
    5611,     885,    2003,     349,    1966
    5612,    1950,     859,     885,    1966
    5613,     886,     895,     905,     419
    5614,     888,    1034,    1176,     635
    5615,     421,    1062,     926,     889
    5616,     890,    1053,    2006,    2038
    5617,     358,     867,     890,    1064
    5618,    1952,     801,     824,    1205
    5619,    1959,     892,     908,     396
    5620,     893,     372,     868,     350
    5621,    1967,     882,     853,    1951
    5622,     894,    1967,    1951,     371
    5623,     923,     881,     907,     934
    5624,    1037,     897,      38,     688
    5625,     939,     946,     927,     913
    5626,     915,     929,     899,     877
    5627,     916,     878,     898,     927
    5628,     903,     917,     879,     370
    5629,     917,     928,     901,     879
    5630,     944,     933,     936,     348
    5631,     935,     932,     918,     921
    5632,    2003,     885,     906,    2056
    5633,     920,     934,     907,     883
    5634,     909,     116,    1986,     925
    5635,     862,     892,    2000,     910
    5636,     912,     922,     936,     919
    5637,     898,     899,     913,     927
    5638,     914,     393,     931,     902
    5639,     913,     899,     929,     369
    5640,     913,     369,     950,     939
    5641,     933,     942,     917,     903
    5642,     934,     920,     943,     418
    5643,     937,     935,     921,     931
    5644,     349,    2003,    1002,     924
    5645,     348,     936,     922,    2110
    5646,    1002,    1006,     996,     924
    5647,     117,     909,     925,    1272
    5648,     930,     946,     956,     941
    5649,     951,     948,     938,     928
    5650,     915,     901,     928,     938
    5651,     943,     952,    2078,     959
    5652,     942,     933,     944,     958
    5653,     943,     920,     932,     952
    5654,     947,     418,     957,     969
    5655,     935,     937,     953,     945
    5656,     941,     949,     393,     914
    5657,     953,     937,     949,     967
    5658,     956,     946,     954,     974
    5659,     985,     968,     973,     982
    5660,     369,     929,     940,    2001
    5661,     941,     966,     967,     949
    5662,     958,    2101,     951,     942
    5663,     928,     917,     942,     951
    5664,     945,     952,     932,     935
    5665,     955,     944,     348,    2128
    5666,     945,     962,    2078,     952
    5667,     939,     950,    1999,     965
    5668,     970,     954,     965,     368
    5669,    1145,     947,     969,     981
    5670,    2001,     968,     950,     369
    5671,     956,     980,     966,     941
    5672,     939,     965,     954,     946
    5673,     968,    2001,     940,     973
    5674,     959,    2078,     978,    2119
    5675,     945,     953,     961,     962
    5676,     974,     954,     970,    1054
    5677,     975,    2155,    2128,    2144
    5678,     963,     958,     944,     955
    5679,     980,     956,     974,    2027
    5680,     969,     957,     439,    2120
    5681,    2101,     963,     972,     960
    5682,    2078,     962,     964,     978
    5683,     960,     948,     951,    2101
    5684,     961,     967,     986,     976
    5685,     417,     962,     961,     976
    5686,     964,     962,     417,     984
    5687,     971,     988,     972,     963
    5688,     324,    1001,     975,     996
    5689,     977,     950,     968,     985
    5690,     980,     986,     967,     966
    5691,     973,     948,     960,     982
    5692,     990,     998,    2119,     978
    5693,    1003,     983,    1001,     323
    5694,     982,     960,     972,     347
    5695,     985,     982,     993,    2049
    5696,    2027,     974,     392,     995
    5697,     984,     417,    2100,     997
    5698,     987,     977,     985,    2049
    5699,     977,     979,    1999,     950
    5700,    2100,     417,     976,    2093
    5701,     990,     984,     997,     438
    5702,    2050,     989,     368,     979
    5703,     995,    2066,     980,    2027
    5704,    2066,     995,     416,     994
    5705,     981,     440,    1195,    1145
    5706,     439,    1022,    2175,    2120
    5707,     993,     982,     347,     992
    5708,     988,     983,    1003,     992
    5709,     994,     416,    1005,     999
    5710,     997,     999,    1004,     438
    5711,     993,     992,    1007,    1000
    5712,     996,     975,    2144,     924
    5713,    2050,     987,    2086,     346
    5714,     977,     987,    2050,     979
    5715,     972,     988,     992,     347
    5716,     971,    2155,     983,     988
    5717,     994,    2099,    2067,    2066
    5718,    1018,     438,    1004,    2202
    5719,    2119,     439,     957,     959
    5720,     999,    1005,    1024,    1004
    5721,     999,     997,    2099,     994
    5722,    1007,     992,    1003,    1008
    5723,    2086,    1000,    1013,    2122
    5724,    1006,    1002,     325,    1012
    5725,    1005,     416,    1010,     437
    5726,     324,     996,    1006,    1011
    5727,    1013,    1007,    1008,     322
    5728,    1026,     459,    2181,     437
    5729,    1021,    1015,     415,    1112
    5730,    1051,    1012,     325,     326
    5731,    1013,    1019,    2161,    2122
    5732,    2202,     460,    1032,    1018
    5733,    1144,    1014,    1188,     299
    5734,    1188,    1014,    1017,     300
    5735,     459,    1023,    1016,    2181
    5736,    1018,    1032,    1022,     439
    5737,    1020,     392,    1130,    1231
    5738,    2187,    1022,     461,    1055
    5739,    2180,    1031,    1023,     459
    5740,    1023,    1031,    1025,     460
    5741,    1030,    1146,    1055,     461
    5742,    1203,    1148,    2159,    2160
    5743,    1028,    2159,    1148,     440
    5744,    2246,    1029,    2225,    1255
    5745,    1193,    1320,    1029,    2246
    5746,    1032,    1030,     461,    1022
    5747,    1031,     482,    1149,    2248
    5748,     611,    1068,    1033,    1083
    5749,    1145,    1195,    2034,     419
    5750,    2035,    1183,     420,    1035
    5751,     118,    1221,    1036,    1040
    5752,     119,    1041,    1036,    1221
    5753,     869,    1038,    1168,     137
    5754,    1233,     345,    2161,    2194
    5755,    1040,     832,    1217,     118
    5756,    1229,    1946,     119,    1280
    5757,     639,    1177,    1042,    1079
    5758,    1044,    1021,     436,    1169
    5759,    1045,      23,      22,    1086
    5760,    1046,     399,    1172,    1246
    5761,     400,    1046,    1246,    1162
    5762,    1194,    1047,     633,    1955
    5763,     634,    1063,    1048,    1944
    5764,     989,    1050,     345,    2103
    5765,    2122,    1050,     346,    2086
    5766,     302,    1051,     326,    1625
    5767,     336,    1093,    1052,    1190
    5768,     691,      41,    1052,    1093
    5769,     382,    1154,    1985,    1053
    5770,    1130,    1054,    1219,     391
    5771,     392,     974,    1054,    1130
    5772,    2225,    2187,    1055,     484
    5773,    1028,    1056,     463,    2159
    5774,     179,    1069,    1057,    1225
    5775,     614,     613,    1058,    2028
    5776,     725,    1060,    1938,      80
    5777,    1097,    1061,    1946,     120
    5778,       5,     665,    1061,    1097
    5779,    2036,    1187,    2074,    1323
    5780,    1067,    1065,     111,     758
    5781,    1066,    1227,     335,    1071
    5782,     759,     112,    1066,    1071
    5783,    1319,    1189,    1067,    1076
    5784,    1074,    1069,    1236,     199
    5785,     335,     357,    1111,    1071
    5786,     654,    1948,    1212,    1479
    5787,     301,    1290,     278,    1166
    5788,    1387,    1074,     199,     220
    5789,      12,      11,    1075,    1930
    5790,    1080,    1075,      11,     668
    5791,     265,    1319,    1076,    1226
    5792,    1078,     379,    1471,    1396
    5793,    1234,    1192,    1080,    1088
    5794,    1084,    1081,     568,    1949
    5795,     121,    1211,    1082,    1308
    5796,       7,     666,    1082,    1211
    5797,      32,      31,    1084,    1202
    5798,    1085,     398,    1152,    1961
    5799,    1961,    1172,     399,    1085
    5800,    1086,      22,     673,    1117
    5801,    1096,    1088,      10,       9
    5802,     126,    1213,    1089,    1287
    5803,    1097,    1090,       6,       5
    5804,    1127,    1091,      30,      29
    5805,    1222,    1238,    1091,    1127
    5806,    1094,    1072,     655,    1948
    5807,    1087,    1094,    1948,     654
    5808,    1120,    1096,       9,     667
    5809,    1098,    1935,    1934,     289
    5810,     312,     289,    1934,    1099
    5811,     647,    1107,    1102,    1976
    5812,    1118,    1105,     641,    1301
    5813,     312,    1099,    1106,    1235
    5814,    1109,     449,    1945,     472
    5815,     130,    1403,    1110,    1336
    5816,    1133,    1111,     357,    1160
    5817,     436,    1021,    1112,    1182
    5818,    1113,     652,      59,      58
    5819,    1114,    1941,    1995,    1362
    5820,     243,    1338,    1114,    1362
    5821,     326,     325,    1996,    1964
    5822,     645,    1115,    1116,    1978
    5823,    1191,    1117,    1140,     133
    5824,     122,    1198,    1120,    1131
    5825,     131,    1137,    1121,    1470
    5826,     242,     265,    1226,    1122
    5827,     374,    1180,    1261,    1123
    5828,      36,     687,    1124,    1208
    5829,    1125,    1202,     544,    1318
    5830,    1222,    1127,     612,    1317
    5831,    1128,     519,      84,     727
    5832,    1130,     391,    2084,    1231
    5833,    1211,    1131,       8,       7
    5834,     128,    1210,    1132,    1956
    5835,    1337,    1992,    1957,     220
    5836,    1135,     589,      87,      86
    5837,     420,    1183,    1136,    2000
    5838,    1187,    1136,    1269,    2074
    5839,    1137,     131,    1970,     132
    5840,     200,    1220,    1138,    1250
    5841,     520,    1242,     496,    1139
    5842,     458,    1540,    2241,    1141
    5843,     482,    1031,    2180,    2205
    5844,    1937,    1223,     651,    1975
    5845,    1244,    2010,    1975,     651
    5846,     543,    1214,    1143,    1224
    5847,    1181,    1144,     299,    1503
    5848,    1316,     483,    1197,     507
    5849,     638,    1178,    2029,    1147
    5850,    1147,    2029,    1179,     637
    5851,    2073,     441,    1183,    2035
    5852,    1149,    1174,    1300,    1197
    5853,    1150,    1296,    1180,     374
    5854,     422,    1164,    1961,    1152
    5855,    1153,     380,    1160,     356
    5856,    1355,    1471,     379,    1153
    5857,     375,    1478,    1296,    1150
    5858,    1396,    1156,     378,    1078
    5859,     402,     426,    1157,    1939
    5860,    1368,    1157,     426,    1258
    5861,    2103,    1158,     367,    1151
    5862,     344,    1385,    1158,    1281
    5863,    1159,     404,     428,    1206
    5864,    2261,    1163,    2268,    2266
    5865,    2261,     508,    2267,    1361
    5866,    1164,     422,    1186,    1254
    5867,    1164,    1254,    1353,     423
    5868,    1190,    1165,    1322,     336
    5869,     337,    1322,    1165,    1295
    5870,    1297,     407,     408,     384
    5871,    1166,     278,    1406,     277
    5872,     277,    2229,    2188,    1166
    5873,    1374,    1167,    1299,     610
    5874,    1167,    1374,     632,    1194
    5875,    1402,     158,    1201,    1497
    5876,    1324,    1169,     458,    1141
    5877,    1171,     373,    1123,    1261
    5878,    1976,     623,    2016,     647
    5879,    1448,    1348,    1294,     481
    5880,    1175,     120,    1262,    1367
    5881,    1177,    1314,    1178,     638
    5882,    1180,     352,    1965,    1261
    5883,    1183,     441,    1269,    1136
    5884,    1288,    1184,     156,    1971
    5885,    1364,    1254,    2075,     443
    5886,     422,    1062,    2037,    1186
    5887,     910,    1187,    2036,     421
    5888,    1320,    1193,     485,    1356
    5889,    1265,    1973,     632,    1345
    5890,    2035,    2034,    1195,    2073
    5891,    1264,    1184,     135,    1232
    5892,    1988,    1198,     122,    1240
    5893,    1199,    1265,    1285,     655
    5894,    1497,    1201,     180,    1327
    5895,    1148,    1203,     441,    2073
    5896,     426,     425,    1632,    1258
    5897,     116,    1952,    1205,    1986
    5898,    1408,    1206,    1390,     449
    5899,     429,    1159,    1206,    1408
    5900,     428,     427,    1257,    1310
    5901,     430,     407,    2021,    1207
    5902,    1210,      16,      15,    1132
    5903,    1479,    1212,    1401,     630
    5904,    1213,      14,      13,    1089
    5905,    1879,    1214,     543,    1326
    5906,     200,     180,    1215,    1220
    5907,     473,    1216,     496,    1334
    5908,    1217,     117,    1272,    1987
    5909,     243,     221,    1218,    1338
    5910,    1274,    1221,     118,    1405
    5911,    1991,    1317,    1960,    1298
    5912,    1282,    1284,    2022,    1347
    5913,     120,    1946,    1229,    1262
    5914,     125,    1077,    1230,    1444
    5915,    2133,    1303,    2173,     390
    5916,    1232,     134,    1291,    1264
    5917,    2226,    1407,    2195,    1268
    5918,    2161,     345,    1050,    2122
    5919,    1365,     198,    1266,    1236
    5920,    1237,     654,    1479,    1507
    5921,     653,    1237,    1507,     629
    5922,    1343,    1286,     590,    1447
    5923,     152,    1970,    1239,    2005
    5924,     143,    1988,    1240,    1382
    5925,    1243,     640,    1301,     617
    5926,     627,    1244,     651,    1331
    5927,     148,     149,     129,     128
    5928,    1395,    1245,     126,    1287
    5929,     127,     147,    1247,    1956
    5930,     451,    1248,     473,    1384
    5931,     153,    1315,     133,    1249
    5932,    1249,     132,    1970,     152
    5933,    1251,     424,     445,    1597
    5934,    1193,    1361,    1270,     485
    5935,     356,    1953,    1355,    1153
    5936,    1209,    1256,    1953,     356
    5937,    1368,    1258,     447,    1344
    5938,     441,    1203,    1259,    1269
    5939,     155,    1341,    2044,    1399
    5940,    1366,    1266,    1492,     219
    5941,    1290,    1267,    1388,     278
    5942,    2195,    1407,     344,    1281
    5943,    1279,    1271,    1454,     138
    5944,    1454,    1271,    1402,    1508
    5945,     359,    1273,     360,    1295
    5946,     384,     360,    1273,    1297
    5947,    1280,    1274,    1380,     140
    5948,    1467,    2023,     288,    1643
    5949,    1373,    1289,     124,    1192
    5950,    1365,     179,     178,    1443
    5951,     615,    1352,    2060,    1278
    5952,    1278,    2060,    1456,     614
    5953,    2229,    1389,    1283,    2188
    5954,    1463,    1283,    1389,     276
    5955,    1238,    1222,    1286,    1343
    5956,     157,    1228,    1288,    1971
    5957,    1293,    2160,    1370,    2207
    5958,    1346,     442,     464,     465
    5959,    2018,    1298,     613,    1414
    5960,    2011,    1991,    1298,    2018
    5961,    1300,    1174,     506,    1354
    5962,     544,    1949,    1302,    1657
    5963,     391,    1219,    1303,    2133
    5964,     605,     626,    1304,    1898
    5965,     497,    1242,    1305,    1993
    5966,    1155,     376,    1161,     353
    5967,    1395,    1457,    1309,    1245
    5968,    1669,    2015,    1309,    1350
    5969,    1569,    2047,    1640,    1636
    5970,     429,    1408,    1312,    1938
    5971,     424,    1313,    1453,     445
    5972,    1989,    1988,     143,    1587
    5973,     616,    1357,    2113,    1314
    5974,     507,    1449,    2268,    1316
    5975,    1163,    2253,    1316,    2268
    5976,    1318,    1714,    1398,     520
    5977,    1615,    1321,    1668,     329
    5978,     459,    1026,    1324,    2180
    5979,     542,    1879,    1326,    1852
    5980,    2026,     264,    1241,    1994
    5981,    1329,     244,    1413,    2109
    5982,    1357,    2096,     594,    1422
    5983,     595,    1330,     617,    1415
    5984,    2010,    1333,     650,    1975
    5985,    1335,     306,    1465,     330
    5986,     307,    1335,     331,    1410
    5987,     219,    1411,    1337,    1366
    5988,     154,    1315,    1339,    2048
    5989,     144,    1292,    1340,    1435
    5990,    2044,     156,    1184,    1264
    5991,    1516,    1343,    1447,     569
    5992,    1526,    1425,    1572,     469
    5993,     443,    1346,     465,    1364
    5994,    2024,     310,    2023,    1467
    5995,     334,    1256,    1347,     310
    5996,     505,    1446,    1348,    1448
    5997,    1476,     333,    1528,     355
    5998,    1494,    1416,    1457,     146
    5999,    1178,    1352,     615,    2029
    6000,     592,    2102,    1530,    2111
    6001,    1353,     444,    1502,    1453
    6002,     355,    1471,    1355,    1476
    6003,    1459,     510,     485,    1270
    6004,     463,    1356,     486,    1370
    6005,    2096,    1357,     616,    1243
    6006,    1477,    1358,     313,    1490
    6007,    1359,     458,    1169,     436
    6008,     288,    1275,    1360,    1452
    6009,    1424,    2264,     508,    2265
    6010,    1362,     267,    2042,     244
    6011,    2192,    2206,    1363,     435
    6012,    1364,     465,     466,     444
    6013,    1804,    2207,    1764,     487
    6014,    1965,    1426,    2020,    1372
    6015,    1372,    2020,    1451,     351
    6016,    1404,    1434,    1373,    1276
    6017,    1990,    1375,    1974,     628
    6018,    1378,    1511,    1431,     153
    6019,     285,    1379,     307,    1481
    6020,    1608,    1687,     306,    1379
    6021,    1418,    1438,     139,    1351
    6022,    1381,     572,    1421,     594
    6023,    1470,     151,    1584,     131
    6024,     130,    1336,    1473,     150
    6025,    1555,    1910,     163,     142
    6026,    1528,    1383,    1501,     355
    6027,    1383,    1528,     332,    2033
    6028,    1384,    1981,     474,     451
    6029,    1385,     343,    2214,     365
    6030,    1158,     366,    2173,     367
    6031,    1643,    1386,    1681,     287
    6032,    1681,    1386,     263,    1466
    6033,    1134,    1387,     220,    1957
    6034,    1428,    1462,     277,    1406
    6035,     448,    1437,    1509,    1433
    6036,    1455,    1391,     145,    1515
    6037,    1450,    1392,     140,     160
    6038,    1393,    1275,     288,    2058
    6039,    1393,    2058,    2022,    1284
    6040,    1478,    1615,    1397,    1296
    6041,    1272,    1400,     138,    1987
    6042,    2039,    1420,    1429,    1529
    6043,    1402,    1497,    1419,    1508
    6044,    1403,      18,      17,    1110
    6045,     144,    1435,     165,    1506
    6046,    2228,    1406,     278,    1388
    6047,    1411,     241,    1992,    1337
    6048,    1412,     239,    1483,     262
    6049,    2082,     168,    1581,     190
    6050,     159,    1438,    1418,    2125
    6051,     631,    1345,    1420,    2039
    6052,    2114,     593,    2145,    1422
    6053,    1421,    2114,    1422,     594
    6054,    1525,    2250,    1423,    2264
    6055,    1424,    2265,    1520,     532
    6056,    2264,    1424,     532,    1525
    6057,     470,    1437,    1425,    1526
    6058,    2025,     352,    1397,    1583
    6059,    1496,    1451,    2020,    1426
    6060,    1518,    1349,    1427,     309
    6061,    1428,    1514,     254,    2262
    6062,    1500,     610,    1896,    1886
    6063,     177,    1341,     155,    1468
    6064,     177,    2045,    2008,    1432
    6065,     471,    1945,    1433,    1509
    6066,    1559,    1509,    1437,     470
    6067,     140,    1380,    1439,     160
    6068,    1404,    1440,    2062,    1434
    6069,     279,    1570,     280,    1519
    6070,     198,    1365,    1443,    1517
    6071,     255,    1514,    2228,    1445
    6072,    1448,     481,    1491,     505
    6073,    1520,    1449,     531,    2240
    6074,     327,    1436,    1451,    1496
    6075,     146,    1391,    1455,    1494
    6076,     592,    1414,    1456,    2102
    6077,     506,    1458,    2254,    1354
    6078,     509,    1499,     533,    1542
    6079,    1459,    1542,    1637,    1658
    6080,    2147,    1460,    2192,     435
    6081,     413,    1539,    1460,    2174
    6082,    2262,    1670,    1462,    1428
    6083,    2263,    2255,    1462,    1670
    6084,    1517,    1585,    1464,     198
    6085,    1465,     329,    1668,     330
    6086,    1681,    1466,    1729,    1533
    6087,     177,    1468,    1799,    2045
    6088,    1543,    1540,     457,    1475
    6089,    1473,    1569,    1498,     150
    6090,    1560,     456,    1531,     479
    6091,    1349,     333,    1476,    1972
    6092,    1764,    1480,    1728,     487
    6093,     486,     510,    1480,    1764
    6094,    1481,     308,    2090,     286
    6095,     239,    1482,     217,    2118
    6096,     238,    1523,    2176,    1483
    6097,    1998,    1828,    1485,     618
    6098,    2206,    1486,     456,    1475
    6099,    1518,    1487,     333,    1349
    6100,    1547,    1633,    1654,     548
    6101,    1799,    1468,    1489,    1774
    6102,    1621,     504,    1691,    1541
    6103,    1588,    1503,    1493,     275
    6104,     168,    1416,    1494,    1566
    6105,    1622,     304,    1544,     328
    6106,     298,    1181,    1503,    1588
    6107,     531,    1449,    1504,    1545
    6108,    1612,    1893,     164,    1587
    6109,    1506,     165,    1550,     166
    6110,    2259,    2241,    1540,    1543
    6111,    1508,    1548,    2125,    1418
    6112,     159,     182,    2168,    1510
    6113,     160,    1439,    1510,    2124
    6114,    1512,     174,    1750,    2046
    6115,    1513,    2082,    1628,    1567
    6116,     231,    2243,    1556,    1557
    6117,    1515,     145,    1434,    2062
    6118,    1619,    1585,    1517,    1564
    6119,    1519,     280,    1635,     256
    6120,     256,    1635,     257,    1626
    6121,     555,    1682,    1602,    2212
    6122,    2142,    1743,    2176,     261
    6123,     455,    1486,    1522,    1769
    6124,     261,    2176,    1523,    1604
    6125,    1617,    1551,    2250,    1525
    6126,     492,    1571,    1891,    1680
    6127,     609,    1417,    1529,    1563
    6128,     592,    2111,    1642,     591
    6129,    2013,    1578,    1974,     629
    6130,     629,    1507,    1532,    2013
    6131,     238,    2118,    1534,    2158
    6132,    1585,    1535,     218,    1464
    6133,    1536,     570,    1664,    2077
    6134,    1639,    1537,     574,    1806
    6135,     574,    1484,    1538,    1806
    6136,    1539,     412,    1575,     434
    6137,    1616,    2224,     533,    1499
    6138,    1637,    1542,    1659,     534
    6139,     480,    2259,    1543,    1560
    6140,    1688,    1565,    1544,     304
    6141,     530,    1611,    1683,    2230
    6142,    1489,    1546,    1706,    1774
    6143,    1599,    1547,     548,    1629
    6144,     159,    2125,    1548,     182
    6145,    1563,    1549,     587,    1641
    6146,    1873,    1550,     165,    1505
    6147,    2196,    1551,    1617,    2197
    6148,    1552,    1692,     284,    1608
    6149,     285,    1521,    2142,    1552
    6150,    1884,    1553,     186,    2097
    6151,    1910,    1555,     162,    2076
    6152,     142,     163,     143,    1382
    6153,    2243,     230,     254,    1556
    6154,    2239,    1606,     231,    1557
    6155,    1682,     556,    1558,    2240
    6156,    1617,    1558,     556,    2197
    6157,    1623,    2256,     276,    1389
    6158,    2252,     479,    2211,    1773
    6159,    1562,     504,    1491,    2259
    6160,    1619,    1564,    1799,    1774
    6161,    1565,     303,    1625,     327
    6162,     167,    2108,    1618,    1566
    6163,     174,    1568,    1813,    2115
    6164,     493,    1571,     492,    1875
    6165,    1571,     493,     494,    1609
    6166,     175,    1725,    2098,    1573
    6167,    1714,    1574,     521,    1398
    6168,    1608,    1379,     285,    1552
    6169,     550,    2165,    1676,    1638
    6170,    1706,    1652,     216,    1579
    6171,     309,    2061,    1580,    2070
    6172,    1583,     329,     305,    1622
    6173,    1612,    1587,     143,     163
    6174,    1589,     530,    2254,    1458
    6175,    2200,    1773,    2211,    1591
    6176,    2170,    1591,     478,    1644
    6177,    1592,     573,    2087,    2104
    6178,    1592,     549,    1654,    1633
    6179,    2071,    1593,    1630,    2129
    6180,    1563,    1593,    2040,     609
    6181,    1594,     413,    2216,    2217
    6182,    2135,    1889,     489,    1595
    6183,    1882,     489,    2237,     513
    6184,     571,    1599,    1629,    1596
    6185,    1597,     445,    2091,     467
    6186,     454,    1738,    1598,    1769
    6187,    1709,     281,    1656,     303
    6188,    1570,    1600,    1661,     280
    6189,    2112,    2080,     411,    1705
    6190,    2212,    1602,    2230,    1683
    6191,     556,    1682,     555,    2156
    6192,     215,    1603,    1704,    2127
    6193,    1605,     446,     468,    2065
    6194,    1662,    1606,    1655,    1716
    6195,    1567,    1731,    1624,     169
    6196,    1674,    1609,     494,     495
    6197,    2137,    1614,    1818,    2171
    6198,     189,    1618,    1610,    2172
    6199,    2146,    1611,    1613,     553
    6200,     554,    1683,    1611,    2146
    6201,    1899,    1612,     163,    1910
    6202,    1613,     529,    1620,     553
    6203,     188,    1818,    1614,    1848
    6204,    1616,    2231,    1667,    2224
    6205,    2196,    1690,    2231,    1551
    6206,    1679,    1619,    1774,    1706
    6207,    1620,     528,    1673,     552
    6208,    1621,     505,    1491,     504
    6209,     170,    1669,    1624,    1749
    6210,    1627,    1924,    2124,    1554
    6211,    1649,    1708,     190,    1581
    6212,     191,    1567,    1628,    1666
    6213,    1596,    1629,     547,    2055
    6214,    1685,    1632,     446,    1605
    6215,     572,    1592,    1633,    1547
    6216,    2158,    1534,    1634,    1742
    6217,    1720,    1650,    1671,     281
    6218,    1851,    2132,     172,    1838
    6219,    1834,    1636,    2132,    1890
    6220,    1676,    1651,     549,    1638
    6221,    1636,    1640,     172,    2132
    6222,     181,    1577,     182,    1548
    6223,    1641,    1703,     564,    1630
    6224,     571,    1664,    1642,    2143
    6225,    2169,    2170,    1644,    2123
    6226,    2123,    1644,     477,    1693
    6227,    1645,     585,     607,    1578
    6228,    1717,    2151,     579,    2117
    6229,     555,    2179,    1646,    2156
    6230,     414,    1263,    1647,    2174
    6231,     490,    1854,    1883,    1648
    6232,    1710,     258,     234,    1815
    6233,     257,    1635,    1671,    1650
    6234,    1651,     525,    1737,    1713
    6235,    1714,    1657,     545,    1574
    6236,    1658,    1660,    1733,     511
    6237,    1659,     558,    1722,     534
    6238,    1733,    1660,     535,    1792
    6239,    1734,    1724,    2247,    1662
    6240,    1716,    1746,    1663,    1662
    6241,    2080,    2079,    1665,     411
    6242,     433,    1719,    1665,    2079
    6243,    1734,    1653,     211,    1724
    6244,    1700,     557,    1702,     580
    6245,    2015,     170,    1723,     147
    6246,    2260,     254,     230,     229
    6247,    1678,    1672,     412,    1594
    6248,     525,    1675,     501,    1737
    6249,     526,    1796,     502,    1675
    6250,    2184,    1676,    2165,     526
    6251,    2106,     578,    1727,     577
    6252,    1701,    1677,    2105,     601
    6253,    2212,    1683,     554,    1697
    6254,    1824,    1684,    2083,     171
    6255,    1687,     283,    1736,     305
    6256,     547,    1689,     523,    2055
    6257,    1717,    2150,    1690,    2196
    6258,     528,    1541,    1691,    2178
    6259,    1867,     260,    1761,     236
    6260,    1693,     476,    1735,     500
    6261,     539,    1730,    1694,    1763
    6262,    1695,    2069,     517,    2092
    6263,    1697,     554,    1699,    2131
    6264,     553,    1698,     576,    2146
    6265,     552,    1767,     575,    1698
    6266,    2131,    1699,    2088,    1726
    6267,    1700,     580,    1808,     581
    6268,    1700,     581,    1755,     558
    6269,    2116,    1748,    1741,     602
    6270,     579,    1677,    1701,    2117
    6271,    2085,    1768,    1703,     565
    6272,     197,    1753,     196,    1744
    6273,    2140,    1757,    2112,    2191
    6274,    1708,    1771,    1765,     211
    6275,     257,    1710,     233,    1626
    6276,    1758,    2242,    1868,    1878
    6277,    1623,    1711,     253,    2256
    6278,     551,    1639,    1712,    2177
    6279,    1673,    1712,    1767,     552
    6280,     527,    2178,     503,    1796
    6281,    2151,    1717,    2196,    2197
    6282,    1718,     232,    1759,    1803
    6283,    1805,    1762,    1719,     433
    6284,     258,    1650,    1720,    1754
    6285,     535,    1722,     559,    1775
    6286,    1662,    1663,    1666,    1734
    6287,    1724,     211,    1794,    2199
    6288,     197,    2098,    1725,    1753
    6289,     599,     577,    1726,    2054
    6290,    1747,    1728,     511,    1733
    6291,    2154,    1743,    2142,    1521
    6292,    1533,    1729,     286,    2090
    6293,    1694,    1730,    2130,     563
    6294,    1752,     203,    1732,     202
    6295,     477,    1598,    1738,    2064
    6296,    1820,    1739,    2185,     515
    6297,     538,    1783,    1739,    1820
    6298,    1917,    2233,     204,    1921
    6299,    1740,     204,    2233,    2234
    6300,    1790,     601,     622,    2016
    6301,    1800,    1816,     580,    2148
    6302,    1744,     196,    1832,     214
    6303,    1744,     214,    1787,    2157
    6304,     598,    2088,    1745,    1779
    6305,    1766,    1786,     212,    1718
    6306,    1702,    2149,    2148,     580
    6307,    2046,     175,    1430,    2005
    6308,    2115,    1778,    1750,     174
    6309,    2164,    1824,    1751,    1777
    6310,    1795,     259,    1831,     235
    6311,    1755,     582,    1809,     559
    6312,    1782,    1756,     282,    1770
    6313,    1758,     252,    1793,     253
    6314,    1759,     233,    2210,    1803
    6315,    2218,    1759,     232,    2239
    6316,    1814,    1761,     260,    1721
    6317,    1784,     539,    1763,    1826
    6318,    1765,     210,    1819,    2198
    6319,    2215,    1766,     213,    1822
    6320,     540,    1802,    1768,    1827
    6321,    1703,    1768,    1802,     564
    6322,    1626,     233,    1759,    2218
    6323,    1782,    1770,    1788,     259
    6324,    1755,     559,    1722,     558
    6325,     565,    1703,    1772,    2014
    6326,    1772,    1886,    1874,    2014
    6327,    1775,     560,    1797,     536
    6328,     209,    1819,     210,    1776
    6329,     229,     230,    1794,    2198
    6330,     193,    2215,    1822,    1838
    6331,     193,    2164,    1777,    2215
    6332,    2134,    1860,    1813,     173
    6333,     196,    1753,    1778,    1860
    6334,    1829,    1781,    1811,    1836
    6335,    1783,     538,    1825,     562
    6336,    2130,    1783,     562,    1696
    6337,    1785,     237,    1761,    1814
    6338,    1777,    1786,    1766,    2215
    6339,    1787,     214,    1881,     236
    6340,     204,    1740,    1789,    1869
    6341,    1817,     575,    1538,     597
    6342,    1792,     536,    1812,     512
    6343,    2199,    1794,     230,    2243
    6344,     235,    1857,     234,    1795
    6345,    1798,     453,    2004,     475
    6346,    2116,    1800,    2148,    2149
    6347,    1801,     488,    1804,     487
    6348,    2207,    1804,     464,    1293
    6349,     388,     364,    2221,    1807
    6350,    1809,     583,    1830,     560
    6351,     582,    1810,     604,    1847
    6352,    1866,    1810,     581,    1808
    6353,    1860,    2134,    1834,    1897
    6354,    1815,    1849,    1821,    2210
    6355,     602,    1841,    1800,    2116
    6356,    1866,    1816,     603,    2072
    6357,    1820,     514,    1842,     538
    6358,     489,    1889,    1801,    2237
    6359,    1867,    1833,    1823,     260
    6360,    1684,     193,    1838,     172
    6361,     517,    2139,    1888,    2092
    6362,    1835,    1789,    2182,     223
    6363,    1998,    1997,    2031,    1828
    6364,    2031,    1844,    2054,     598
    6365,    1827,    1829,    1836,     541
    6366,     565,    1781,    1829,    2085
    6367,    1830,     584,    2041,     561
    6368,    2258,    1840,     274,    2245
    6369,    1832,    1897,    1837,    2236
    6370,     465,     464,    1804,     488
    6371,    2251,    1833,    1881,    2236
    6372,     173,    1636,    1834,    2134
    6373,     195,    1897,    1834,    1890
    6374,    2201,    1853,    1856,    2249
    6375,     194,    1851,    1838,    1822
    6376,    1878,    1865,     252,    1758
    6377,     274,    1840,     251,    2244
    6378,    1841,     602,    1858,    2063
    6379,    1841,    2063,    1887,     603
    6380,     514,    1882,     513,    1842
    6381,    1854,     515,    1861,    1883
    6382,     512,    1812,     513,    2237
    6383,    2193,    1863,     208,    1859
    6384,     187,    1845,     188,    1848
    6385,     188,    1845,     209,    1776
    6386,    1863,    1845,     187,    1870
    6387,     588,     589,    1850,    1874
    6388,    1851,     194,    2201,    1872
    6389,    1862,    1852,    1695,    2092
    6390,    2053,    1695,    1852,     518
    6391,     235,    1831,    2251,    1856
    6392,    1881,    1833,    1867,     236
    6393,    1857,     235,    1856,    1853
    6394,    1859,     208,     228,    1865
    6395,     491,    1883,    1861,    1846
    6396,    2092,    1888,    2138,    1862
    6397,     541,    1862,    2138,    1827
    6398,     209,    1845,    1863,    2193
    6399,     516,    2153,    1888,    2139
    6400,    1864,     492,    1680,    1876
    6401,    1868,    1859,    1865,    1878
    6402,    1865,     228,    2209,     251
    6403,    1849,    1853,    2201,     194
    6404,     208,    1863,    1870,    1885
    6405,     624,    1887,    2063,    1871
    6406,    2201,    2249,    2223,    1872
    6407,     195,    1890,    1872,    2223
    6408,    2014,     566,    1781,     565
    6409,     493,    1875,     517,    2069
    6410,    1928,     248,    1919,     225
    6411,    2162,    1877,     224,    2203
    6412,    1887,    1880,    2072,     603
    6413,    1409,    1880,    1892,     625
    6414,    2236,    1881,     214,    1832
    6415,    1902,     207,    2097,     186
    6416,     207,    1894,    1885,    2097
    6417,    1874,    1886,    1896,     588
    6418,    1901,    1892,     624,     648
    6419,    1780,    2138,    1888,    2153
    6420,    2139,     517,    1875,     516
    6421,     466,     465,    1889,    2135
    6422,    1893,     185,    1902,     186
    6423,     468,    1648,    1895,    2065
    6424,    1897,     195,    2223,    1837
    6425,     606,     584,    1898,    2032
    6426,    1904,    1907,    1900,     207
    6427,     226,    1920,     249,     250
    6428,    1903,     227,    1900,    1907
    6429,    1912,    1913,    1908,    1906
    6430,     185,    1899,    1905,    1912
    6431,    1908,     205,    1915,     206
    6432,    1911,     184,    2076,     162
    6433,    1916,    2126,    1923,     161
    6434,    1914,    1911,    2126,     183
    6435,     162,    1555,    1474,    1923
    6436,    1913,    1912,     184,    2167
    6437,    2167,    1914,    2233,    1917
    6438,    1914,     183,    2234,    2233
    6439,    1911,    1914,    2167,     184
    6440,    1921,    1925,     205,    2232
    6441,     225,    1918,    1915,    1925
    6442,    1924,    1916,     161,    1450
    6443,    2167,    1917,    2232,    1913
    6444,    1919,     248,    1927,    1926
    6445,    1916,    1922,     183,    2126
    6446,    1869,    2204,    2235,    1925
    6447,    1928,    2235,     224,    1877
    6448,    1930,    1931,     669,      12
    6449,    1933,     677,      25,     792
    6450,    1936,    1935,    1098,    1941
    6451,    1940,     782,     703,     770
    6452,    1941,    1098,     266,    1995
    6453,     849,    1947,     844,    1954
    6454,    1952,     116,     856,     891
    6455,    1972,    1953,    1256,     334
    6456,    1962,     810,     817,     866
    6457,    1426,    1965,     352,    2025
    6458,    1966,     349,    2002,     894
    6459,    1967,     894,    2002,     904
    6460,     622,    2057,    2019,    1977
    6461,    1979,     620,    1844,     619
    6462,    1981,     497,    1993,     498
    6463,     474,    1981,     498,    2017
    6464,    1154,     406,    1984,    1985
    6465,    1984,    2021,     383,    1985
    6466,    2009,    1990,     628,     606
    6467,    1331,    1990,    2009,     627
    6468,     590,    1286,    1991,    2011
    6469,     242,    1957,    1992,    1994
    6470,     618,     643,    1997,    1998
    6471,    1997,     619,    1844,    2031
    6472,    2013,    1532,    2040,     608
    6473,     310,    1347,    2022,    2023
    6474,    2023,    2022,    2058,     288
    6475,    1427,    2024,    2061,     309
    6476,    2028,     865,     637,    1179
    6477,    1062,     421,    2036,    2037
    6478,    1640,    2047,    1311,    2083
    6479,    2069,    2052,     494,     493
    6480,     518,    1376,    2052,    2053
    6481,    2056,     325,    1002,    2003
    6482,    2059,    1430,     175,    1573
    6483,    1410,    2033,     332,     308
    6484,     980,    2066,    2067,     986
    6485,    2068,     600,     621,    2012
    6486,     308,    1487,    2070,    2090
    6487,     410,     409,    2079,    2080
    6488,    2084,     391,    2133,    1263
    6489,    2104,    2087,     550,    1638
    6490,     339,    2089,     362,    2141
    6491,    2093,     976,     986,    2067
    6492,     150,    1498,    1568,    2095
    6493,    2098,     197,    2127,    1704
    6494,    2093,    2067,    2099,    2100
    6495,    2057,     601,    2105,    2068
    6496,     600,    2068,    2105,    2106
    6497,    2107,    1586,    2137,    1610
    6498,    2062,    2107,    2108,    1515
    6499,    2111,    1530,    1582,    2143
    6500,     981,     969,    2120,    2121
    6501,    2121,    2120,    2175,    1027
    6502,    2129,     563,     586,    2071
    6503,    2155,     971,     955,    2128
    6504,    2191,    2112,    1705,    1807
    6505,    2145,     593,    1352,    2113
    6506,    1748,    2116,    2149,    2150
    6507,    1702,    1690,    2150,    2149
    6508,     556,    2156,    2151,    2197
    6509,    1826,    2152,    1846,    1861
    6510,     516,    1864,    2152,    2153
    6511,     262,    1743,    2154,    1729
    6512,    2160,    2159,     463,    1370
    6513,    2161,    1019,    1039,    2194
    6514,    2165,    1576,    2186,     526
    6515,    1591,    2170,     502,    2200
    6516,    2171,    2172,    1610,    2137
    6517,     189,    2172,    2189,    1771
    6518,    2175,    1022,    2187,    1027
    6519,    2186,    2177,     527,    1796
    6520,    2202,    1024,    2181,    1016
    6521,     203,    1752,    2182,    1789
    6522,    2191,    2183,     387,    2140
    6523,    1651,    1713,    1654,     549
    6524,    1818,     188,    1776,    2171
    6525,    1814,    1721,    2190,    1604
    6526,    1835,    2163,    2203,    2204
    6527,    2235,    2204,    2203,     224
    6528,     481,    2205,    1141,    2241
    6529,     434,    1486,    2206,    2192
    6530,    2208,     227,     250,    2209
    6531,     228,    2166,    2208,    2209
    6532,     342,    2227,    2222,    2238
    6533,    2217,    2216,     389,    1631
    6534,    2219,     297,    2245,     274
    6535,     364,     388,    2220,    2222
    6536,    2221,     364,     341,     363
    6537,    1268,     321,    1377,    2226
    6538,    2227,     342,     317,     341
    6539,    2234,     183,    1922,    1740
    6540,    1606,    1662,    2247,     231
    6541,     250,     227,    1903,     226
    6542,    2243,     231,    2247,    2199
    6543,    2250,    1616,    1499,    1423
    6544,     484,    2253,    1163,    2261
    6545,     276,    2256,    2257,    1561
    6546,     480,    2252,    1562,    2259
    6547,    2260,    1670,    2262,     254
    6548,    2263,    1711,    1623,    2255
    6549,    2267,     509,    1270,    1361
*Element, type=CPE3
    6550,     135,    1184,    1196
    6551,    2032,    1898,    1304
    6552,    1354,    1504,    1300
    6553,    1979,     619,     644
    6554,    1384,     473,    1334
    6555,    1356,     463,    1056
    6556,    2190,     284,    1692
    6557,    1822,     213,    1821
    6558,    2247,    1724,    2199
    6559,    2232,    1917,    1921
    6560,    1857,    1853,    1849
    6561,     210,    1765,    1771
    6562,     946,     916,     927
    6563,    2025,     328,    1426
    6564,    2084,     415,    1231
    6565,     967,     961,     953
    6566,    2186,    1796,     526
    6567,     840,     771,     776
    6568,    1947,     838,     844
    6569,     770,     703,     702
    6570,     887,     870,     657
    6571,     418,     923,     934
    6572,     137,    1986,    1205
    6573,     971,     963,     955
    6574,    1056,    1028,     462
    6575,    1013,    1000,    1007
    6576,    2100,    2099,     997
    6577,    1255,    2225,     484
    6578,    1196,    1059,     136
    6579,    1297,    1273,     383
    6580,    1469,    1359,    1253
    6581,    1377,     321,    1590
    6582,    2195,    1233,    1268
    6583,    1504,    1449,     507
    6584,    2213,     319,     318
    6585,    2039,    1529,    1417
    6586,    1488,    2114,    1421
    6587,     176,    2059,    1573
    6588,    1549,    1500,     587
    6589,    1502,     444,     466
    6590,     457,    1540,    1469
    6591,    2168,    1686,    1554
    6592,    1559,     471,    1509
    6593,    1567,     169,    1513
    6594,    1642,    2111,    2143
    6595,    1302,     545,    1657
    6596,    1742,    1634,     215
    6597,    1749,    1723,     170
    6598,    1465,     305,     329
    6599,    1805,    2081,    1762
    6600,    1784,    1861,     515
    6601,    1925,    1915,     205
    6602,    1896,     610,    1299
    6603,    1996,     350,    1964
    6604,     925,    1400,    1272
    6605,     601,    2057,     622
    6606,    2015,    1669,     170
    6607,    1273,     359,    2038
    6608,    2049,     993,    1000
    6609,     308,     332,    1487
    6610,    2060,    1352,     593
    6611,     963,    2101,     958
    6612,    2162,    2203,    2163
    6613,    2166,     228,    1894
    6614,    1826,    1861,    1784
    6615,    1024,    2202,    1004
    6616,    2231,     557,    1667
    6617,    2221,     363,    2183
    6618,    2268,    1449,    2266
** ==========================================================
** ELEMENT SETS
** ==========================================================
*Elset, elset=PHASE_QUAD, generate
 1, 2137, 1
*Elset, elset=DISP_QUAD, generate
 2207, 4343, 1
*Elset, elset=UMAT_QUAD, generate
 4413, 6549, 1
*Elset, elset=PHASE_TRI, generate
 2138, 2206, 1
*Elset, elset=DISP_TRI, generate
 4344, 4412, 1
*Elset, elset=UMAT_TRI, generate
 6550, 6618, 1
*Elset, elset=PHASE_ALL, generate
 1, 2206, 1
*Elset, elset=DISP_ALL, generate
 2207, 4412, 1
*Elset, elset=UMATELEM, generate
 4413, 6618, 1
** ==========================================================
** UEL PROPERTIES (l0, Gc, thickness, E, nu, park, NPHYS)
** ==========================================================
*UEL Property, elset=PHASE_QUAD
 1.500000e-02, 2.700000e-03, 1.000000e+00
*UEL Property, elset=DISP_QUAD
 2.100000e+02, 3.000000e-01, 1.000000e+00, 1.000000e-07, 2206.0
*UEL Property, elset=PHASE_TRI
 1.500000e-02, 2.700000e-03, 1.000000e+00
*UEL Property, elset=DISP_TRI
 2.100000e+02, 3.000000e-01, 1.000000e+00, 1.000000e-07, 2206.0
** ==========================================================
** SOLID SECTIONS FOR FACSIMILE LAYER
** ==========================================================
*Solid Section, elset=UMAT_QUAD, material=MAT_QUAD_FACSIMILE
 1.000000e+00
*Solid Section, elset=UMAT_TRI, material=MAT_TRI_FACSIMILE
 1.000000e+00
*End Part
** ==========================================================
** ASSEMBLY & BOUNDARY SETS
** ==========================================================
*Assembly, name=Assembly
*Instance, name=PlateInstance, part=PlatePart
*End Instance
** Reference Point for Shear Loading
*Node
 1, 0.0, 0.600000024, 0.0
*Nset, nset=RP
 1
*Nset, nset=bottom_nodes, instance=PlateInstance
 2, 3, 4, 5, 6, 7, 8, 9, 10, 11, 12, 13, 14, 15, 16, 17
 18, 19, 20, 21, 22, 23, 24, 25, 26, 27, 658, 659, 660, 661, 662, 663
 664, 665, 666, 667, 668, 669, 670, 671, 672, 673, 674, 675, 676, 677, 678, 679
 680
*Nset, nset=top_nodes, instance=PlateInstance
 1, 53, 54, 55, 56, 57, 58, 59, 60, 61, 62, 63, 64, 65, 66, 67
 68, 69, 70, 71, 72, 73, 74, 75, 76, 77, 78, 79, 700, 701, 702, 703
 704, 705, 706, 707, 708, 709, 710, 711, 712, 713, 714, 715, 716, 717, 718, 719
 720, 721, 722, 723, 724
*Elset, elset=UMATELEM, instance=PlateInstance
 UMATELEM
*Elset, elset=All_elem, instance=PlateInstance
 UMATELEM
** Constraint: Mode-II Pure Shear top_nodes -> RP
*Equation
 2
 top_nodes, 1, 1.
 RP, 1, -1.
*End Assembly
** ==========================================================
** MATERIALS (Passive Facsimile Visualization Material)
** ==========================================================
*Material, name=MAT_QUAD_FACSIMILE
*Depvar
 18
*User Material, constants=4
 1.000000e-11, 3.000000e-01, 2206.0, 4.0
*Material, name=MAT_TRI_FACSIMILE
*Depvar
 18
*User Material, constants=4
 1.000000e-11, 3.000000e-01, 2206.0, 3.0
** ==========================================================
** BOUNDARY CONDITIONS (Pure Shear Baseline)
** ==========================================================
*Boundary
 bottom_nodes, 1, 2
*Boundary
 top_nodes, 2, 2
** ==========================================================
** AMPLITUDES (Full Fracture Two-Step Ramp)
** ==========================================================
*Amplitude, name=Amp-1
 0.0, 0.0, 0.5, 0.005
*Amplitude, name=Amp-2
 0.0, 0.005, 0.2, 0.010
** ----------------------------------------------------------
** STEP: Step-1 (Pre-cracking shear to 0.0050 mm)
** ----------------------------------------------------------
*Step, name=Step-1, nlgeom=NO, inc=500
*Static, direct
 0.001, 0.5,
*Boundary, amplitude=Amp-1
 RP, 1, 1, 1.0
*Restart, write, frequency=0
*Output, field, time interval=0.01
*Node Output
 U, RF
*Node Output, nset=RP
 RF, U
*Element Output, elset=UMATELEM
 SDV, S, EVOL
*Output, history, variable=PRESELECT
*Energy Output
 ALLAE, ALLCD, ALLIE, ALLKE, ALLPD, ALLSE, ALLWK, ETOTAL
*End Step
** ----------------------------------------------------------
** STEP: Step-2 (Full fracture shear to 0.0100 mm)
** ----------------------------------------------------------
*Step, name=Step-2, nlgeom=NO, inc=2000
*Static, direct
 0.0001, 0.2,
*Boundary, amplitude=Amp-2
 RP, 1, 1, 1.0
*Restart, write, frequency=0
*Output, field, time interval=0.01
*Node Output
 U, RF
*Node Output, nset=RP
 RF, U
*Element Output, elset=UMATELEM
 SDV, S, EVOL
*Output, history, variable=PRESELECT
*Energy Output
 ALLAE, ALLCD, ALLIE, ALLKE, ALLPD, ALLSE, ALLWK, ETOTAL
*End Step
