*HEADING
Tiny 4-Element Non-Production Qualification Deck for Transactional UEL
*USER ELEMENT, TYPE=U1, NODES=4, COORDINATES=2, I PROPERTIES=0, PROPERTIES=6, VARIABLES=16, UNSYMM
3
*USER ELEMENT, TYPE=U2, NODES=4, COORDINATES=2, I PROPERTIES=0, PROPERTIES=6, VARIABLES=16, UNSYMM
1, 2
*NODE
1, 0.0, 0.0
2, 1.0, 0.0
3, 2.0, 0.0
4, 0.0, 1.0
5, 1.0, 1.0
6, 2.0, 1.0
7, 0.0, 2.0
8, 1.0, 2.0
9, 2.0, 2.0
*ELEMENT, TYPE=U1, ELSET=E_PHASE
1, 1, 2, 5, 4
2, 2, 3, 6, 5
3, 4, 5, 8, 7
4, 5, 6, 9, 8
*ELEMENT, TYPE=U2, ELSET=E_MECH
5, 1, 2, 5, 4
6, 2, 3, 6, 5
7, 4, 5, 8, 7
8, 5, 6, 9, 8
*UEL PROPERTY, ELSET=E_PHASE
0.015, 0.0027, 210.0, 0.3, 1.0e-7, 4.0
*UEL PROPERTY, ELSET=E_MECH
0.015, 0.0027, 210.0, 0.3, 1.0e-7, 4.0
*NSET, NSET=N_BOTTOM
1, 2, 3
*NSET, NSET=N_TOP
7, 8, 9
*STEP, NAME=Step-1, INC=100
*STATIC
0.1, 1.0, 1.0e-5, 0.5
*BOUNDARY
N_BOTTOM, 1, 2, 0.0
N_TOP, 2, 2, 0.01
N_TOP, 1, 1, 0.005
*OUTPUT, FIELD, FREQ=1
*NODE OUTPUT
U, RF
*END STEP
