*Heading
 M2ADAPT_REAL_PILOT_CYCLE_013_RESTART: 4-Stage Adaptive Remeshing Restart (REAL_PILOT_CYCLE_013)
** Handoff Displacement U1 = 0.04051289 mm -> Target Displacement U1 = 0.04301289 mm
** Physical elements = 5112 (Quads: 5112, Tris: 0), Physical nodes = 5288
** Total Layered elements = 15336
** Sequence: STATE_INSTALL -> MECH_EQUILIBRATION -> PHASE_RELEASE (IA=20, dt_min=1e-14) -> CONTINUATION
** UEL Mode: PROPS(7) = 1.0 (Staged Transfer Restart)
*Preprint, echo=NO, model=NO, history=NO, contact=NO
**
*User Element, nodes=4, type=U1, properties=7, coordinates=2, VARIABLES=18, UNSYMM
 3
*User Element, nodes=4, type=U2, properties=7, coordinates=2, VARIABLES=18, UNSYMM
 1, 2
*Node
       1,  -5.0000000000e-01,  -5.0000000000e-01
       2,  -4.7597656250e-01,  -5.0000000000e-01
       3,  -4.5195312500e-01,  -5.0000000000e-01
       4,  -4.2792968750e-01,  -5.0000000000e-01
       5,  -4.0390625000e-01,  -5.0000000000e-01
       6,  -3.7988281250e-01,  -5.0000000000e-01
       7,  -3.5585937500e-01,  -5.0000000000e-01
       8,  -3.3183593750e-01,  -5.0000000000e-01
       9,  -3.0781250000e-01,  -5.0000000000e-01
      10,  -2.8378906250e-01,  -5.0000000000e-01
      11,  -2.5976562500e-01,  -5.0000000000e-01
      12,  -2.3574218750e-01,  -5.0000000000e-01
      13,  -2.1171875000e-01,  -5.0000000000e-01
      14,  -1.8769531250e-01,  -5.0000000000e-01
      15,  -1.6367187500e-01,  -5.0000000000e-01
      16,  -1.3964843750e-01,  -5.0000000000e-01
      17,  -1.1562500000e-01,  -5.0000000000e-01
      18,  -9.0625000000e-02,  -5.0000000000e-01
      19,  -7.3750000000e-02,  -5.0000000000e-01
      20,  -6.2500000000e-02,  -5.0000000000e-01
      21,  -5.5000000000e-02,  -5.0000000000e-01
      22,  -5.0000000000e-02,  -5.0000000000e-01
      23,  -4.5000000000e-02,  -5.0000000000e-01
      24,  -4.0000000000e-02,  -5.0000000000e-01
      25,  -3.5000000000e-02,  -5.0000000000e-01
      26,  -3.0000000000e-02,  -5.0000000000e-01
      27,  -2.5000000000e-02,  -5.0000000000e-01
      28,  -2.0000000000e-02,  -5.0000000000e-01
      29,  -1.5000000000e-02,  -5.0000000000e-01
      30,  -1.0000000000e-02,  -5.0000000000e-01
      31,  -5.0000000000e-03,  -5.0000000000e-01
      32,   0.0000000000e+00,  -5.0000000000e-01
      33,   5.0000000000e-03,  -5.0000000000e-01
      34,   1.0000000000e-02,  -5.0000000000e-01
      35,   1.5000000000e-02,  -5.0000000000e-01
      36,   2.0000000000e-02,  -5.0000000000e-01
      37,   2.5000000000e-02,  -5.0000000000e-01
      38,   3.0000000000e-02,  -5.0000000000e-01
      39,   3.5000000000e-02,  -5.0000000000e-01
      40,   4.0000000000e-02,  -5.0000000000e-01
      41,   4.5000000000e-02,  -5.0000000000e-01
      42,   5.0000000000e-02,  -5.0000000000e-01
      43,   5.5000000000e-02,  -5.0000000000e-01
      44,   6.0000000000e-02,  -5.0000000000e-01
      45,   6.5000000000e-02,  -5.0000000000e-01
      46,   7.0000000000e-02,  -5.0000000000e-01
      47,   7.5000000000e-02,  -5.0000000000e-01
      48,   8.0000000000e-02,  -5.0000000000e-01
      49,   8.5000000000e-02,  -5.0000000000e-01
      50,   9.0000000000e-02,  -5.0000000000e-01
      51,   9.5000000000e-02,  -5.0000000000e-01
      52,   1.0000000000e-01,  -5.0000000000e-01
      53,   1.0500000000e-01,  -5.0000000000e-01
      54,   1.1000000000e-01,  -5.0000000000e-01
      55,   1.1500000000e-01,  -5.0000000000e-01
      56,   1.2250000000e-01,  -5.0000000000e-01
      57,   1.3375000000e-01,  -5.0000000000e-01
      58,   1.5062500000e-01,  -5.0000000000e-01
      59,   1.7562500000e-01,  -5.0000000000e-01
      60,   2.0057692310e-01,  -5.0000000000e-01
      61,   2.2552884620e-01,  -5.0000000000e-01
      62,   2.5048076930e-01,  -5.0000000000e-01
      63,   2.7543269240e-01,  -5.0000000000e-01
      64,   3.0038461550e-01,  -5.0000000000e-01
      65,   3.2533653860e-01,  -5.0000000000e-01
      66,   3.5028846170e-01,  -5.0000000000e-01
      67,   3.7524038480e-01,  -5.0000000000e-01
      68,   4.0019230790e-01,  -5.0000000000e-01
      69,   4.2514423100e-01,  -5.0000000000e-01
      70,   4.5009615410e-01,  -5.0000000000e-01
      71,   4.7504807720e-01,  -5.0000000000e-01
      72,   5.0000000000e-01,  -5.0000000000e-01
      73,  -5.0000000000e-01,  -4.7579605270e-01
      74,  -4.7597656250e-01,  -4.7579605270e-01
      75,  -4.5195312500e-01,  -4.7579605270e-01
      76,  -4.2792968750e-01,  -4.7579605270e-01
      77,  -4.0390625000e-01,  -4.7579605270e-01
      78,  -3.7988281250e-01,  -4.7579605270e-01
      79,  -3.5585937500e-01,  -4.7579605270e-01
      80,  -3.3183593750e-01,  -4.7579605270e-01
      81,  -3.0781250000e-01,  -4.7579605270e-01
      82,  -2.8378906250e-01,  -4.7579605270e-01
      83,  -2.5976562500e-01,  -4.7579605270e-01
      84,  -2.3574218750e-01,  -4.7579605270e-01
      85,  -2.1171875000e-01,  -4.7579605270e-01
      86,  -1.8769531250e-01,  -4.7579605270e-01
      87,  -1.6367187500e-01,  -4.7579605270e-01
      88,  -1.3964843750e-01,  -4.7579605270e-01
      89,  -1.1562500000e-01,  -4.7579605270e-01
      90,  -9.0625000000e-02,  -4.7579605270e-01
      91,  -7.3750000000e-02,  -4.7579605270e-01
      92,  -6.2500000000e-02,  -4.7579605270e-01
      93,  -5.5000000000e-02,  -4.7579605270e-01
      94,  -5.0000000000e-02,  -4.7579605270e-01
      95,  -4.5000000000e-02,  -4.7579605270e-01
      96,  -4.0000000000e-02,  -4.7579605270e-01
      97,  -3.5000000000e-02,  -4.7579605270e-01
      98,  -3.0000000000e-02,  -4.7579605270e-01
      99,  -2.5000000000e-02,  -4.7579605270e-01
     100,  -2.0000000000e-02,  -4.7579605270e-01
     101,  -1.5000000000e-02,  -4.7579605270e-01
     102,  -1.0000000000e-02,  -4.7579605270e-01
     103,  -5.0000000000e-03,  -4.7579605270e-01
     104,   0.0000000000e+00,  -4.7579605270e-01
     105,   5.0000000000e-03,  -4.7579605270e-01
     106,   1.0000000000e-02,  -4.7579605270e-01
     107,   1.5000000000e-02,  -4.7579605270e-01
     108,   2.0000000000e-02,  -4.7579605270e-01
     109,   2.5000000000e-02,  -4.7579605270e-01
     110,   3.0000000000e-02,  -4.7579605270e-01
     111,   3.5000000000e-02,  -4.7579605270e-01
     112,   4.0000000000e-02,  -4.7579605270e-01
     113,   4.5000000000e-02,  -4.7579605270e-01
     114,   5.0000000000e-02,  -4.7579605270e-01
     115,   5.5000000000e-02,  -4.7579605270e-01
     116,   6.0000000000e-02,  -4.7579605270e-01
     117,   6.5000000000e-02,  -4.7579605270e-01
     118,   7.0000000000e-02,  -4.7579605270e-01
     119,   7.5000000000e-02,  -4.7579605270e-01
     120,   8.0000000000e-02,  -4.7579605270e-01
     121,   8.5000000000e-02,  -4.7579605270e-01
     122,   9.0000000000e-02,  -4.7579605270e-01
     123,   9.5000000000e-02,  -4.7579605270e-01
     124,   1.0000000000e-01,  -4.7579605270e-01
     125,   1.0500000000e-01,  -4.7579605270e-01
     126,   1.1000000000e-01,  -4.7579605270e-01
     127,   1.1500000000e-01,  -4.7579605270e-01
     128,   1.2250000000e-01,  -4.7579605270e-01
     129,   1.3375000000e-01,  -4.7579605270e-01
     130,   1.5062500000e-01,  -4.7579605270e-01
     131,   1.7562500000e-01,  -4.7579605270e-01
     132,   2.0057692310e-01,  -4.7579605270e-01
     133,   2.2552884620e-01,  -4.7579605270e-01
     134,   2.5048076930e-01,  -4.7579605270e-01
     135,   2.7543269240e-01,  -4.7579605270e-01
     136,   3.0038461550e-01,  -4.7579605270e-01
     137,   3.2533653860e-01,  -4.7579605270e-01
     138,   3.5028846170e-01,  -4.7579605270e-01
     139,   3.7524038480e-01,  -4.7579605270e-01
     140,   4.0019230790e-01,  -4.7579605270e-01
     141,   4.2514423100e-01,  -4.7579605270e-01
     142,   4.5009615410e-01,  -4.7579605270e-01
     143,   4.7504807720e-01,  -4.7579605270e-01
     144,   5.0000000000e-01,  -4.7579605270e-01
     145,  -5.0000000000e-01,  -4.5159210540e-01
     146,  -4.7597656250e-01,  -4.5159210540e-01
     147,  -4.5195312500e-01,  -4.5159210540e-01
     148,  -4.2792968750e-01,  -4.5159210540e-01
     149,  -4.0390625000e-01,  -4.5159210540e-01
     150,  -3.7988281250e-01,  -4.5159210540e-01
     151,  -3.5585937500e-01,  -4.5159210540e-01
     152,  -3.3183593750e-01,  -4.5159210540e-01
     153,  -3.0781250000e-01,  -4.5159210540e-01
     154,  -2.8378906250e-01,  -4.5159210540e-01
     155,  -2.5976562500e-01,  -4.5159210540e-01
     156,  -2.3574218750e-01,  -4.5159210540e-01
     157,  -2.1171875000e-01,  -4.5159210540e-01
     158,  -1.8769531250e-01,  -4.5159210540e-01
     159,  -1.6367187500e-01,  -4.5159210540e-01
     160,  -1.3964843750e-01,  -4.5159210540e-01
     161,  -1.1562500000e-01,  -4.5159210540e-01
     162,  -9.0625000000e-02,  -4.5159210540e-01
     163,  -7.3750000000e-02,  -4.5159210540e-01
     164,  -6.2500000000e-02,  -4.5159210540e-01
     165,  -5.5000000000e-02,  -4.5159210540e-01
     166,  -5.0000000000e-02,  -4.5159210540e-01
     167,  -4.5000000000e-02,  -4.5159210540e-01
     168,  -4.0000000000e-02,  -4.5159210540e-01
     169,  -3.5000000000e-02,  -4.5159210540e-01
     170,  -3.0000000000e-02,  -4.5159210540e-01
     171,  -2.5000000000e-02,  -4.5159210540e-01
     172,  -2.0000000000e-02,  -4.5159210540e-01
     173,  -1.5000000000e-02,  -4.5159210540e-01
     174,  -1.0000000000e-02,  -4.5159210540e-01
     175,  -5.0000000000e-03,  -4.5159210540e-01
     176,   0.0000000000e+00,  -4.5159210540e-01
     177,   5.0000000000e-03,  -4.5159210540e-01
     178,   1.0000000000e-02,  -4.5159210540e-01
     179,   1.5000000000e-02,  -4.5159210540e-01
     180,   2.0000000000e-02,  -4.5159210540e-01
     181,   2.5000000000e-02,  -4.5159210540e-01
     182,   3.0000000000e-02,  -4.5159210540e-01
     183,   3.5000000000e-02,  -4.5159210540e-01
     184,   4.0000000000e-02,  -4.5159210540e-01
     185,   4.5000000000e-02,  -4.5159210540e-01
     186,   5.0000000000e-02,  -4.5159210540e-01
     187,   5.5000000000e-02,  -4.5159210540e-01
     188,   6.0000000000e-02,  -4.5159210540e-01
     189,   6.5000000000e-02,  -4.5159210540e-01
     190,   7.0000000000e-02,  -4.5159210540e-01
     191,   7.5000000000e-02,  -4.5159210540e-01
     192,   8.0000000000e-02,  -4.5159210540e-01
     193,   8.5000000000e-02,  -4.5159210540e-01
     194,   9.0000000000e-02,  -4.5159210540e-01
     195,   9.5000000000e-02,  -4.5159210540e-01
     196,   1.0000000000e-01,  -4.5159210540e-01
     197,   1.0500000000e-01,  -4.5159210540e-01
     198,   1.1000000000e-01,  -4.5159210540e-01
     199,   1.1500000000e-01,  -4.5159210540e-01
     200,   1.2250000000e-01,  -4.5159210540e-01
     201,   1.3375000000e-01,  -4.5159210540e-01
     202,   1.5062500000e-01,  -4.5159210540e-01
     203,   1.7562500000e-01,  -4.5159210540e-01
     204,   2.0057692310e-01,  -4.5159210540e-01
     205,   2.2552884620e-01,  -4.5159210540e-01
     206,   2.5048076930e-01,  -4.5159210540e-01
     207,   2.7543269240e-01,  -4.5159210540e-01
     208,   3.0038461550e-01,  -4.5159210540e-01
     209,   3.2533653860e-01,  -4.5159210540e-01
     210,   3.5028846170e-01,  -4.5159210540e-01
     211,   3.7524038480e-01,  -4.5159210540e-01
     212,   4.0019230790e-01,  -4.5159210540e-01
     213,   4.2514423100e-01,  -4.5159210540e-01
     214,   4.5009615410e-01,  -4.5159210540e-01
     215,   4.7504807720e-01,  -4.5159210540e-01
     216,   5.0000000000e-01,  -4.5159210540e-01
     217,  -5.0000000000e-01,  -4.2738815810e-01
     218,  -4.7597656250e-01,  -4.2738815810e-01
     219,  -4.5195312500e-01,  -4.2738815810e-01
     220,  -4.2792968750e-01,  -4.2738815810e-01
     221,  -4.0390625000e-01,  -4.2738815810e-01
     222,  -3.7988281250e-01,  -4.2738815810e-01
     223,  -3.5585937500e-01,  -4.2738815810e-01
     224,  -3.3183593750e-01,  -4.2738815810e-01
     225,  -3.0781250000e-01,  -4.2738815810e-01
     226,  -2.8378906250e-01,  -4.2738815810e-01
     227,  -2.5976562500e-01,  -4.2738815810e-01
     228,  -2.3574218750e-01,  -4.2738815810e-01
     229,  -2.1171875000e-01,  -4.2738815810e-01
     230,  -1.8769531250e-01,  -4.2738815810e-01
     231,  -1.6367187500e-01,  -4.2738815810e-01
     232,  -1.3964843750e-01,  -4.2738815810e-01
     233,  -1.1562500000e-01,  -4.2738815810e-01
     234,  -9.0625000000e-02,  -4.2738815810e-01
     235,  -7.3750000000e-02,  -4.2738815810e-01
     236,  -6.2500000000e-02,  -4.2738815810e-01
     237,  -5.5000000000e-02,  -4.2738815810e-01
     238,  -5.0000000000e-02,  -4.2738815810e-01
     239,  -4.5000000000e-02,  -4.2738815810e-01
     240,  -4.0000000000e-02,  -4.2738815810e-01
     241,  -3.5000000000e-02,  -4.2738815810e-01
     242,  -3.0000000000e-02,  -4.2738815810e-01
     243,  -2.5000000000e-02,  -4.2738815810e-01
     244,  -2.0000000000e-02,  -4.2738815810e-01
     245,  -1.5000000000e-02,  -4.2738815810e-01
     246,  -1.0000000000e-02,  -4.2738815810e-01
     247,  -5.0000000000e-03,  -4.2738815810e-01
     248,   0.0000000000e+00,  -4.2738815810e-01
     249,   5.0000000000e-03,  -4.2738815810e-01
     250,   1.0000000000e-02,  -4.2738815810e-01
     251,   1.5000000000e-02,  -4.2738815810e-01
     252,   2.0000000000e-02,  -4.2738815810e-01
     253,   2.5000000000e-02,  -4.2738815810e-01
     254,   3.0000000000e-02,  -4.2738815810e-01
     255,   3.5000000000e-02,  -4.2738815810e-01
     256,   4.0000000000e-02,  -4.2738815810e-01
     257,   4.5000000000e-02,  -4.2738815810e-01
     258,   5.0000000000e-02,  -4.2738815810e-01
     259,   5.5000000000e-02,  -4.2738815810e-01
     260,   6.0000000000e-02,  -4.2738815810e-01
     261,   6.5000000000e-02,  -4.2738815810e-01
     262,   7.0000000000e-02,  -4.2738815810e-01
     263,   7.5000000000e-02,  -4.2738815810e-01
     264,   8.0000000000e-02,  -4.2738815810e-01
     265,   8.5000000000e-02,  -4.2738815810e-01
     266,   9.0000000000e-02,  -4.2738815810e-01
     267,   9.5000000000e-02,  -4.2738815810e-01
     268,   1.0000000000e-01,  -4.2738815810e-01
     269,   1.0500000000e-01,  -4.2738815810e-01
     270,   1.1000000000e-01,  -4.2738815810e-01
     271,   1.1500000000e-01,  -4.2738815810e-01
     272,   1.2250000000e-01,  -4.2738815810e-01
     273,   1.3375000000e-01,  -4.2738815810e-01
     274,   1.5062500000e-01,  -4.2738815810e-01
     275,   1.7562500000e-01,  -4.2738815810e-01
     276,   2.0057692310e-01,  -4.2738815810e-01
     277,   2.2552884620e-01,  -4.2738815810e-01
     278,   2.5048076930e-01,  -4.2738815810e-01
     279,   2.7543269240e-01,  -4.2738815810e-01
     280,   3.0038461550e-01,  -4.2738815810e-01
     281,   3.2533653860e-01,  -4.2738815810e-01
     282,   3.5028846170e-01,  -4.2738815810e-01
     283,   3.7524038480e-01,  -4.2738815810e-01
     284,   4.0019230790e-01,  -4.2738815810e-01
     285,   4.2514423100e-01,  -4.2738815810e-01
     286,   4.5009615410e-01,  -4.2738815810e-01
     287,   4.7504807720e-01,  -4.2738815810e-01
     288,   5.0000000000e-01,  -4.2738815810e-01
     289,  -5.0000000000e-01,  -4.0318421080e-01
     290,  -4.7597656250e-01,  -4.0318421080e-01
     291,  -4.5195312500e-01,  -4.0318421080e-01
     292,  -4.2792968750e-01,  -4.0318421080e-01
     293,  -4.0390625000e-01,  -4.0318421080e-01
     294,  -3.7988281250e-01,  -4.0318421080e-01
     295,  -3.5585937500e-01,  -4.0318421080e-01
     296,  -3.3183593750e-01,  -4.0318421080e-01
     297,  -3.0781250000e-01,  -4.0318421080e-01
     298,  -2.8378906250e-01,  -4.0318421080e-01
     299,  -2.5976562500e-01,  -4.0318421080e-01
     300,  -2.3574218750e-01,  -4.0318421080e-01
     301,  -2.1171875000e-01,  -4.0318421080e-01
     302,  -1.8769531250e-01,  -4.0318421080e-01
     303,  -1.6367187500e-01,  -4.0318421080e-01
     304,  -1.3964843750e-01,  -4.0318421080e-01
     305,  -1.1562500000e-01,  -4.0318421080e-01
     306,  -9.0625000000e-02,  -4.0318421080e-01
     307,  -7.3750000000e-02,  -4.0318421080e-01
     308,  -6.2500000000e-02,  -4.0318421080e-01
     309,  -5.5000000000e-02,  -4.0318421080e-01
     310,  -5.0000000000e-02,  -4.0318421080e-01
     311,  -4.5000000000e-02,  -4.0318421080e-01
     312,  -4.0000000000e-02,  -4.0318421080e-01
     313,  -3.5000000000e-02,  -4.0318421080e-01
     314,  -3.0000000000e-02,  -4.0318421080e-01
     315,  -2.5000000000e-02,  -4.0318421080e-01
     316,  -2.0000000000e-02,  -4.0318421080e-01
     317,  -1.5000000000e-02,  -4.0318421080e-01
     318,  -1.0000000000e-02,  -4.0318421080e-01
     319,  -5.0000000000e-03,  -4.0318421080e-01
     320,   0.0000000000e+00,  -4.0318421080e-01
     321,   5.0000000000e-03,  -4.0318421080e-01
     322,   1.0000000000e-02,  -4.0318421080e-01
     323,   1.5000000000e-02,  -4.0318421080e-01
     324,   2.0000000000e-02,  -4.0318421080e-01
     325,   2.5000000000e-02,  -4.0318421080e-01
     326,   3.0000000000e-02,  -4.0318421080e-01
     327,   3.5000000000e-02,  -4.0318421080e-01
     328,   4.0000000000e-02,  -4.0318421080e-01
     329,   4.5000000000e-02,  -4.0318421080e-01
     330,   5.0000000000e-02,  -4.0318421080e-01
     331,   5.5000000000e-02,  -4.0318421080e-01
     332,   6.0000000000e-02,  -4.0318421080e-01
     333,   6.5000000000e-02,  -4.0318421080e-01
     334,   7.0000000000e-02,  -4.0318421080e-01
     335,   7.5000000000e-02,  -4.0318421080e-01
     336,   8.0000000000e-02,  -4.0318421080e-01
     337,   8.5000000000e-02,  -4.0318421080e-01
     338,   9.0000000000e-02,  -4.0318421080e-01
     339,   9.5000000000e-02,  -4.0318421080e-01
     340,   1.0000000000e-01,  -4.0318421080e-01
     341,   1.0500000000e-01,  -4.0318421080e-01
     342,   1.1000000000e-01,  -4.0318421080e-01
     343,   1.1500000000e-01,  -4.0318421080e-01
     344,   1.2250000000e-01,  -4.0318421080e-01
     345,   1.3375000000e-01,  -4.0318421080e-01
     346,   1.5062500000e-01,  -4.0318421080e-01
     347,   1.7562500000e-01,  -4.0318421080e-01
     348,   2.0057692310e-01,  -4.0318421080e-01
     349,   2.2552884620e-01,  -4.0318421080e-01
     350,   2.5048076930e-01,  -4.0318421080e-01
     351,   2.7543269240e-01,  -4.0318421080e-01
     352,   3.0038461550e-01,  -4.0318421080e-01
     353,   3.2533653860e-01,  -4.0318421080e-01
     354,   3.5028846170e-01,  -4.0318421080e-01
     355,   3.7524038480e-01,  -4.0318421080e-01
     356,   4.0019230790e-01,  -4.0318421080e-01
     357,   4.2514423100e-01,  -4.0318421080e-01
     358,   4.5009615410e-01,  -4.0318421080e-01
     359,   4.7504807720e-01,  -4.0318421080e-01
     360,   5.0000000000e-01,  -4.0318421080e-01
     361,  -5.0000000000e-01,  -3.7898026350e-01
     362,  -4.7597656250e-01,  -3.7898026350e-01
     363,  -4.5195312500e-01,  -3.7898026350e-01
     364,  -4.2792968750e-01,  -3.7898026350e-01
     365,  -4.0390625000e-01,  -3.7898026350e-01
     366,  -3.7988281250e-01,  -3.7898026350e-01
     367,  -3.5585937500e-01,  -3.7898026350e-01
     368,  -3.3183593750e-01,  -3.7898026350e-01
     369,  -3.0781250000e-01,  -3.7898026350e-01
     370,  -2.8378906250e-01,  -3.7898026350e-01
     371,  -2.5976562500e-01,  -3.7898026350e-01
     372,  -2.3574218750e-01,  -3.7898026350e-01
     373,  -2.1171875000e-01,  -3.7898026350e-01
     374,  -1.8769531250e-01,  -3.7898026350e-01
     375,  -1.6367187500e-01,  -3.7898026350e-01
     376,  -1.3964843750e-01,  -3.7898026350e-01
     377,  -1.1562500000e-01,  -3.7898026350e-01
     378,  -9.0625000000e-02,  -3.7898026350e-01
     379,  -7.3750000000e-02,  -3.7898026350e-01
     380,  -6.2500000000e-02,  -3.7898026350e-01
     381,  -5.5000000000e-02,  -3.7898026350e-01
     382,  -5.0000000000e-02,  -3.7898026350e-01
     383,  -4.5000000000e-02,  -3.7898026350e-01
     384,  -4.0000000000e-02,  -3.7898026350e-01
     385,  -3.5000000000e-02,  -3.7898026350e-01
     386,  -3.0000000000e-02,  -3.7898026350e-01
     387,  -2.5000000000e-02,  -3.7898026350e-01
     388,  -2.0000000000e-02,  -3.7898026350e-01
     389,  -1.5000000000e-02,  -3.7898026350e-01
     390,  -1.0000000000e-02,  -3.7898026350e-01
     391,  -5.0000000000e-03,  -3.7898026350e-01
     392,   0.0000000000e+00,  -3.7898026350e-01
     393,   5.0000000000e-03,  -3.7898026350e-01
     394,   1.0000000000e-02,  -3.7898026350e-01
     395,   1.5000000000e-02,  -3.7898026350e-01
     396,   2.0000000000e-02,  -3.7898026350e-01
     397,   2.5000000000e-02,  -3.7898026350e-01
     398,   3.0000000000e-02,  -3.7898026350e-01
     399,   3.5000000000e-02,  -3.7898026350e-01
     400,   4.0000000000e-02,  -3.7898026350e-01
     401,   4.5000000000e-02,  -3.7898026350e-01
     402,   5.0000000000e-02,  -3.7898026350e-01
     403,   5.5000000000e-02,  -3.7898026350e-01
     404,   6.0000000000e-02,  -3.7898026350e-01
     405,   6.5000000000e-02,  -3.7898026350e-01
     406,   7.0000000000e-02,  -3.7898026350e-01
     407,   7.5000000000e-02,  -3.7898026350e-01
     408,   8.0000000000e-02,  -3.7898026350e-01
     409,   8.5000000000e-02,  -3.7898026350e-01
     410,   9.0000000000e-02,  -3.7898026350e-01
     411,   9.5000000000e-02,  -3.7898026350e-01
     412,   1.0000000000e-01,  -3.7898026350e-01
     413,   1.0500000000e-01,  -3.7898026350e-01
     414,   1.1000000000e-01,  -3.7898026350e-01
     415,   1.1500000000e-01,  -3.7898026350e-01
     416,   1.2250000000e-01,  -3.7898026350e-01
     417,   1.3375000000e-01,  -3.7898026350e-01
     418,   1.5062500000e-01,  -3.7898026350e-01
     419,   1.7562500000e-01,  -3.7898026350e-01
     420,   2.0057692310e-01,  -3.7898026350e-01
     421,   2.2552884620e-01,  -3.7898026350e-01
     422,   2.5048076930e-01,  -3.7898026350e-01
     423,   2.7543269240e-01,  -3.7898026350e-01
     424,   3.0038461550e-01,  -3.7898026350e-01
     425,   3.2533653860e-01,  -3.7898026350e-01
     426,   3.5028846170e-01,  -3.7898026350e-01
     427,   3.7524038480e-01,  -3.7898026350e-01
     428,   4.0019230790e-01,  -3.7898026350e-01
     429,   4.2514423100e-01,  -3.7898026350e-01
     430,   4.5009615410e-01,  -3.7898026350e-01
     431,   4.7504807720e-01,  -3.7898026350e-01
     432,   5.0000000000e-01,  -3.7898026350e-01
     433,  -5.0000000000e-01,  -3.5477631620e-01
     434,  -4.7597656250e-01,  -3.5477631620e-01
     435,  -4.5195312500e-01,  -3.5477631620e-01
     436,  -4.2792968750e-01,  -3.5477631620e-01
     437,  -4.0390625000e-01,  -3.5477631620e-01
     438,  -3.7988281250e-01,  -3.5477631620e-01
     439,  -3.5585937500e-01,  -3.5477631620e-01
     440,  -3.3183593750e-01,  -3.5477631620e-01
     441,  -3.0781250000e-01,  -3.5477631620e-01
     442,  -2.8378906250e-01,  -3.5477631620e-01
     443,  -2.5976562500e-01,  -3.5477631620e-01
     444,  -2.3574218750e-01,  -3.5477631620e-01
     445,  -2.1171875000e-01,  -3.5477631620e-01
     446,  -1.8769531250e-01,  -3.5477631620e-01
     447,  -1.6367187500e-01,  -3.5477631620e-01
     448,  -1.3964843750e-01,  -3.5477631620e-01
     449,  -1.1562500000e-01,  -3.5477631620e-01
     450,  -9.0625000000e-02,  -3.5477631620e-01
     451,  -7.3750000000e-02,  -3.5477631620e-01
     452,  -6.2500000000e-02,  -3.5477631620e-01
     453,  -5.5000000000e-02,  -3.5477631620e-01
     454,  -5.0000000000e-02,  -3.5477631620e-01
     455,  -4.5000000000e-02,  -3.5477631620e-01
     456,  -4.0000000000e-02,  -3.5477631620e-01
     457,  -3.5000000000e-02,  -3.5477631620e-01
     458,  -3.0000000000e-02,  -3.5477631620e-01
     459,  -2.5000000000e-02,  -3.5477631620e-01
     460,  -2.0000000000e-02,  -3.5477631620e-01
     461,  -1.5000000000e-02,  -3.5477631620e-01
     462,  -1.0000000000e-02,  -3.5477631620e-01
     463,  -5.0000000000e-03,  -3.5477631620e-01
     464,   0.0000000000e+00,  -3.5477631620e-01
     465,   5.0000000000e-03,  -3.5477631620e-01
     466,   1.0000000000e-02,  -3.5477631620e-01
     467,   1.5000000000e-02,  -3.5477631620e-01
     468,   2.0000000000e-02,  -3.5477631620e-01
     469,   2.5000000000e-02,  -3.5477631620e-01
     470,   3.0000000000e-02,  -3.5477631620e-01
     471,   3.5000000000e-02,  -3.5477631620e-01
     472,   4.0000000000e-02,  -3.5477631620e-01
     473,   4.5000000000e-02,  -3.5477631620e-01
     474,   5.0000000000e-02,  -3.5477631620e-01
     475,   5.5000000000e-02,  -3.5477631620e-01
     476,   6.0000000000e-02,  -3.5477631620e-01
     477,   6.5000000000e-02,  -3.5477631620e-01
     478,   7.0000000000e-02,  -3.5477631620e-01
     479,   7.5000000000e-02,  -3.5477631620e-01
     480,   8.0000000000e-02,  -3.5477631620e-01
     481,   8.5000000000e-02,  -3.5477631620e-01
     482,   9.0000000000e-02,  -3.5477631620e-01
     483,   9.5000000000e-02,  -3.5477631620e-01
     484,   1.0000000000e-01,  -3.5477631620e-01
     485,   1.0500000000e-01,  -3.5477631620e-01
     486,   1.1000000000e-01,  -3.5477631620e-01
     487,   1.1500000000e-01,  -3.5477631620e-01
     488,   1.2250000000e-01,  -3.5477631620e-01
     489,   1.3375000000e-01,  -3.5477631620e-01
     490,   1.5062500000e-01,  -3.5477631620e-01
     491,   1.7562500000e-01,  -3.5477631620e-01
     492,   2.0057692310e-01,  -3.5477631620e-01
     493,   2.2552884620e-01,  -3.5477631620e-01
     494,   2.5048076930e-01,  -3.5477631620e-01
     495,   2.7543269240e-01,  -3.5477631620e-01
     496,   3.0038461550e-01,  -3.5477631620e-01
     497,   3.2533653860e-01,  -3.5477631620e-01
     498,   3.5028846170e-01,  -3.5477631620e-01
     499,   3.7524038480e-01,  -3.5477631620e-01
     500,   4.0019230790e-01,  -3.5477631620e-01
     501,   4.2514423100e-01,  -3.5477631620e-01
     502,   4.5009615410e-01,  -3.5477631620e-01
     503,   4.7504807720e-01,  -3.5477631620e-01
     504,   5.0000000000e-01,  -3.5477631620e-01
     505,  -5.0000000000e-01,  -3.3057236890e-01
     506,  -4.7597656250e-01,  -3.3057236890e-01
     507,  -4.5195312500e-01,  -3.3057236890e-01
     508,  -4.2792968750e-01,  -3.3057236890e-01
     509,  -4.0390625000e-01,  -3.3057236890e-01
     510,  -3.7988281250e-01,  -3.3057236890e-01
     511,  -3.5585937500e-01,  -3.3057236890e-01
     512,  -3.3183593750e-01,  -3.3057236890e-01
     513,  -3.0781250000e-01,  -3.3057236890e-01
     514,  -2.8378906250e-01,  -3.3057236890e-01
     515,  -2.5976562500e-01,  -3.3057236890e-01
     516,  -2.3574218750e-01,  -3.3057236890e-01
     517,  -2.1171875000e-01,  -3.3057236890e-01
     518,  -1.8769531250e-01,  -3.3057236890e-01
     519,  -1.6367187500e-01,  -3.3057236890e-01
     520,  -1.3964843750e-01,  -3.3057236890e-01
     521,  -1.1562500000e-01,  -3.3057236890e-01
     522,  -9.0625000000e-02,  -3.3057236890e-01
     523,  -7.3750000000e-02,  -3.3057236890e-01
     524,  -6.2500000000e-02,  -3.3057236890e-01
     525,  -5.5000000000e-02,  -3.3057236890e-01
     526,  -5.0000000000e-02,  -3.3057236890e-01
     527,  -4.5000000000e-02,  -3.3057236890e-01
     528,  -4.0000000000e-02,  -3.3057236890e-01
     529,  -3.5000000000e-02,  -3.3057236890e-01
     530,  -3.0000000000e-02,  -3.3057236890e-01
     531,  -2.5000000000e-02,  -3.3057236890e-01
     532,  -2.0000000000e-02,  -3.3057236890e-01
     533,  -1.5000000000e-02,  -3.3057236890e-01
     534,  -1.0000000000e-02,  -3.3057236890e-01
     535,  -5.0000000000e-03,  -3.3057236890e-01
     536,   0.0000000000e+00,  -3.3057236890e-01
     537,   5.0000000000e-03,  -3.3057236890e-01
     538,   1.0000000000e-02,  -3.3057236890e-01
     539,   1.5000000000e-02,  -3.3057236890e-01
     540,   2.0000000000e-02,  -3.3057236890e-01
     541,   2.5000000000e-02,  -3.3057236890e-01
     542,   3.0000000000e-02,  -3.3057236890e-01
     543,   3.5000000000e-02,  -3.3057236890e-01
     544,   4.0000000000e-02,  -3.3057236890e-01
     545,   4.5000000000e-02,  -3.3057236890e-01
     546,   5.0000000000e-02,  -3.3057236890e-01
     547,   5.5000000000e-02,  -3.3057236890e-01
     548,   6.0000000000e-02,  -3.3057236890e-01
     549,   6.5000000000e-02,  -3.3057236890e-01
     550,   7.0000000000e-02,  -3.3057236890e-01
     551,   7.5000000000e-02,  -3.3057236890e-01
     552,   8.0000000000e-02,  -3.3057236890e-01
     553,   8.5000000000e-02,  -3.3057236890e-01
     554,   9.0000000000e-02,  -3.3057236890e-01
     555,   9.5000000000e-02,  -3.3057236890e-01
     556,   1.0000000000e-01,  -3.3057236890e-01
     557,   1.0500000000e-01,  -3.3057236890e-01
     558,   1.1000000000e-01,  -3.3057236890e-01
     559,   1.1500000000e-01,  -3.3057236890e-01
     560,   1.2250000000e-01,  -3.3057236890e-01
     561,   1.3375000000e-01,  -3.3057236890e-01
     562,   1.5062500000e-01,  -3.3057236890e-01
     563,   1.7562500000e-01,  -3.3057236890e-01
     564,   2.0057692310e-01,  -3.3057236890e-01
     565,   2.2552884620e-01,  -3.3057236890e-01
     566,   2.5048076930e-01,  -3.3057236890e-01
     567,   2.7543269240e-01,  -3.3057236890e-01
     568,   3.0038461550e-01,  -3.3057236890e-01
     569,   3.2533653860e-01,  -3.3057236890e-01
     570,   3.5028846170e-01,  -3.3057236890e-01
     571,   3.7524038480e-01,  -3.3057236890e-01
     572,   4.0019230790e-01,  -3.3057236890e-01
     573,   4.2514423100e-01,  -3.3057236890e-01
     574,   4.5009615410e-01,  -3.3057236890e-01
     575,   4.7504807720e-01,  -3.3057236890e-01
     576,   5.0000000000e-01,  -3.3057236890e-01
     577,  -5.0000000000e-01,  -3.0636842160e-01
     578,  -4.7597656250e-01,  -3.0636842160e-01
     579,  -4.5195312500e-01,  -3.0636842160e-01
     580,  -4.2792968750e-01,  -3.0636842160e-01
     581,  -4.0390625000e-01,  -3.0636842160e-01
     582,  -3.7988281250e-01,  -3.0636842160e-01
     583,  -3.5585937500e-01,  -3.0636842160e-01
     584,  -3.3183593750e-01,  -3.0636842160e-01
     585,  -3.0781250000e-01,  -3.0636842160e-01
     586,  -2.8378906250e-01,  -3.0636842160e-01
     587,  -2.5976562500e-01,  -3.0636842160e-01
     588,  -2.3574218750e-01,  -3.0636842160e-01
     589,  -2.1171875000e-01,  -3.0636842160e-01
     590,  -1.8769531250e-01,  -3.0636842160e-01
     591,  -1.6367187500e-01,  -3.0636842160e-01
     592,  -1.3964843750e-01,  -3.0636842160e-01
     593,  -1.1562500000e-01,  -3.0636842160e-01
     594,  -9.0625000000e-02,  -3.0636842160e-01
     595,  -7.3750000000e-02,  -3.0636842160e-01
     596,  -6.2500000000e-02,  -3.0636842160e-01
     597,  -5.5000000000e-02,  -3.0636842160e-01
     598,  -5.0000000000e-02,  -3.0636842160e-01
     599,  -4.5000000000e-02,  -3.0636842160e-01
     600,  -4.0000000000e-02,  -3.0636842160e-01
     601,  -3.5000000000e-02,  -3.0636842160e-01
     602,  -3.0000000000e-02,  -3.0636842160e-01
     603,  -2.5000000000e-02,  -3.0636842160e-01
     604,  -2.0000000000e-02,  -3.0636842160e-01
     605,  -1.5000000000e-02,  -3.0636842160e-01
     606,  -1.0000000000e-02,  -3.0636842160e-01
     607,  -5.0000000000e-03,  -3.0636842160e-01
     608,   0.0000000000e+00,  -3.0636842160e-01
     609,   5.0000000000e-03,  -3.0636842160e-01
     610,   1.0000000000e-02,  -3.0636842160e-01
     611,   1.5000000000e-02,  -3.0636842160e-01
     612,   2.0000000000e-02,  -3.0636842160e-01
     613,   2.5000000000e-02,  -3.0636842160e-01
     614,   3.0000000000e-02,  -3.0636842160e-01
     615,   3.5000000000e-02,  -3.0636842160e-01
     616,   4.0000000000e-02,  -3.0636842160e-01
     617,   4.5000000000e-02,  -3.0636842160e-01
     618,   5.0000000000e-02,  -3.0636842160e-01
     619,   5.5000000000e-02,  -3.0636842160e-01
     620,   6.0000000000e-02,  -3.0636842160e-01
     621,   6.5000000000e-02,  -3.0636842160e-01
     622,   7.0000000000e-02,  -3.0636842160e-01
     623,   7.5000000000e-02,  -3.0636842160e-01
     624,   8.0000000000e-02,  -3.0636842160e-01
     625,   8.5000000000e-02,  -3.0636842160e-01
     626,   9.0000000000e-02,  -3.0636842160e-01
     627,   9.5000000000e-02,  -3.0636842160e-01
     628,   1.0000000000e-01,  -3.0636842160e-01
     629,   1.0500000000e-01,  -3.0636842160e-01
     630,   1.1000000000e-01,  -3.0636842160e-01
     631,   1.1500000000e-01,  -3.0636842160e-01
     632,   1.2250000000e-01,  -3.0636842160e-01
     633,   1.3375000000e-01,  -3.0636842160e-01
     634,   1.5062500000e-01,  -3.0636842160e-01
     635,   1.7562500000e-01,  -3.0636842160e-01
     636,   2.0057692310e-01,  -3.0636842160e-01
     637,   2.2552884620e-01,  -3.0636842160e-01
     638,   2.5048076930e-01,  -3.0636842160e-01
     639,   2.7543269240e-01,  -3.0636842160e-01
     640,   3.0038461550e-01,  -3.0636842160e-01
     641,   3.2533653860e-01,  -3.0636842160e-01
     642,   3.5028846170e-01,  -3.0636842160e-01
     643,   3.7524038480e-01,  -3.0636842160e-01
     644,   4.0019230790e-01,  -3.0636842160e-01
     645,   4.2514423100e-01,  -3.0636842160e-01
     646,   4.5009615410e-01,  -3.0636842160e-01
     647,   4.7504807720e-01,  -3.0636842160e-01
     648,   5.0000000000e-01,  -3.0636842160e-01
     649,  -5.0000000000e-01,  -2.8216447430e-01
     650,  -4.7597656250e-01,  -2.8216447430e-01
     651,  -4.5195312500e-01,  -2.8216447430e-01
     652,  -4.2792968750e-01,  -2.8216447430e-01
     653,  -4.0390625000e-01,  -2.8216447430e-01
     654,  -3.7988281250e-01,  -2.8216447430e-01
     655,  -3.5585937500e-01,  -2.8216447430e-01
     656,  -3.3183593750e-01,  -2.8216447430e-01
     657,  -3.0781250000e-01,  -2.8216447430e-01
     658,  -2.8378906250e-01,  -2.8216447430e-01
     659,  -2.5976562500e-01,  -2.8216447430e-01
     660,  -2.3574218750e-01,  -2.8216447430e-01
     661,  -2.1171875000e-01,  -2.8216447430e-01
     662,  -1.8769531250e-01,  -2.8216447430e-01
     663,  -1.6367187500e-01,  -2.8216447430e-01
     664,  -1.3964843750e-01,  -2.8216447430e-01
     665,  -1.1562500000e-01,  -2.8216447430e-01
     666,  -9.0625000000e-02,  -2.8216447430e-01
     667,  -7.3750000000e-02,  -2.8216447430e-01
     668,  -6.2500000000e-02,  -2.8216447430e-01
     669,  -5.5000000000e-02,  -2.8216447430e-01
     670,  -5.0000000000e-02,  -2.8216447430e-01
     671,  -4.5000000000e-02,  -2.8216447430e-01
     672,  -4.0000000000e-02,  -2.8216447430e-01
     673,  -3.5000000000e-02,  -2.8216447430e-01
     674,  -3.0000000000e-02,  -2.8216447430e-01
     675,  -2.5000000000e-02,  -2.8216447430e-01
     676,  -2.0000000000e-02,  -2.8216447430e-01
     677,  -1.5000000000e-02,  -2.8216447430e-01
     678,  -1.0000000000e-02,  -2.8216447430e-01
     679,  -5.0000000000e-03,  -2.8216447430e-01
     680,   0.0000000000e+00,  -2.8216447430e-01
     681,   5.0000000000e-03,  -2.8216447430e-01
     682,   1.0000000000e-02,  -2.8216447430e-01
     683,   1.5000000000e-02,  -2.8216447430e-01
     684,   2.0000000000e-02,  -2.8216447430e-01
     685,   2.5000000000e-02,  -2.8216447430e-01
     686,   3.0000000000e-02,  -2.8216447430e-01
     687,   3.5000000000e-02,  -2.8216447430e-01
     688,   4.0000000000e-02,  -2.8216447430e-01
     689,   4.5000000000e-02,  -2.8216447430e-01
     690,   5.0000000000e-02,  -2.8216447430e-01
     691,   5.5000000000e-02,  -2.8216447430e-01
     692,   6.0000000000e-02,  -2.8216447430e-01
     693,   6.5000000000e-02,  -2.8216447430e-01
     694,   7.0000000000e-02,  -2.8216447430e-01
     695,   7.5000000000e-02,  -2.8216447430e-01
     696,   8.0000000000e-02,  -2.8216447430e-01
     697,   8.5000000000e-02,  -2.8216447430e-01
     698,   9.0000000000e-02,  -2.8216447430e-01
     699,   9.5000000000e-02,  -2.8216447430e-01
     700,   1.0000000000e-01,  -2.8216447430e-01
     701,   1.0500000000e-01,  -2.8216447430e-01
     702,   1.1000000000e-01,  -2.8216447430e-01
     703,   1.1500000000e-01,  -2.8216447430e-01
     704,   1.2250000000e-01,  -2.8216447430e-01
     705,   1.3375000000e-01,  -2.8216447430e-01
     706,   1.5062500000e-01,  -2.8216447430e-01
     707,   1.7562500000e-01,  -2.8216447430e-01
     708,   2.0057692310e-01,  -2.8216447430e-01
     709,   2.2552884620e-01,  -2.8216447430e-01
     710,   2.5048076930e-01,  -2.8216447430e-01
     711,   2.7543269240e-01,  -2.8216447430e-01
     712,   3.0038461550e-01,  -2.8216447430e-01
     713,   3.2533653860e-01,  -2.8216447430e-01
     714,   3.5028846170e-01,  -2.8216447430e-01
     715,   3.7524038480e-01,  -2.8216447430e-01
     716,   4.0019230790e-01,  -2.8216447430e-01
     717,   4.2514423100e-01,  -2.8216447430e-01
     718,   4.5009615410e-01,  -2.8216447430e-01
     719,   4.7504807720e-01,  -2.8216447430e-01
     720,   5.0000000000e-01,  -2.8216447430e-01
     721,  -5.0000000000e-01,  -2.5796052700e-01
     722,  -4.7597656250e-01,  -2.5796052700e-01
     723,  -4.5195312500e-01,  -2.5796052700e-01
     724,  -4.2792968750e-01,  -2.5796052700e-01
     725,  -4.0390625000e-01,  -2.5796052700e-01
     726,  -3.7988281250e-01,  -2.5796052700e-01
     727,  -3.5585937500e-01,  -2.5796052700e-01
     728,  -3.3183593750e-01,  -2.5796052700e-01
     729,  -3.0781250000e-01,  -2.5796052700e-01
     730,  -2.8378906250e-01,  -2.5796052700e-01
     731,  -2.5976562500e-01,  -2.5796052700e-01
     732,  -2.3574218750e-01,  -2.5796052700e-01
     733,  -2.1171875000e-01,  -2.5796052700e-01
     734,  -1.8769531250e-01,  -2.5796052700e-01
     735,  -1.6367187500e-01,  -2.5796052700e-01
     736,  -1.3964843750e-01,  -2.5796052700e-01
     737,  -1.1562500000e-01,  -2.5796052700e-01
     738,  -9.0625000000e-02,  -2.5796052700e-01
     739,  -7.3750000000e-02,  -2.5796052700e-01
     740,  -6.2500000000e-02,  -2.5796052700e-01
     741,  -5.5000000000e-02,  -2.5796052700e-01
     742,  -5.0000000000e-02,  -2.5796052700e-01
     743,  -4.5000000000e-02,  -2.5796052700e-01
     744,  -4.0000000000e-02,  -2.5796052700e-01
     745,  -3.5000000000e-02,  -2.5796052700e-01
     746,  -3.0000000000e-02,  -2.5796052700e-01
     747,  -2.5000000000e-02,  -2.5796052700e-01
     748,  -2.0000000000e-02,  -2.5796052700e-01
     749,  -1.5000000000e-02,  -2.5796052700e-01
     750,  -1.0000000000e-02,  -2.5796052700e-01
     751,  -5.0000000000e-03,  -2.5796052700e-01
     752,   0.0000000000e+00,  -2.5796052700e-01
     753,   5.0000000000e-03,  -2.5796052700e-01
     754,   1.0000000000e-02,  -2.5796052700e-01
     755,   1.5000000000e-02,  -2.5796052700e-01
     756,   2.0000000000e-02,  -2.5796052700e-01
     757,   2.5000000000e-02,  -2.5796052700e-01
     758,   3.0000000000e-02,  -2.5796052700e-01
     759,   3.5000000000e-02,  -2.5796052700e-01
     760,   4.0000000000e-02,  -2.5796052700e-01
     761,   4.5000000000e-02,  -2.5796052700e-01
     762,   5.0000000000e-02,  -2.5796052700e-01
     763,   5.5000000000e-02,  -2.5796052700e-01
     764,   6.0000000000e-02,  -2.5796052700e-01
     765,   6.5000000000e-02,  -2.5796052700e-01
     766,   7.0000000000e-02,  -2.5796052700e-01
     767,   7.5000000000e-02,  -2.5796052700e-01
     768,   8.0000000000e-02,  -2.5796052700e-01
     769,   8.5000000000e-02,  -2.5796052700e-01
     770,   9.0000000000e-02,  -2.5796052700e-01
     771,   9.5000000000e-02,  -2.5796052700e-01
     772,   1.0000000000e-01,  -2.5796052700e-01
     773,   1.0500000000e-01,  -2.5796052700e-01
     774,   1.1000000000e-01,  -2.5796052700e-01
     775,   1.1500000000e-01,  -2.5796052700e-01
     776,   1.2250000000e-01,  -2.5796052700e-01
     777,   1.3375000000e-01,  -2.5796052700e-01
     778,   1.5062500000e-01,  -2.5796052700e-01
     779,   1.7562500000e-01,  -2.5796052700e-01
     780,   2.0057692310e-01,  -2.5796052700e-01
     781,   2.2552884620e-01,  -2.5796052700e-01
     782,   2.5048076930e-01,  -2.5796052700e-01
     783,   2.7543269240e-01,  -2.5796052700e-01
     784,   3.0038461550e-01,  -2.5796052700e-01
     785,   3.2533653860e-01,  -2.5796052700e-01
     786,   3.5028846170e-01,  -2.5796052700e-01
     787,   3.7524038480e-01,  -2.5796052700e-01
     788,   4.0019230790e-01,  -2.5796052700e-01
     789,   4.2514423100e-01,  -2.5796052700e-01
     790,   4.5009615410e-01,  -2.5796052700e-01
     791,   4.7504807720e-01,  -2.5796052700e-01
     792,   5.0000000000e-01,  -2.5796052700e-01
     793,  -5.0000000000e-01,  -2.3375657970e-01
     794,  -4.7597656250e-01,  -2.3375657970e-01
     795,  -4.5195312500e-01,  -2.3375657970e-01
     796,  -4.2792968750e-01,  -2.3375657970e-01
     797,  -4.0390625000e-01,  -2.3375657970e-01
     798,  -3.7988281250e-01,  -2.3375657970e-01
     799,  -3.5585937500e-01,  -2.3375657970e-01
     800,  -3.3183593750e-01,  -2.3375657970e-01
     801,  -3.0781250000e-01,  -2.3375657970e-01
     802,  -2.8378906250e-01,  -2.3375657970e-01
     803,  -2.5976562500e-01,  -2.3375657970e-01
     804,  -2.3574218750e-01,  -2.3375657970e-01
     805,  -2.1171875000e-01,  -2.3375657970e-01
     806,  -1.8769531250e-01,  -2.3375657970e-01
     807,  -1.6367187500e-01,  -2.3375657970e-01
     808,  -1.3964843750e-01,  -2.3375657970e-01
     809,  -1.1562500000e-01,  -2.3375657970e-01
     810,  -9.0625000000e-02,  -2.3375657970e-01
     811,  -7.3750000000e-02,  -2.3375657970e-01
     812,  -6.2500000000e-02,  -2.3375657970e-01
     813,  -5.5000000000e-02,  -2.3375657970e-01
     814,  -5.0000000000e-02,  -2.3375657970e-01
     815,  -4.5000000000e-02,  -2.3375657970e-01
     816,  -4.0000000000e-02,  -2.3375657970e-01
     817,  -3.5000000000e-02,  -2.3375657970e-01
     818,  -3.0000000000e-02,  -2.3375657970e-01
     819,  -2.5000000000e-02,  -2.3375657970e-01
     820,  -2.0000000000e-02,  -2.3375657970e-01
     821,  -1.5000000000e-02,  -2.3375657970e-01
     822,  -1.0000000000e-02,  -2.3375657970e-01
     823,  -5.0000000000e-03,  -2.3375657970e-01
     824,   0.0000000000e+00,  -2.3375657970e-01
     825,   5.0000000000e-03,  -2.3375657970e-01
     826,   1.0000000000e-02,  -2.3375657970e-01
     827,   1.5000000000e-02,  -2.3375657970e-01
     828,   2.0000000000e-02,  -2.3375657970e-01
     829,   2.5000000000e-02,  -2.3375657970e-01
     830,   3.0000000000e-02,  -2.3375657970e-01
     831,   3.5000000000e-02,  -2.3375657970e-01
     832,   4.0000000000e-02,  -2.3375657970e-01
     833,   4.5000000000e-02,  -2.3375657970e-01
     834,   5.0000000000e-02,  -2.3375657970e-01
     835,   5.5000000000e-02,  -2.3375657970e-01
     836,   6.0000000000e-02,  -2.3375657970e-01
     837,   6.5000000000e-02,  -2.3375657970e-01
     838,   7.0000000000e-02,  -2.3375657970e-01
     839,   7.5000000000e-02,  -2.3375657970e-01
     840,   8.0000000000e-02,  -2.3375657970e-01
     841,   8.5000000000e-02,  -2.3375657970e-01
     842,   9.0000000000e-02,  -2.3375657970e-01
     843,   9.5000000000e-02,  -2.3375657970e-01
     844,   1.0000000000e-01,  -2.3375657970e-01
     845,   1.0500000000e-01,  -2.3375657970e-01
     846,   1.1000000000e-01,  -2.3375657970e-01
     847,   1.1500000000e-01,  -2.3375657970e-01
     848,   1.2250000000e-01,  -2.3375657970e-01
     849,   1.3375000000e-01,  -2.3375657970e-01
     850,   1.5062500000e-01,  -2.3375657970e-01
     851,   1.7562500000e-01,  -2.3375657970e-01
     852,   2.0057692310e-01,  -2.3375657970e-01
     853,   2.2552884620e-01,  -2.3375657970e-01
     854,   2.5048076930e-01,  -2.3375657970e-01
     855,   2.7543269240e-01,  -2.3375657970e-01
     856,   3.0038461550e-01,  -2.3375657970e-01
     857,   3.2533653860e-01,  -2.3375657970e-01
     858,   3.5028846170e-01,  -2.3375657970e-01
     859,   3.7524038480e-01,  -2.3375657970e-01
     860,   4.0019230790e-01,  -2.3375657970e-01
     861,   4.2514423100e-01,  -2.3375657970e-01
     862,   4.5009615410e-01,  -2.3375657970e-01
     863,   4.7504807720e-01,  -2.3375657970e-01
     864,   5.0000000000e-01,  -2.3375657970e-01
     865,  -5.0000000000e-01,  -2.0955263240e-01
     866,  -4.7597656250e-01,  -2.0955263240e-01
     867,  -4.5195312500e-01,  -2.0955263240e-01
     868,  -4.2792968750e-01,  -2.0955263240e-01
     869,  -4.0390625000e-01,  -2.0955263240e-01
     870,  -3.7988281250e-01,  -2.0955263240e-01
     871,  -3.5585937500e-01,  -2.0955263240e-01
     872,  -3.3183593750e-01,  -2.0955263240e-01
     873,  -3.0781250000e-01,  -2.0955263240e-01
     874,  -2.8378906250e-01,  -2.0955263240e-01
     875,  -2.5976562500e-01,  -2.0955263240e-01
     876,  -2.3574218750e-01,  -2.0955263240e-01
     877,  -2.1171875000e-01,  -2.0955263240e-01
     878,  -1.8769531250e-01,  -2.0955263240e-01
     879,  -1.6367187500e-01,  -2.0955263240e-01
     880,  -1.3964843750e-01,  -2.0955263240e-01
     881,  -1.1562500000e-01,  -2.0955263240e-01
     882,  -9.0625000000e-02,  -2.0955263240e-01
     883,  -7.3750000000e-02,  -2.0955263240e-01
     884,  -6.2500000000e-02,  -2.0955263240e-01
     885,  -5.5000000000e-02,  -2.0955263240e-01
     886,  -5.0000000000e-02,  -2.0955263240e-01
     887,  -4.5000000000e-02,  -2.0955263240e-01
     888,  -4.0000000000e-02,  -2.0955263240e-01
     889,  -3.5000000000e-02,  -2.0955263240e-01
     890,  -3.0000000000e-02,  -2.0955263240e-01
     891,  -2.5000000000e-02,  -2.0955263240e-01
     892,  -2.0000000000e-02,  -2.0955263240e-01
     893,  -1.5000000000e-02,  -2.0955263240e-01
     894,  -1.0000000000e-02,  -2.0955263240e-01
     895,  -5.0000000000e-03,  -2.0955263240e-01
     896,   0.0000000000e+00,  -2.0955263240e-01
     897,   5.0000000000e-03,  -2.0955263240e-01
     898,   1.0000000000e-02,  -2.0955263240e-01
     899,   1.5000000000e-02,  -2.0955263240e-01
     900,   2.0000000000e-02,  -2.0955263240e-01
     901,   2.5000000000e-02,  -2.0955263240e-01
     902,   3.0000000000e-02,  -2.0955263240e-01
     903,   3.5000000000e-02,  -2.0955263240e-01
     904,   4.0000000000e-02,  -2.0955263240e-01
     905,   4.5000000000e-02,  -2.0955263240e-01
     906,   5.0000000000e-02,  -2.0955263240e-01
     907,   5.5000000000e-02,  -2.0955263240e-01
     908,   6.0000000000e-02,  -2.0955263240e-01
     909,   6.5000000000e-02,  -2.0955263240e-01
     910,   7.0000000000e-02,  -2.0955263240e-01
     911,   7.5000000000e-02,  -2.0955263240e-01
     912,   8.0000000000e-02,  -2.0955263240e-01
     913,   8.5000000000e-02,  -2.0955263240e-01
     914,   9.0000000000e-02,  -2.0955263240e-01
     915,   9.5000000000e-02,  -2.0955263240e-01
     916,   1.0000000000e-01,  -2.0955263240e-01
     917,   1.0500000000e-01,  -2.0955263240e-01
     918,   1.1000000000e-01,  -2.0955263240e-01
     919,   1.1500000000e-01,  -2.0955263240e-01
     920,   1.2250000000e-01,  -2.0955263240e-01
     921,   1.3375000000e-01,  -2.0955263240e-01
     922,   1.5062500000e-01,  -2.0955263240e-01
     923,   1.7562500000e-01,  -2.0955263240e-01
     924,   2.0057692310e-01,  -2.0955263240e-01
     925,   2.2552884620e-01,  -2.0955263240e-01
     926,   2.5048076930e-01,  -2.0955263240e-01
     927,   2.7543269240e-01,  -2.0955263240e-01
     928,   3.0038461550e-01,  -2.0955263240e-01
     929,   3.2533653860e-01,  -2.0955263240e-01
     930,   3.5028846170e-01,  -2.0955263240e-01
     931,   3.7524038480e-01,  -2.0955263240e-01
     932,   4.0019230790e-01,  -2.0955263240e-01
     933,   4.2514423100e-01,  -2.0955263240e-01
     934,   4.5009615410e-01,  -2.0955263240e-01
     935,   4.7504807720e-01,  -2.0955263240e-01
     936,   5.0000000000e-01,  -2.0955263240e-01
     937,  -5.0000000000e-01,  -1.8534868510e-01
     938,  -4.7597656250e-01,  -1.8534868510e-01
     939,  -4.5195312500e-01,  -1.8534868510e-01
     940,  -4.2792968750e-01,  -1.8534868510e-01
     941,  -4.0390625000e-01,  -1.8534868510e-01
     942,  -3.7988281250e-01,  -1.8534868510e-01
     943,  -3.5585937500e-01,  -1.8534868510e-01
     944,  -3.3183593750e-01,  -1.8534868510e-01
     945,  -3.0781250000e-01,  -1.8534868510e-01
     946,  -2.8378906250e-01,  -1.8534868510e-01
     947,  -2.5976562500e-01,  -1.8534868510e-01
     948,  -2.3574218750e-01,  -1.8534868510e-01
     949,  -2.1171875000e-01,  -1.8534868510e-01
     950,  -1.8769531250e-01,  -1.8534868510e-01
     951,  -1.6367187500e-01,  -1.8534868510e-01
     952,  -1.3964843750e-01,  -1.8534868510e-01
     953,  -1.1562500000e-01,  -1.8534868510e-01
     954,  -9.0625000000e-02,  -1.8534868510e-01
     955,  -7.3750000000e-02,  -1.8534868510e-01
     956,  -6.2500000000e-02,  -1.8534868510e-01
     957,  -5.5000000000e-02,  -1.8534868510e-01
     958,  -5.0000000000e-02,  -1.8534868510e-01
     959,  -4.5000000000e-02,  -1.8534868510e-01
     960,  -4.0000000000e-02,  -1.8534868510e-01
     961,  -3.5000000000e-02,  -1.8534868510e-01
     962,  -3.0000000000e-02,  -1.8534868510e-01
     963,  -2.5000000000e-02,  -1.8534868510e-01
     964,  -2.0000000000e-02,  -1.8534868510e-01
     965,  -1.5000000000e-02,  -1.8534868510e-01
     966,  -1.0000000000e-02,  -1.8534868510e-01
     967,  -5.0000000000e-03,  -1.8534868510e-01
     968,   0.0000000000e+00,  -1.8534868510e-01
     969,   5.0000000000e-03,  -1.8534868510e-01
     970,   1.0000000000e-02,  -1.8534868510e-01
     971,   1.5000000000e-02,  -1.8534868510e-01
     972,   2.0000000000e-02,  -1.8534868510e-01
     973,   2.5000000000e-02,  -1.8534868510e-01
     974,   3.0000000000e-02,  -1.8534868510e-01
     975,   3.5000000000e-02,  -1.8534868510e-01
     976,   4.0000000000e-02,  -1.8534868510e-01
     977,   4.5000000000e-02,  -1.8534868510e-01
     978,   5.0000000000e-02,  -1.8534868510e-01
     979,   5.5000000000e-02,  -1.8534868510e-01
     980,   6.0000000000e-02,  -1.8534868510e-01
     981,   6.5000000000e-02,  -1.8534868510e-01
     982,   7.0000000000e-02,  -1.8534868510e-01
     983,   7.5000000000e-02,  -1.8534868510e-01
     984,   8.0000000000e-02,  -1.8534868510e-01
     985,   8.5000000000e-02,  -1.8534868510e-01
     986,   9.0000000000e-02,  -1.8534868510e-01
     987,   9.5000000000e-02,  -1.8534868510e-01
     988,   1.0000000000e-01,  -1.8534868510e-01
     989,   1.0500000000e-01,  -1.8534868510e-01
     990,   1.1000000000e-01,  -1.8534868510e-01
     991,   1.1500000000e-01,  -1.8534868510e-01
     992,   1.2250000000e-01,  -1.8534868510e-01
     993,   1.3375000000e-01,  -1.8534868510e-01
     994,   1.5062500000e-01,  -1.8534868510e-01
     995,   1.7562500000e-01,  -1.8534868510e-01
     996,   2.0057692310e-01,  -1.8534868510e-01
     997,   2.2552884620e-01,  -1.8534868510e-01
     998,   2.5048076930e-01,  -1.8534868510e-01
     999,   2.7543269240e-01,  -1.8534868510e-01
    1000,   3.0038461550e-01,  -1.8534868510e-01
    1001,   3.2533653860e-01,  -1.8534868510e-01
    1002,   3.5028846170e-01,  -1.8534868510e-01
    1003,   3.7524038480e-01,  -1.8534868510e-01
    1004,   4.0019230790e-01,  -1.8534868510e-01
    1005,   4.2514423100e-01,  -1.8534868510e-01
    1006,   4.5009615410e-01,  -1.8534868510e-01
    1007,   4.7504807720e-01,  -1.8534868510e-01
    1008,   5.0000000000e-01,  -1.8534868510e-01
    1009,  -5.0000000000e-01,  -1.6114473780e-01
    1010,  -4.7597656250e-01,  -1.6114473780e-01
    1011,  -4.5195312500e-01,  -1.6114473780e-01
    1012,  -4.2792968750e-01,  -1.6114473780e-01
    1013,  -4.0390625000e-01,  -1.6114473780e-01
    1014,  -3.7988281250e-01,  -1.6114473780e-01
    1015,  -3.5585937500e-01,  -1.6114473780e-01
    1016,  -3.3183593750e-01,  -1.6114473780e-01
    1017,  -3.0781250000e-01,  -1.6114473780e-01
    1018,  -2.8378906250e-01,  -1.6114473780e-01
    1019,  -2.5976562500e-01,  -1.6114473780e-01
    1020,  -2.3574218750e-01,  -1.6114473780e-01
    1021,  -2.1171875000e-01,  -1.6114473780e-01
    1022,  -1.8769531250e-01,  -1.6114473780e-01
    1023,  -1.6367187500e-01,  -1.6114473780e-01
    1024,  -1.3964843750e-01,  -1.6114473780e-01
    1025,  -1.1562500000e-01,  -1.6114473780e-01
    1026,  -9.0625000000e-02,  -1.6114473780e-01
    1027,  -7.3750000000e-02,  -1.6114473780e-01
    1028,  -6.2500000000e-02,  -1.6114473780e-01
    1029,  -5.5000000000e-02,  -1.6114473780e-01
    1030,  -5.0000000000e-02,  -1.6114473780e-01
    1031,  -4.5000000000e-02,  -1.6114473780e-01
    1032,  -4.0000000000e-02,  -1.6114473780e-01
    1033,  -3.5000000000e-02,  -1.6114473780e-01
    1034,  -3.0000000000e-02,  -1.6114473780e-01
    1035,  -2.5000000000e-02,  -1.6114473780e-01
    1036,  -2.0000000000e-02,  -1.6114473780e-01
    1037,  -1.5000000000e-02,  -1.6114473780e-01
    1038,  -1.0000000000e-02,  -1.6114473780e-01
    1039,  -5.0000000000e-03,  -1.6114473780e-01
    1040,   0.0000000000e+00,  -1.6114473780e-01
    1041,   5.0000000000e-03,  -1.6114473780e-01
    1042,   1.0000000000e-02,  -1.6114473780e-01
    1043,   1.5000000000e-02,  -1.6114473780e-01
    1044,   2.0000000000e-02,  -1.6114473780e-01
    1045,   2.5000000000e-02,  -1.6114473780e-01
    1046,   3.0000000000e-02,  -1.6114473780e-01
    1047,   3.5000000000e-02,  -1.6114473780e-01
    1048,   4.0000000000e-02,  -1.6114473780e-01
    1049,   4.5000000000e-02,  -1.6114473780e-01
    1050,   5.0000000000e-02,  -1.6114473780e-01
    1051,   5.5000000000e-02,  -1.6114473780e-01
    1052,   6.0000000000e-02,  -1.6114473780e-01
    1053,   6.5000000000e-02,  -1.6114473780e-01
    1054,   7.0000000000e-02,  -1.6114473780e-01
    1055,   7.5000000000e-02,  -1.6114473780e-01
    1056,   8.0000000000e-02,  -1.6114473780e-01
    1057,   8.5000000000e-02,  -1.6114473780e-01
    1058,   9.0000000000e-02,  -1.6114473780e-01
    1059,   9.5000000000e-02,  -1.6114473780e-01
    1060,   1.0000000000e-01,  -1.6114473780e-01
    1061,   1.0500000000e-01,  -1.6114473780e-01
    1062,   1.1000000000e-01,  -1.6114473780e-01
    1063,   1.1500000000e-01,  -1.6114473780e-01
    1064,   1.2250000000e-01,  -1.6114473780e-01
    1065,   1.3375000000e-01,  -1.6114473780e-01
    1066,   1.5062500000e-01,  -1.6114473780e-01
    1067,   1.7562500000e-01,  -1.6114473780e-01
    1068,   2.0057692310e-01,  -1.6114473780e-01
    1069,   2.2552884620e-01,  -1.6114473780e-01
    1070,   2.5048076930e-01,  -1.6114473780e-01
    1071,   2.7543269240e-01,  -1.6114473780e-01
    1072,   3.0038461550e-01,  -1.6114473780e-01
    1073,   3.2533653860e-01,  -1.6114473780e-01
    1074,   3.5028846170e-01,  -1.6114473780e-01
    1075,   3.7524038480e-01,  -1.6114473780e-01
    1076,   4.0019230790e-01,  -1.6114473780e-01
    1077,   4.2514423100e-01,  -1.6114473780e-01
    1078,   4.5009615410e-01,  -1.6114473780e-01
    1079,   4.7504807720e-01,  -1.6114473780e-01
    1080,   5.0000000000e-01,  -1.6114473780e-01
    1081,  -5.0000000000e-01,  -1.3694079050e-01
    1082,  -4.7597656250e-01,  -1.3694079050e-01
    1083,  -4.5195312500e-01,  -1.3694079050e-01
    1084,  -4.2792968750e-01,  -1.3694079050e-01
    1085,  -4.0390625000e-01,  -1.3694079050e-01
    1086,  -3.7988281250e-01,  -1.3694079050e-01
    1087,  -3.5585937500e-01,  -1.3694079050e-01
    1088,  -3.3183593750e-01,  -1.3694079050e-01
    1089,  -3.0781250000e-01,  -1.3694079050e-01
    1090,  -2.8378906250e-01,  -1.3694079050e-01
    1091,  -2.5976562500e-01,  -1.3694079050e-01
    1092,  -2.3574218750e-01,  -1.3694079050e-01
    1093,  -2.1171875000e-01,  -1.3694079050e-01
    1094,  -1.8769531250e-01,  -1.3694079050e-01
    1095,  -1.6367187500e-01,  -1.3694079050e-01
    1096,  -1.3964843750e-01,  -1.3694079050e-01
    1097,  -1.1562500000e-01,  -1.3694079050e-01
    1098,  -9.0625000000e-02,  -1.3694079050e-01
    1099,  -7.3750000000e-02,  -1.3694079050e-01
    1100,  -6.2500000000e-02,  -1.3694079050e-01
    1101,  -5.5000000000e-02,  -1.3694079050e-01
    1102,  -5.0000000000e-02,  -1.3694079050e-01
    1103,  -4.5000000000e-02,  -1.3694079050e-01
    1104,  -4.0000000000e-02,  -1.3694079050e-01
    1105,  -3.5000000000e-02,  -1.3694079050e-01
    1106,  -3.0000000000e-02,  -1.3694079050e-01
    1107,  -2.5000000000e-02,  -1.3694079050e-01
    1108,  -2.0000000000e-02,  -1.3694079050e-01
    1109,  -1.5000000000e-02,  -1.3694079050e-01
    1110,  -1.0000000000e-02,  -1.3694079050e-01
    1111,  -5.0000000000e-03,  -1.3694079050e-01
    1112,   0.0000000000e+00,  -1.3694079050e-01
    1113,   5.0000000000e-03,  -1.3694079050e-01
    1114,   1.0000000000e-02,  -1.3694079050e-01
    1115,   1.5000000000e-02,  -1.3694079050e-01
    1116,   2.0000000000e-02,  -1.3694079050e-01
    1117,   2.5000000000e-02,  -1.3694079050e-01
    1118,   3.0000000000e-02,  -1.3694079050e-01
    1119,   3.5000000000e-02,  -1.3694079050e-01
    1120,   4.0000000000e-02,  -1.3694079050e-01
    1121,   4.5000000000e-02,  -1.3694079050e-01
    1122,   5.0000000000e-02,  -1.3694079050e-01
    1123,   5.5000000000e-02,  -1.3694079050e-01
    1124,   6.0000000000e-02,  -1.3694079050e-01
    1125,   6.5000000000e-02,  -1.3694079050e-01
    1126,   7.0000000000e-02,  -1.3694079050e-01
    1127,   7.5000000000e-02,  -1.3694079050e-01
    1128,   8.0000000000e-02,  -1.3694079050e-01
    1129,   8.5000000000e-02,  -1.3694079050e-01
    1130,   9.0000000000e-02,  -1.3694079050e-01
    1131,   9.5000000000e-02,  -1.3694079050e-01
    1132,   1.0000000000e-01,  -1.3694079050e-01
    1133,   1.0500000000e-01,  -1.3694079050e-01
    1134,   1.1000000000e-01,  -1.3694079050e-01
    1135,   1.1500000000e-01,  -1.3694079050e-01
    1136,   1.2250000000e-01,  -1.3694079050e-01
    1137,   1.3375000000e-01,  -1.3694079050e-01
    1138,   1.5062500000e-01,  -1.3694079050e-01
    1139,   1.7562500000e-01,  -1.3694079050e-01
    1140,   2.0057692310e-01,  -1.3694079050e-01
    1141,   2.2552884620e-01,  -1.3694079050e-01
    1142,   2.5048076930e-01,  -1.3694079050e-01
    1143,   2.7543269240e-01,  -1.3694079050e-01
    1144,   3.0038461550e-01,  -1.3694079050e-01
    1145,   3.2533653860e-01,  -1.3694079050e-01
    1146,   3.5028846170e-01,  -1.3694079050e-01
    1147,   3.7524038480e-01,  -1.3694079050e-01
    1148,   4.0019230790e-01,  -1.3694079050e-01
    1149,   4.2514423100e-01,  -1.3694079050e-01
    1150,   4.5009615410e-01,  -1.3694079050e-01
    1151,   4.7504807720e-01,  -1.3694079050e-01
    1152,   5.0000000000e-01,  -1.3694079050e-01
    1153,  -5.0000000000e-01,  -1.1194079050e-01
    1154,  -4.7597656250e-01,  -1.1194079050e-01
    1155,  -4.5195312500e-01,  -1.1194079050e-01
    1156,  -4.2792968750e-01,  -1.1194079050e-01
    1157,  -4.0390625000e-01,  -1.1194079050e-01
    1158,  -3.7988281250e-01,  -1.1194079050e-01
    1159,  -3.5585937500e-01,  -1.1194079050e-01
    1160,  -3.3183593750e-01,  -1.1194079050e-01
    1161,  -3.0781250000e-01,  -1.1194079050e-01
    1162,  -2.8378906250e-01,  -1.1194079050e-01
    1163,  -2.5976562500e-01,  -1.1194079050e-01
    1164,  -2.3574218750e-01,  -1.1194079050e-01
    1165,  -2.1171875000e-01,  -1.1194079050e-01
    1166,  -1.8769531250e-01,  -1.1194079050e-01
    1167,  -1.6367187500e-01,  -1.1194079050e-01
    1168,  -1.3964843750e-01,  -1.1194079050e-01
    1169,  -1.1562500000e-01,  -1.1194079050e-01
    1170,  -9.0625000000e-02,  -1.1194079050e-01
    1171,  -7.3750000000e-02,  -1.1194079050e-01
    1172,  -6.2500000000e-02,  -1.1194079050e-01
    1173,  -5.5000000000e-02,  -1.1194079050e-01
    1174,  -5.0000000000e-02,  -1.1194079050e-01
    1175,  -4.5000000000e-02,  -1.1194079050e-01
    1176,  -4.0000000000e-02,  -1.1194079050e-01
    1177,  -3.5000000000e-02,  -1.1194079050e-01
    1178,  -3.0000000000e-02,  -1.1194079050e-01
    1179,  -2.5000000000e-02,  -1.1194079050e-01
    1180,  -2.0000000000e-02,  -1.1194079050e-01
    1181,  -1.5000000000e-02,  -1.1194079050e-01
    1182,  -1.0000000000e-02,  -1.1194079050e-01
    1183,  -5.0000000000e-03,  -1.1194079050e-01
    1184,   0.0000000000e+00,  -1.1194079050e-01
    1185,   5.0000000000e-03,  -1.1194079050e-01
    1186,   1.0000000000e-02,  -1.1194079050e-01
    1187,   1.5000000000e-02,  -1.1194079050e-01
    1188,   2.0000000000e-02,  -1.1194079050e-01
    1189,   2.5000000000e-02,  -1.1194079050e-01
    1190,   3.0000000000e-02,  -1.1194079050e-01
    1191,   3.5000000000e-02,  -1.1194079050e-01
    1192,   4.0000000000e-02,  -1.1194079050e-01
    1193,   4.5000000000e-02,  -1.1194079050e-01
    1194,   5.0000000000e-02,  -1.1194079050e-01
    1195,   5.5000000000e-02,  -1.1194079050e-01
    1196,   6.0000000000e-02,  -1.1194079050e-01
    1197,   6.5000000000e-02,  -1.1194079050e-01
    1198,   7.0000000000e-02,  -1.1194079050e-01
    1199,   7.5000000000e-02,  -1.1194079050e-01
    1200,   8.0000000000e-02,  -1.1194079050e-01
    1201,   8.5000000000e-02,  -1.1194079050e-01
    1202,   9.0000000000e-02,  -1.1194079050e-01
    1203,   9.5000000000e-02,  -1.1194079050e-01
    1204,   1.0000000000e-01,  -1.1194079050e-01
    1205,   1.0500000000e-01,  -1.1194079050e-01
    1206,   1.1000000000e-01,  -1.1194079050e-01
    1207,   1.1500000000e-01,  -1.1194079050e-01
    1208,   1.2250000000e-01,  -1.1194079050e-01
    1209,   1.3375000000e-01,  -1.1194079050e-01
    1210,   1.5062500000e-01,  -1.1194079050e-01
    1211,   1.7562500000e-01,  -1.1194079050e-01
    1212,   2.0057692310e-01,  -1.1194079050e-01
    1213,   2.2552884620e-01,  -1.1194079050e-01
    1214,   2.5048076930e-01,  -1.1194079050e-01
    1215,   2.7543269240e-01,  -1.1194079050e-01
    1216,   3.0038461550e-01,  -1.1194079050e-01
    1217,   3.2533653860e-01,  -1.1194079050e-01
    1218,   3.5028846170e-01,  -1.1194079050e-01
    1219,   3.7524038480e-01,  -1.1194079050e-01
    1220,   4.0019230790e-01,  -1.1194079050e-01
    1221,   4.2514423100e-01,  -1.1194079050e-01
    1222,   4.5009615410e-01,  -1.1194079050e-01
    1223,   4.7504807720e-01,  -1.1194079050e-01
    1224,   5.0000000000e-01,  -1.1194079050e-01
    1225,  -5.0000000000e-01,  -9.5065790500e-02
    1226,  -4.7597656250e-01,  -9.5065790500e-02
    1227,  -4.5195312500e-01,  -9.5065790500e-02
    1228,  -4.2792968750e-01,  -9.5065790500e-02
    1229,  -4.0390625000e-01,  -9.5065790500e-02
    1230,  -3.7988281250e-01,  -9.5065790500e-02
    1231,  -3.5585937500e-01,  -9.5065790500e-02
    1232,  -3.3183593750e-01,  -9.5065790500e-02
    1233,  -3.0781250000e-01,  -9.5065790500e-02
    1234,  -2.8378906250e-01,  -9.5065790500e-02
    1235,  -2.5976562500e-01,  -9.5065790500e-02
    1236,  -2.3574218750e-01,  -9.5065790500e-02
    1237,  -2.1171875000e-01,  -9.5065790500e-02
    1238,  -1.8769531250e-01,  -9.5065790500e-02
    1239,  -1.6367187500e-01,  -9.5065790500e-02
    1240,  -1.3964843750e-01,  -9.5065790500e-02
    1241,  -1.1562500000e-01,  -9.5065790500e-02
    1242,  -9.0625000000e-02,  -9.5065790500e-02
    1243,  -7.3750000000e-02,  -9.5065790500e-02
    1244,  -6.2500000000e-02,  -9.5065790500e-02
    1245,  -5.5000000000e-02,  -9.5065790500e-02
    1246,  -5.0000000000e-02,  -9.5065790500e-02
    1247,  -4.5000000000e-02,  -9.5065790500e-02
    1248,  -4.0000000000e-02,  -9.5065790500e-02
    1249,  -3.5000000000e-02,  -9.5065790500e-02
    1250,  -3.0000000000e-02,  -9.5065790500e-02
    1251,  -2.5000000000e-02,  -9.5065790500e-02
    1252,  -2.0000000000e-02,  -9.5065790500e-02
    1253,  -1.5000000000e-02,  -9.5065790500e-02
    1254,  -1.0000000000e-02,  -9.5065790500e-02
    1255,  -5.0000000000e-03,  -9.5065790500e-02
    1256,   0.0000000000e+00,  -9.5065790500e-02
    1257,   5.0000000000e-03,  -9.5065790500e-02
    1258,   1.0000000000e-02,  -9.5065790500e-02
    1259,   1.5000000000e-02,  -9.5065790500e-02
    1260,   2.0000000000e-02,  -9.5065790500e-02
    1261,   2.5000000000e-02,  -9.5065790500e-02
    1262,   3.0000000000e-02,  -9.5065790500e-02
    1263,   3.5000000000e-02,  -9.5065790500e-02
    1264,   4.0000000000e-02,  -9.5065790500e-02
    1265,   4.5000000000e-02,  -9.5065790500e-02
    1266,   5.0000000000e-02,  -9.5065790500e-02
    1267,   5.5000000000e-02,  -9.5065790500e-02
    1268,   6.0000000000e-02,  -9.5065790500e-02
    1269,   6.5000000000e-02,  -9.5065790500e-02
    1270,   7.0000000000e-02,  -9.5065790500e-02
    1271,   7.5000000000e-02,  -9.5065790500e-02
    1272,   8.0000000000e-02,  -9.5065790500e-02
    1273,   8.5000000000e-02,  -9.5065790500e-02
    1274,   9.0000000000e-02,  -9.5065790500e-02
    1275,   9.5000000000e-02,  -9.5065790500e-02
    1276,   1.0000000000e-01,  -9.5065790500e-02
    1277,   1.0500000000e-01,  -9.5065790500e-02
    1278,   1.1000000000e-01,  -9.5065790500e-02
    1279,   1.1500000000e-01,  -9.5065790500e-02
    1280,   1.2250000000e-01,  -9.5065790500e-02
    1281,   1.3375000000e-01,  -9.5065790500e-02
    1282,   1.5062500000e-01,  -9.5065790500e-02
    1283,   1.7562500000e-01,  -9.5065790500e-02
    1284,   2.0057692310e-01,  -9.5065790500e-02
    1285,   2.2552884620e-01,  -9.5065790500e-02
    1286,   2.5048076930e-01,  -9.5065790500e-02
    1287,   2.7543269240e-01,  -9.5065790500e-02
    1288,   3.0038461550e-01,  -9.5065790500e-02
    1289,   3.2533653860e-01,  -9.5065790500e-02
    1290,   3.5028846170e-01,  -9.5065790500e-02
    1291,   3.7524038480e-01,  -9.5065790500e-02
    1292,   4.0019230790e-01,  -9.5065790500e-02
    1293,   4.2514423100e-01,  -9.5065790500e-02
    1294,   4.5009615410e-01,  -9.5065790500e-02
    1295,   4.7504807720e-01,  -9.5065790500e-02
    1296,   5.0000000000e-01,  -9.5065790500e-02
    1297,  -5.0000000000e-01,  -8.3815790500e-02
    1298,  -4.7597656250e-01,  -8.3815790500e-02
    1299,  -4.5195312500e-01,  -8.3815790500e-02
    1300,  -4.2792968750e-01,  -8.3815790500e-02
    1301,  -4.0390625000e-01,  -8.3815790500e-02
    1302,  -3.7988281250e-01,  -8.3815790500e-02
    1303,  -3.5585937500e-01,  -8.3815790500e-02
    1304,  -3.3183593750e-01,  -8.3815790500e-02
    1305,  -3.0781250000e-01,  -8.3815790500e-02
    1306,  -2.8378906250e-01,  -8.3815790500e-02
    1307,  -2.5976562500e-01,  -8.3815790500e-02
    1308,  -2.3574218750e-01,  -8.3815790500e-02
    1309,  -2.1171875000e-01,  -8.3815790500e-02
    1310,  -1.8769531250e-01,  -8.3815790500e-02
    1311,  -1.6367187500e-01,  -8.3815790500e-02
    1312,  -1.3964843750e-01,  -8.3815790500e-02
    1313,  -1.1562500000e-01,  -8.3815790500e-02
    1314,  -9.0625000000e-02,  -8.3815790500e-02
    1315,  -7.3750000000e-02,  -8.3815790500e-02
    1316,  -6.2500000000e-02,  -8.3815790500e-02
    1317,  -5.5000000000e-02,  -8.3815790500e-02
    1318,  -5.0000000000e-02,  -8.3815790500e-02
    1319,  -4.5000000000e-02,  -8.3815790500e-02
    1320,  -4.0000000000e-02,  -8.3815790500e-02
    1321,  -3.5000000000e-02,  -8.3815790500e-02
    1322,  -3.0000000000e-02,  -8.3815790500e-02
    1323,  -2.5000000000e-02,  -8.3815790500e-02
    1324,  -2.0000000000e-02,  -8.3815790500e-02
    1325,  -1.5000000000e-02,  -8.3815790500e-02
    1326,  -1.0000000000e-02,  -8.3815790500e-02
    1327,  -5.0000000000e-03,  -8.3815790500e-02
    1328,   0.0000000000e+00,  -8.3815790500e-02
    1329,   5.0000000000e-03,  -8.3815790500e-02
    1330,   1.0000000000e-02,  -8.3815790500e-02
    1331,   1.5000000000e-02,  -8.3815790500e-02
    1332,   2.0000000000e-02,  -8.3815790500e-02
    1333,   2.5000000000e-02,  -8.3815790500e-02
    1334,   3.0000000000e-02,  -8.3815790500e-02
    1335,   3.5000000000e-02,  -8.3815790500e-02
    1336,   4.0000000000e-02,  -8.3815790500e-02
    1337,   4.5000000000e-02,  -8.3815790500e-02
    1338,   5.0000000000e-02,  -8.3815790500e-02
    1339,   5.5000000000e-02,  -8.3815790500e-02
    1340,   6.0000000000e-02,  -8.3815790500e-02
    1341,   6.5000000000e-02,  -8.3815790500e-02
    1342,   7.0000000000e-02,  -8.3815790500e-02
    1343,   7.5000000000e-02,  -8.3815790500e-02
    1344,   8.0000000000e-02,  -8.3815790500e-02
    1345,   8.5000000000e-02,  -8.3815790500e-02
    1346,   9.0000000000e-02,  -8.3815790500e-02
    1347,   9.5000000000e-02,  -8.3815790500e-02
    1348,   1.0000000000e-01,  -8.3815790500e-02
    1349,   1.0500000000e-01,  -8.3815790500e-02
    1350,   1.1000000000e-01,  -8.3815790500e-02
    1351,   1.1500000000e-01,  -8.3815790500e-02
    1352,   1.2250000000e-01,  -8.3815790500e-02
    1353,   1.3375000000e-01,  -8.3815790500e-02
    1354,   1.5062500000e-01,  -8.3815790500e-02
    1355,   1.7562500000e-01,  -8.3815790500e-02
    1356,   2.0057692310e-01,  -8.3815790500e-02
    1357,   2.2552884620e-01,  -8.3815790500e-02
    1358,   2.5048076930e-01,  -8.3815790500e-02
    1359,   2.7543269240e-01,  -8.3815790500e-02
    1360,   3.0038461550e-01,  -8.3815790500e-02
    1361,   3.2533653860e-01,  -8.3815790500e-02
    1362,   3.5028846170e-01,  -8.3815790500e-02
    1363,   3.7524038480e-01,  -8.3815790500e-02
    1364,   4.0019230790e-01,  -8.3815790500e-02
    1365,   4.2514423100e-01,  -8.3815790500e-02
    1366,   4.5009615410e-01,  -8.3815790500e-02
    1367,   4.7504807720e-01,  -8.3815790500e-02
    1368,   5.0000000000e-01,  -8.3815790500e-02
    1369,  -5.0000000000e-01,  -7.6315790500e-02
    1370,  -4.7597656250e-01,  -7.6315790500e-02
    1371,  -4.5195312500e-01,  -7.6315790500e-02
    1372,  -4.2792968750e-01,  -7.6315790500e-02
    1373,  -4.0390625000e-01,  -7.6315790500e-02
    1374,  -3.7988281250e-01,  -7.6315790500e-02
    1375,  -3.5585937500e-01,  -7.6315790500e-02
    1376,  -3.3183593750e-01,  -7.6315790500e-02
    1377,  -3.0781250000e-01,  -7.6315790500e-02
    1378,  -2.8378906250e-01,  -7.6315790500e-02
    1379,  -2.5976562500e-01,  -7.6315790500e-02
    1380,  -2.3574218750e-01,  -7.6315790500e-02
    1381,  -2.1171875000e-01,  -7.6315790500e-02
    1382,  -1.8769531250e-01,  -7.6315790500e-02
    1383,  -1.6367187500e-01,  -7.6315790500e-02
    1384,  -1.3964843750e-01,  -7.6315790500e-02
    1385,  -1.1562500000e-01,  -7.6315790500e-02
    1386,  -9.0625000000e-02,  -7.6315790500e-02
    1387,  -7.3750000000e-02,  -7.6315790500e-02
    1388,  -6.2500000000e-02,  -7.6315790500e-02
    1389,  -5.5000000000e-02,  -7.6315790500e-02
    1390,  -5.0000000000e-02,  -7.6315790500e-02
    1391,  -4.5000000000e-02,  -7.6315790500e-02
    1392,  -4.0000000000e-02,  -7.6315790500e-02
    1393,  -3.5000000000e-02,  -7.6315790500e-02
    1394,  -3.0000000000e-02,  -7.6315790500e-02
    1395,  -2.5000000000e-02,  -7.6315790500e-02
    1396,  -2.0000000000e-02,  -7.6315790500e-02
    1397,  -1.5000000000e-02,  -7.6315790500e-02
    1398,  -1.0000000000e-02,  -7.6315790500e-02
    1399,  -5.0000000000e-03,  -7.6315790500e-02
    1400,   0.0000000000e+00,  -7.6315790500e-02
    1401,   5.0000000000e-03,  -7.6315790500e-02
    1402,   1.0000000000e-02,  -7.6315790500e-02
    1403,   1.5000000000e-02,  -7.6315790500e-02
    1404,   2.0000000000e-02,  -7.6315790500e-02
    1405,   2.5000000000e-02,  -7.6315790500e-02
    1406,   3.0000000000e-02,  -7.6315790500e-02
    1407,   3.5000000000e-02,  -7.6315790500e-02
    1408,   4.0000000000e-02,  -7.6315790500e-02
    1409,   4.5000000000e-02,  -7.6315790500e-02
    1410,   5.0000000000e-02,  -7.6315790500e-02
    1411,   5.5000000000e-02,  -7.6315790500e-02
    1412,   6.0000000000e-02,  -7.6315790500e-02
    1413,   6.5000000000e-02,  -7.6315790500e-02
    1414,   7.0000000000e-02,  -7.6315790500e-02
    1415,   7.5000000000e-02,  -7.6315790500e-02
    1416,   8.0000000000e-02,  -7.6315790500e-02
    1417,   8.5000000000e-02,  -7.6315790500e-02
    1418,   9.0000000000e-02,  -7.6315790500e-02
    1419,   9.5000000000e-02,  -7.6315790500e-02
    1420,   1.0000000000e-01,  -7.6315790500e-02
    1421,   1.0500000000e-01,  -7.6315790500e-02
    1422,   1.1000000000e-01,  -7.6315790500e-02
    1423,   1.1500000000e-01,  -7.6315790500e-02
    1424,   1.2250000000e-01,  -7.6315790500e-02
    1425,   1.3375000000e-01,  -7.6315790500e-02
    1426,   1.5062500000e-01,  -7.6315790500e-02
    1427,   1.7562500000e-01,  -7.6315790500e-02
    1428,   2.0057692310e-01,  -7.6315790500e-02
    1429,   2.2552884620e-01,  -7.6315790500e-02
    1430,   2.5048076930e-01,  -7.6315790500e-02
    1431,   2.7543269240e-01,  -7.6315790500e-02
    1432,   3.0038461550e-01,  -7.6315790500e-02
    1433,   3.2533653860e-01,  -7.6315790500e-02
    1434,   3.5028846170e-01,  -7.6315790500e-02
    1435,   3.7524038480e-01,  -7.6315790500e-02
    1436,   4.0019230790e-01,  -7.6315790500e-02
    1437,   4.2514423100e-01,  -7.6315790500e-02
    1438,   4.5009615410e-01,  -7.6315790500e-02
    1439,   4.7504807720e-01,  -7.6315790500e-02
    1440,   5.0000000000e-01,  -7.6315790500e-02
    1441,  -5.0000000000e-01,  -7.1315790500e-02
    1442,  -4.7597656250e-01,  -7.1315790500e-02
    1443,  -4.5195312500e-01,  -7.1315790500e-02
    1444,  -4.2792968750e-01,  -7.1315790500e-02
    1445,  -4.0390625000e-01,  -7.1315790500e-02
    1446,  -3.7988281250e-01,  -7.1315790500e-02
    1447,  -3.5585937500e-01,  -7.1315790500e-02
    1448,  -3.3183593750e-01,  -7.1315790500e-02
    1449,  -3.0781250000e-01,  -7.1315790500e-02
    1450,  -2.8378906250e-01,  -7.1315790500e-02
    1451,  -2.5976562500e-01,  -7.1315790500e-02
    1452,  -2.3574218750e-01,  -7.1315790500e-02
    1453,  -2.1171875000e-01,  -7.1315790500e-02
    1454,  -1.8769531250e-01,  -7.1315790500e-02
    1455,  -1.6367187500e-01,  -7.1315790500e-02
    1456,  -1.3964843750e-01,  -7.1315790500e-02
    1457,  -1.1562500000e-01,  -7.1315790500e-02
    1458,  -9.0625000000e-02,  -7.1315790500e-02
    1459,  -7.3750000000e-02,  -7.1315790500e-02
    1460,  -6.2500000000e-02,  -7.1315790500e-02
    1461,  -5.5000000000e-02,  -7.1315790500e-02
    1462,  -5.0000000000e-02,  -7.1315790500e-02
    1463,  -4.5000000000e-02,  -7.1315790500e-02
    1464,  -4.0000000000e-02,  -7.1315790500e-02
    1465,  -3.5000000000e-02,  -7.1315790500e-02
    1466,  -3.0000000000e-02,  -7.1315790500e-02
    1467,  -2.5000000000e-02,  -7.1315790500e-02
    1468,  -2.0000000000e-02,  -7.1315790500e-02
    1469,  -1.5000000000e-02,  -7.1315790500e-02
    1470,  -1.0000000000e-02,  -7.1315790500e-02
    1471,  -5.0000000000e-03,  -7.1315790500e-02
    1472,   0.0000000000e+00,  -7.1315790500e-02
    1473,   5.0000000000e-03,  -7.1315790500e-02
    1474,   1.0000000000e-02,  -7.1315790500e-02
    1475,   1.5000000000e-02,  -7.1315790500e-02
    1476,   2.0000000000e-02,  -7.1315790500e-02
    1477,   2.5000000000e-02,  -7.1315790500e-02
    1478,   3.0000000000e-02,  -7.1315790500e-02
    1479,   3.5000000000e-02,  -7.1315790500e-02
    1480,   4.0000000000e-02,  -7.1315790500e-02
    1481,   4.5000000000e-02,  -7.1315790500e-02
    1482,   5.0000000000e-02,  -7.1315790500e-02
    1483,   5.5000000000e-02,  -7.1315790500e-02
    1484,   6.0000000000e-02,  -7.1315790500e-02
    1485,   6.5000000000e-02,  -7.1315790500e-02
    1486,   7.0000000000e-02,  -7.1315790500e-02
    1487,   7.5000000000e-02,  -7.1315790500e-02
    1488,   8.0000000000e-02,  -7.1315790500e-02
    1489,   8.5000000000e-02,  -7.1315790500e-02
    1490,   9.0000000000e-02,  -7.1315790500e-02
    1491,   9.5000000000e-02,  -7.1315790500e-02
    1492,   1.0000000000e-01,  -7.1315790500e-02
    1493,   1.0500000000e-01,  -7.1315790500e-02
    1494,   1.1000000000e-01,  -7.1315790500e-02
    1495,   1.1500000000e-01,  -7.1315790500e-02
    1496,   1.2250000000e-01,  -7.1315790500e-02
    1497,   1.3375000000e-01,  -7.1315790500e-02
    1498,   1.5062500000e-01,  -7.1315790500e-02
    1499,   1.7562500000e-01,  -7.1315790500e-02
    1500,   2.0057692310e-01,  -7.1315790500e-02
    1501,   2.2552884620e-01,  -7.1315790500e-02
    1502,   2.5048076930e-01,  -7.1315790500e-02
    1503,   2.7543269240e-01,  -7.1315790500e-02
    1504,   3.0038461550e-01,  -7.1315790500e-02
    1505,   3.2533653860e-01,  -7.1315790500e-02
    1506,   3.5028846170e-01,  -7.1315790500e-02
    1507,   3.7524038480e-01,  -7.1315790500e-02
    1508,   4.0019230790e-01,  -7.1315790500e-02
    1509,   4.2514423100e-01,  -7.1315790500e-02
    1510,   4.5009615410e-01,  -7.1315790500e-02
    1511,   4.7504807720e-01,  -7.1315790500e-02
    1512,   5.0000000000e-01,  -7.1315790500e-02
    1513,  -5.0000000000e-01,  -6.6375213100e-02
    1514,  -4.7597656250e-01,  -6.6375213100e-02
    1515,  -4.5195312500e-01,  -6.6375213100e-02
    1516,  -4.2792968750e-01,  -6.6375213100e-02
    1517,  -4.0390625000e-01,  -6.6375213100e-02
    1518,  -3.7988281250e-01,  -6.6375213100e-02
    1519,  -3.5585937500e-01,  -6.6375213100e-02
    1520,  -3.3183593750e-01,  -6.6375213100e-02
    1521,  -3.0781250000e-01,  -6.6375213100e-02
    1522,  -2.8378906250e-01,  -6.6375213100e-02
    1523,  -2.5976562500e-01,  -6.6375213100e-02
    1524,  -2.3574218750e-01,  -6.6375213100e-02
    1525,  -2.1171875000e-01,  -6.6375213100e-02
    1526,  -1.8769531250e-01,  -6.6375213100e-02
    1527,  -1.6367187500e-01,  -6.6375213100e-02
    1528,  -1.3964843750e-01,  -6.6375213100e-02
    1529,  -1.1562500000e-01,  -6.6375213100e-02
    1530,  -9.0625000000e-02,  -6.6375213100e-02
    1531,  -7.3750000000e-02,  -6.6375213100e-02
    1532,  -6.2500000000e-02,  -6.6375213100e-02
    1533,  -5.5000000000e-02,  -6.6375213100e-02
    1534,  -5.0000000000e-02,  -6.6375213100e-02
    1535,  -4.5000000000e-02,  -6.6375213100e-02
    1536,  -4.0000000000e-02,  -6.6375213100e-02
    1537,  -3.5000000000e-02,  -6.6375213100e-02
    1538,  -3.0000000000e-02,  -6.6375213100e-02
    1539,  -2.5000000000e-02,  -6.6375213100e-02
    1540,  -2.0000000000e-02,  -6.6375213100e-02
    1541,  -1.5000000000e-02,  -6.6375213100e-02
    1542,  -1.0000000000e-02,  -6.6375213100e-02
    1543,  -5.0000000000e-03,  -6.6375213100e-02
    1544,   0.0000000000e+00,  -6.6375213100e-02
    1545,   5.0000000000e-03,  -6.6375213100e-02
    1546,   1.0000000000e-02,  -6.6375213100e-02
    1547,   1.5000000000e-02,  -6.6375213100e-02
    1548,   2.0000000000e-02,  -6.6375213100e-02
    1549,   2.5000000000e-02,  -6.6375213100e-02
    1550,   3.0000000000e-02,  -6.6375213100e-02
    1551,   3.5000000000e-02,  -6.6375213100e-02
    1552,   4.0000000000e-02,  -6.6375213100e-02
    1553,   4.5000000000e-02,  -6.6375213100e-02
    1554,   5.0000000000e-02,  -6.6375213100e-02
    1555,   5.5000000000e-02,  -6.6375213100e-02
    1556,   6.0000000000e-02,  -6.6375213100e-02
    1557,   6.5000000000e-02,  -6.6375213100e-02
    1558,   7.0000000000e-02,  -6.6375213100e-02
    1559,   7.5000000000e-02,  -6.6375213100e-02
    1560,   8.0000000000e-02,  -6.6375213100e-02
    1561,   8.5000000000e-02,  -6.6375213100e-02
    1562,   9.0000000000e-02,  -6.6375213100e-02
    1563,   9.5000000000e-02,  -6.6375213100e-02
    1564,   1.0000000000e-01,  -6.6375213100e-02
    1565,   1.0500000000e-01,  -6.6375213100e-02
    1566,   1.1000000000e-01,  -6.6375213100e-02
    1567,   1.1500000000e-01,  -6.6375213100e-02
    1568,   1.2250000000e-01,  -6.6375213100e-02
    1569,   1.3375000000e-01,  -6.6375213100e-02
    1570,   1.5062500000e-01,  -6.6375213100e-02
    1571,   1.7562500000e-01,  -6.6375213100e-02
    1572,   2.0057692310e-01,  -6.6375213100e-02
    1573,   2.2552884620e-01,  -6.6375213100e-02
    1574,   2.5048076930e-01,  -6.6375213100e-02
    1575,   2.7543269240e-01,  -6.6375213100e-02
    1576,   3.0038461550e-01,  -6.6375213100e-02
    1577,   3.2533653860e-01,  -6.6375213100e-02
    1578,   3.5028846170e-01,  -6.6375213100e-02
    1579,   3.7524038480e-01,  -6.6375213100e-02
    1580,   4.0019230790e-01,  -6.6375213100e-02
    1581,   4.2514423100e-01,  -6.6375213100e-02
    1582,   4.5009615410e-01,  -6.6375213100e-02
    1583,   4.7504807720e-01,  -6.6375213100e-02
    1584,   5.0000000000e-01,  -6.6375213100e-02
    1585,  -5.0000000000e-01,  -6.1434635700e-02
    1586,  -4.7597656250e-01,  -6.1434635700e-02
    1587,  -4.5195312500e-01,  -6.1434635700e-02
    1588,  -4.2792968750e-01,  -6.1434635700e-02
    1589,  -4.0390625000e-01,  -6.1434635700e-02
    1590,  -3.7988281250e-01,  -6.1434635700e-02
    1591,  -3.5585937500e-01,  -6.1434635700e-02
    1592,  -3.3183593750e-01,  -6.1434635700e-02
    1593,  -3.0781250000e-01,  -6.1434635700e-02
    1594,  -2.8378906250e-01,  -6.1434635700e-02
    1595,  -2.5976562500e-01,  -6.1434635700e-02
    1596,  -2.3574218750e-01,  -6.1434635700e-02
    1597,  -2.1171875000e-01,  -6.1434635700e-02
    1598,  -1.8769531250e-01,  -6.1434635700e-02
    1599,  -1.6367187500e-01,  -6.1434635700e-02
    1600,  -1.3964843750e-01,  -6.1434635700e-02
    1601,  -1.1562500000e-01,  -6.1434635700e-02
    1602,  -9.0625000000e-02,  -6.1434635700e-02
    1603,  -7.3750000000e-02,  -6.1434635700e-02
    1604,  -6.2500000000e-02,  -6.1434635700e-02
    1605,  -5.5000000000e-02,  -6.1434635700e-02
    1606,  -5.0000000000e-02,  -6.1434635700e-02
    1607,  -4.5000000000e-02,  -6.1434635700e-02
    1608,  -4.0000000000e-02,  -6.1434635700e-02
    1609,  -3.5000000000e-02,  -6.1434635700e-02
    1610,  -3.0000000000e-02,  -6.1434635700e-02
    1611,  -2.5000000000e-02,  -6.1434635700e-02
    1612,  -2.0000000000e-02,  -6.1434635700e-02
    1613,  -1.5000000000e-02,  -6.1434635700e-02
    1614,  -1.0000000000e-02,  -6.1434635700e-02
    1615,  -5.0000000000e-03,  -6.1434635700e-02
    1616,   0.0000000000e+00,  -6.1434635700e-02
    1617,   5.0000000000e-03,  -6.1434635700e-02
    1618,   1.0000000000e-02,  -6.1434635700e-02
    1619,   1.5000000000e-02,  -6.1434635700e-02
    1620,   2.0000000000e-02,  -6.1434635700e-02
    1621,   2.5000000000e-02,  -6.1434635700e-02
    1622,   3.0000000000e-02,  -6.1434635700e-02
    1623,   3.5000000000e-02,  -6.1434635700e-02
    1624,   4.0000000000e-02,  -6.1434635700e-02
    1625,   4.5000000000e-02,  -6.1434635700e-02
    1626,   5.0000000000e-02,  -6.1434635700e-02
    1627,   5.5000000000e-02,  -6.1434635700e-02
    1628,   6.0000000000e-02,  -6.1434635700e-02
    1629,   6.5000000000e-02,  -6.1434635700e-02
    1630,   7.0000000000e-02,  -6.1434635700e-02
    1631,   7.5000000000e-02,  -6.1434635700e-02
    1632,   8.0000000000e-02,  -6.1434635700e-02
    1633,   8.5000000000e-02,  -6.1434635700e-02
    1634,   9.0000000000e-02,  -6.1434635700e-02
    1635,   9.5000000000e-02,  -6.1434635700e-02
    1636,   1.0000000000e-01,  -6.1434635700e-02
    1637,   1.0500000000e-01,  -6.1434635700e-02
    1638,   1.1000000000e-01,  -6.1434635700e-02
    1639,   1.1500000000e-01,  -6.1434635700e-02
    1640,   1.2250000000e-01,  -6.1434635700e-02
    1641,   1.3375000000e-01,  -6.1434635700e-02
    1642,   1.5062500000e-01,  -6.1434635700e-02
    1643,   1.7562500000e-01,  -6.1434635700e-02
    1644,   2.0057692310e-01,  -6.1434635700e-02
    1645,   2.2552884620e-01,  -6.1434635700e-02
    1646,   2.5048076930e-01,  -6.1434635700e-02
    1647,   2.7543269240e-01,  -6.1434635700e-02
    1648,   3.0038461550e-01,  -6.1434635700e-02
    1649,   3.2533653860e-01,  -6.1434635700e-02
    1650,   3.5028846170e-01,  -6.1434635700e-02
    1651,   3.7524038480e-01,  -6.1434635700e-02
    1652,   4.0019230790e-01,  -6.1434635700e-02
    1653,   4.2514423100e-01,  -6.1434635700e-02
    1654,   4.5009615410e-01,  -6.1434635700e-02
    1655,   4.7504807720e-01,  -6.1434635700e-02
    1656,   5.0000000000e-01,  -6.1434635700e-02
    1657,  -5.0000000000e-01,  -5.6494058300e-02
    1658,  -4.7597656250e-01,  -5.6494058300e-02
    1659,  -4.5195312500e-01,  -5.6494058300e-02
    1660,  -4.2792968750e-01,  -5.6494058300e-02
    1661,  -4.0390625000e-01,  -5.6494058300e-02
    1662,  -3.7988281250e-01,  -5.6494058300e-02
    1663,  -3.5585937500e-01,  -5.6494058300e-02
    1664,  -3.3183593750e-01,  -5.6494058300e-02
    1665,  -3.0781250000e-01,  -5.6494058300e-02
    1666,  -2.8378906250e-01,  -5.6494058300e-02
    1667,  -2.5976562500e-01,  -5.6494058300e-02
    1668,  -2.3574218750e-01,  -5.6494058300e-02
    1669,  -2.1171875000e-01,  -5.6494058300e-02
    1670,  -1.8769531250e-01,  -5.6494058300e-02
    1671,  -1.6367187500e-01,  -5.6494058300e-02
    1672,  -1.3964843750e-01,  -5.6494058300e-02
    1673,  -1.1562500000e-01,  -5.6494058300e-02
    1674,  -9.0625000000e-02,  -5.6494058300e-02
    1675,  -7.3750000000e-02,  -5.6494058300e-02
    1676,  -6.2500000000e-02,  -5.6494058300e-02
    1677,  -5.5000000000e-02,  -5.6494058300e-02
    1678,  -5.0000000000e-02,  -5.6494058300e-02
    1679,  -4.5000000000e-02,  -5.6494058300e-02
    1680,  -4.0000000000e-02,  -5.6494058300e-02
    1681,  -3.5000000000e-02,  -5.6494058300e-02
    1682,  -3.0000000000e-02,  -5.6494058300e-02
    1683,  -2.5000000000e-02,  -5.6494058300e-02
    1684,  -2.0000000000e-02,  -5.6494058300e-02
    1685,  -1.5000000000e-02,  -5.6494058300e-02
    1686,  -1.0000000000e-02,  -5.6494058300e-02
    1687,  -5.0000000000e-03,  -5.6494058300e-02
    1688,   0.0000000000e+00,  -5.6494058300e-02
    1689,   5.0000000000e-03,  -5.6494058300e-02
    1690,   1.0000000000e-02,  -5.6494058300e-02
    1691,   1.5000000000e-02,  -5.6494058300e-02
    1692,   2.0000000000e-02,  -5.6494058300e-02
    1693,   2.5000000000e-02,  -5.6494058300e-02
    1694,   3.0000000000e-02,  -5.6494058300e-02
    1695,   3.5000000000e-02,  -5.6494058300e-02
    1696,   4.0000000000e-02,  -5.6494058300e-02
    1697,   4.5000000000e-02,  -5.6494058300e-02
    1698,   5.0000000000e-02,  -5.6494058300e-02
    1699,   5.5000000000e-02,  -5.6494058300e-02
    1700,   6.0000000000e-02,  -5.6494058300e-02
    1701,   6.5000000000e-02,  -5.6494058300e-02
    1702,   7.0000000000e-02,  -5.6494058300e-02
    1703,   7.5000000000e-02,  -5.6494058300e-02
    1704,   8.0000000000e-02,  -5.6494058300e-02
    1705,   8.5000000000e-02,  -5.6494058300e-02
    1706,   9.0000000000e-02,  -5.6494058300e-02
    1707,   9.5000000000e-02,  -5.6494058300e-02
    1708,   1.0000000000e-01,  -5.6494058300e-02
    1709,   1.0500000000e-01,  -5.6494058300e-02
    1710,   1.1000000000e-01,  -5.6494058300e-02
    1711,   1.1500000000e-01,  -5.6494058300e-02
    1712,   1.2250000000e-01,  -5.6494058300e-02
    1713,   1.3375000000e-01,  -5.6494058300e-02
    1714,   1.5062500000e-01,  -5.6494058300e-02
    1715,   1.7562500000e-01,  -5.6494058300e-02
    1716,   2.0057692310e-01,  -5.6494058300e-02
    1717,   2.2552884620e-01,  -5.6494058300e-02
    1718,   2.5048076930e-01,  -5.6494058300e-02
    1719,   2.7543269240e-01,  -5.6494058300e-02
    1720,   3.0038461550e-01,  -5.6494058300e-02
    1721,   3.2533653860e-01,  -5.6494058300e-02
    1722,   3.5028846170e-01,  -5.6494058300e-02
    1723,   3.7524038480e-01,  -5.6494058300e-02
    1724,   4.0019230790e-01,  -5.6494058300e-02
    1725,   4.2514423100e-01,  -5.6494058300e-02
    1726,   4.5009615410e-01,  -5.6494058300e-02
    1727,   4.7504807720e-01,  -5.6494058300e-02
    1728,   5.0000000000e-01,  -5.6494058300e-02
    1729,  -5.0000000000e-01,  -5.1553480900e-02
    1730,  -4.7597656250e-01,  -5.1553480900e-02
    1731,  -4.5195312500e-01,  -5.1553480900e-02
    1732,  -4.2792968750e-01,  -5.1553480900e-02
    1733,  -4.0390625000e-01,  -5.1553480900e-02
    1734,  -3.7988281250e-01,  -5.1553480900e-02
    1735,  -3.5585937500e-01,  -5.1553480900e-02
    1736,  -3.3183593750e-01,  -5.1553480900e-02
    1737,  -3.0781250000e-01,  -5.1553480900e-02
    1738,  -2.8378906250e-01,  -5.1553480900e-02
    1739,  -2.5976562500e-01,  -5.1553480900e-02
    1740,  -2.3574218750e-01,  -5.1553480900e-02
    1741,  -2.1171875000e-01,  -5.1553480900e-02
    1742,  -1.8769531250e-01,  -5.1553480900e-02
    1743,  -1.6367187500e-01,  -5.1553480900e-02
    1744,  -1.3964843750e-01,  -5.1553480900e-02
    1745,  -1.1562500000e-01,  -5.1553480900e-02
    1746,  -9.0625000000e-02,  -5.1553480900e-02
    1747,  -7.3750000000e-02,  -5.1553480900e-02
    1748,  -6.2500000000e-02,  -5.1553480900e-02
    1749,  -5.5000000000e-02,  -5.1553480900e-02
    1750,  -5.0000000000e-02,  -5.1553480900e-02
    1751,  -4.5000000000e-02,  -5.1553480900e-02
    1752,  -4.0000000000e-02,  -5.1553480900e-02
    1753,  -3.5000000000e-02,  -5.1553480900e-02
    1754,  -3.0000000000e-02,  -5.1553480900e-02
    1755,  -2.5000000000e-02,  -5.1553480900e-02
    1756,  -2.0000000000e-02,  -5.1553480900e-02
    1757,  -1.5000000000e-02,  -5.1553480900e-02
    1758,  -1.0000000000e-02,  -5.1553480900e-02
    1759,  -5.0000000000e-03,  -5.1553480900e-02
    1760,   0.0000000000e+00,  -5.1553480900e-02
    1761,   5.0000000000e-03,  -5.1553480900e-02
    1762,   1.0000000000e-02,  -5.1553480900e-02
    1763,   1.5000000000e-02,  -5.1553480900e-02
    1764,   2.0000000000e-02,  -5.1553480900e-02
    1765,   2.5000000000e-02,  -5.1553480900e-02
    1766,   3.0000000000e-02,  -5.1553480900e-02
    1767,   3.5000000000e-02,  -5.1553480900e-02
    1768,   4.0000000000e-02,  -5.1553480900e-02
    1769,   4.5000000000e-02,  -5.1553480900e-02
    1770,   5.0000000000e-02,  -5.1553480900e-02
    1771,   5.5000000000e-02,  -5.1553480900e-02
    1772,   6.0000000000e-02,  -5.1553480900e-02
    1773,   6.5000000000e-02,  -5.1553480900e-02
    1774,   7.0000000000e-02,  -5.1553480900e-02
    1775,   7.5000000000e-02,  -5.1553480900e-02
    1776,   8.0000000000e-02,  -5.1553480900e-02
    1777,   8.5000000000e-02,  -5.1553480900e-02
    1778,   9.0000000000e-02,  -5.1553480900e-02
    1779,   9.5000000000e-02,  -5.1553480900e-02
    1780,   1.0000000000e-01,  -5.1553480900e-02
    1781,   1.0500000000e-01,  -5.1553480900e-02
    1782,   1.1000000000e-01,  -5.1553480900e-02
    1783,   1.1500000000e-01,  -5.1553480900e-02
    1784,   1.2250000000e-01,  -5.1553480900e-02
    1785,   1.3375000000e-01,  -5.1553480900e-02
    1786,   1.5062500000e-01,  -5.1553480900e-02
    1787,   1.7562500000e-01,  -5.1553480900e-02
    1788,   2.0057692310e-01,  -5.1553480900e-02
    1789,   2.2552884620e-01,  -5.1553480900e-02
    1790,   2.5048076930e-01,  -5.1553480900e-02
    1791,   2.7543269240e-01,  -5.1553480900e-02
    1792,   3.0038461550e-01,  -5.1553480900e-02
    1793,   3.2533653860e-01,  -5.1553480900e-02
    1794,   3.5028846170e-01,  -5.1553480900e-02
    1795,   3.7524038480e-01,  -5.1553480900e-02
    1796,   4.0019230790e-01,  -5.1553480900e-02
    1797,   4.2514423100e-01,  -5.1553480900e-02
    1798,   4.5009615410e-01,  -5.1553480900e-02
    1799,   4.7504807720e-01,  -5.1553480900e-02
    1800,   5.0000000000e-01,  -5.1553480900e-02
    1801,  -5.0000000000e-01,  -4.6612903500e-02
    1802,  -4.7597656250e-01,  -4.6612903500e-02
    1803,  -4.5195312500e-01,  -4.6612903500e-02
    1804,  -4.2792968750e-01,  -4.6612903500e-02
    1805,  -4.0390625000e-01,  -4.6612903500e-02
    1806,  -3.7988281250e-01,  -4.6612903500e-02
    1807,  -3.5585937500e-01,  -4.6612903500e-02
    1808,  -3.3183593750e-01,  -4.6612903500e-02
    1809,  -3.0781250000e-01,  -4.6612903500e-02
    1810,  -2.8378906250e-01,  -4.6612903500e-02
    1811,  -2.5976562500e-01,  -4.6612903500e-02
    1812,  -2.3574218750e-01,  -4.6612903500e-02
    1813,  -2.1171875000e-01,  -4.6612903500e-02
    1814,  -1.8769531250e-01,  -4.6612903500e-02
    1815,  -1.6367187500e-01,  -4.6612903500e-02
    1816,  -1.3964843750e-01,  -4.6612903500e-02
    1817,  -1.1562500000e-01,  -4.6612903500e-02
    1818,  -9.0625000000e-02,  -4.6612903500e-02
    1819,  -7.3750000000e-02,  -4.6612903500e-02
    1820,  -6.2500000000e-02,  -4.6612903500e-02
    1821,  -5.5000000000e-02,  -4.6612903500e-02
    1822,  -5.0000000000e-02,  -4.6612903500e-02
    1823,  -4.5000000000e-02,  -4.6612903500e-02
    1824,  -4.0000000000e-02,  -4.6612903500e-02
    1825,  -3.5000000000e-02,  -4.6612903500e-02
    1826,  -3.0000000000e-02,  -4.6612903500e-02
    1827,  -2.5000000000e-02,  -4.6612903500e-02
    1828,  -2.0000000000e-02,  -4.6612903500e-02
    1829,  -1.5000000000e-02,  -4.6612903500e-02
    1830,  -1.0000000000e-02,  -4.6612903500e-02
    1831,  -5.0000000000e-03,  -4.6612903500e-02
    1832,   0.0000000000e+00,  -4.6612903500e-02
    1833,   5.0000000000e-03,  -4.6612903500e-02
    1834,   1.0000000000e-02,  -4.6612903500e-02
    1835,   1.5000000000e-02,  -4.6612903500e-02
    1836,   2.0000000000e-02,  -4.6612903500e-02
    1837,   2.5000000000e-02,  -4.6612903500e-02
    1838,   3.0000000000e-02,  -4.6612903500e-02
    1839,   3.5000000000e-02,  -4.6612903500e-02
    1840,   4.0000000000e-02,  -4.6612903500e-02
    1841,   4.5000000000e-02,  -4.6612903500e-02
    1842,   5.0000000000e-02,  -4.6612903500e-02
    1843,   5.5000000000e-02,  -4.6612903500e-02
    1844,   6.0000000000e-02,  -4.6612903500e-02
    1845,   6.5000000000e-02,  -4.6612903500e-02
    1846,   7.0000000000e-02,  -4.6612903500e-02
    1847,   7.5000000000e-02,  -4.6612903500e-02
    1848,   8.0000000000e-02,  -4.6612903500e-02
    1849,   8.5000000000e-02,  -4.6612903500e-02
    1850,   9.0000000000e-02,  -4.6612903500e-02
    1851,   9.5000000000e-02,  -4.6612903500e-02
    1852,   1.0000000000e-01,  -4.6612903500e-02
    1853,   1.0500000000e-01,  -4.6612903500e-02
    1854,   1.1000000000e-01,  -4.6612903500e-02
    1855,   1.1500000000e-01,  -4.6612903500e-02
    1856,   1.2250000000e-01,  -4.6612903500e-02
    1857,   1.3375000000e-01,  -4.6612903500e-02
    1858,   1.5062500000e-01,  -4.6612903500e-02
    1859,   1.7562500000e-01,  -4.6612903500e-02
    1860,   2.0057692310e-01,  -4.6612903500e-02
    1861,   2.2552884620e-01,  -4.6612903500e-02
    1862,   2.5048076930e-01,  -4.6612903500e-02
    1863,   2.7543269240e-01,  -4.6612903500e-02
    1864,   3.0038461550e-01,  -4.6612903500e-02
    1865,   3.2533653860e-01,  -4.6612903500e-02
    1866,   3.5028846170e-01,  -4.6612903500e-02
    1867,   3.7524038480e-01,  -4.6612903500e-02
    1868,   4.0019230790e-01,  -4.6612903500e-02
    1869,   4.2514423100e-01,  -4.6612903500e-02
    1870,   4.5009615410e-01,  -4.6612903500e-02
    1871,   4.7504807720e-01,  -4.6612903500e-02
    1872,   5.0000000000e-01,  -4.6612903500e-02
    1873,  -5.0000000000e-01,  -4.1672326100e-02
    1874,  -4.7597656250e-01,  -4.1672326100e-02
    1875,  -4.5195312500e-01,  -4.1672326100e-02
    1876,  -4.2792968750e-01,  -4.1672326100e-02
    1877,  -4.0390625000e-01,  -4.1672326100e-02
    1878,  -3.7988281250e-01,  -4.1672326100e-02
    1879,  -3.5585937500e-01,  -4.1672326100e-02
    1880,  -3.3183593750e-01,  -4.1672326100e-02
    1881,  -3.0781250000e-01,  -4.1672326100e-02
    1882,  -2.8378906250e-01,  -4.1672326100e-02
    1883,  -2.5976562500e-01,  -4.1672326100e-02
    1884,  -2.3574218750e-01,  -4.1672326100e-02
    1885,  -2.1171875000e-01,  -4.1672326100e-02
    1886,  -1.8769531250e-01,  -4.1672326100e-02
    1887,  -1.6367187500e-01,  -4.1672326100e-02
    1888,  -1.3964843750e-01,  -4.1672326100e-02
    1889,  -1.1562500000e-01,  -4.1672326100e-02
    1890,  -9.0625000000e-02,  -4.1672326100e-02
    1891,  -7.3750000000e-02,  -4.1672326100e-02
    1892,  -6.2500000000e-02,  -4.1672326100e-02
    1893,  -5.5000000000e-02,  -4.1672326100e-02
    1894,  -5.0000000000e-02,  -4.1672326100e-02
    1895,  -4.5000000000e-02,  -4.1672326100e-02
    1896,  -4.0000000000e-02,  -4.1672326100e-02
    1897,  -3.5000000000e-02,  -4.1672326100e-02
    1898,  -3.0000000000e-02,  -4.1672326100e-02
    1899,  -2.5000000000e-02,  -4.1672326100e-02
    1900,  -2.0000000000e-02,  -4.1672326100e-02
    1901,  -1.5000000000e-02,  -4.1672326100e-02
    1902,  -1.0000000000e-02,  -4.1672326100e-02
    1903,  -5.0000000000e-03,  -4.1672326100e-02
    1904,   0.0000000000e+00,  -4.1672326100e-02
    1905,   5.0000000000e-03,  -4.1672326100e-02
    1906,   1.0000000000e-02,  -4.1672326100e-02
    1907,   1.5000000000e-02,  -4.1672326100e-02
    1908,   2.0000000000e-02,  -4.1672326100e-02
    1909,   2.5000000000e-02,  -4.1672326100e-02
    1910,   3.0000000000e-02,  -4.1672326100e-02
    1911,   3.5000000000e-02,  -4.1672326100e-02
    1912,   4.0000000000e-02,  -4.1672326100e-02
    1913,   4.5000000000e-02,  -4.1672326100e-02
    1914,   5.0000000000e-02,  -4.1672326100e-02
    1915,   5.5000000000e-02,  -4.1672326100e-02
    1916,   6.0000000000e-02,  -4.1672326100e-02
    1917,   6.5000000000e-02,  -4.1672326100e-02
    1918,   7.0000000000e-02,  -4.1672326100e-02
    1919,   7.5000000000e-02,  -4.1672326100e-02
    1920,   8.0000000000e-02,  -4.1672326100e-02
    1921,   8.5000000000e-02,  -4.1672326100e-02
    1922,   9.0000000000e-02,  -4.1672326100e-02
    1923,   9.5000000000e-02,  -4.1672326100e-02
    1924,   1.0000000000e-01,  -4.1672326100e-02
    1925,   1.0500000000e-01,  -4.1672326100e-02
    1926,   1.1000000000e-01,  -4.1672326100e-02
    1927,   1.1500000000e-01,  -4.1672326100e-02
    1928,   1.2250000000e-01,  -4.1672326100e-02
    1929,   1.3375000000e-01,  -4.1672326100e-02
    1930,   1.5062500000e-01,  -4.1672326100e-02
    1931,   1.7562500000e-01,  -4.1672326100e-02
    1932,   2.0057692310e-01,  -4.1672326100e-02
    1933,   2.2552884620e-01,  -4.1672326100e-02
    1934,   2.5048076930e-01,  -4.1672326100e-02
    1935,   2.7543269240e-01,  -4.1672326100e-02
    1936,   3.0038461550e-01,  -4.1672326100e-02
    1937,   3.2533653860e-01,  -4.1672326100e-02
    1938,   3.5028846170e-01,  -4.1672326100e-02
    1939,   3.7524038480e-01,  -4.1672326100e-02
    1940,   4.0019230790e-01,  -4.1672326100e-02
    1941,   4.2514423100e-01,  -4.1672326100e-02
    1942,   4.5009615410e-01,  -4.1672326100e-02
    1943,   4.7504807720e-01,  -4.1672326100e-02
    1944,   5.0000000000e-01,  -4.1672326100e-02
    1945,  -5.0000000000e-01,  -3.6731748700e-02
    1946,  -4.7597656250e-01,  -3.6731748700e-02
    1947,  -4.5195312500e-01,  -3.6731748700e-02
    1948,  -4.2792968750e-01,  -3.6731748700e-02
    1949,  -4.0390625000e-01,  -3.6731748700e-02
    1950,  -3.7988281250e-01,  -3.6731748700e-02
    1951,  -3.5585937500e-01,  -3.6731748700e-02
    1952,  -3.3183593750e-01,  -3.6731748700e-02
    1953,  -3.0781250000e-01,  -3.6731748700e-02
    1954,  -2.8378906250e-01,  -3.6731748700e-02
    1955,  -2.5976562500e-01,  -3.6731748700e-02
    1956,  -2.3574218750e-01,  -3.6731748700e-02
    1957,  -2.1171875000e-01,  -3.6731748700e-02
    1958,  -1.8769531250e-01,  -3.6731748700e-02
    1959,  -1.6367187500e-01,  -3.6731748700e-02
    1960,  -1.3964843750e-01,  -3.6731748700e-02
    1961,  -1.1562500000e-01,  -3.6731748700e-02
    1962,  -9.0625000000e-02,  -3.6731748700e-02
    1963,  -7.3750000000e-02,  -3.6731748700e-02
    1964,  -6.2500000000e-02,  -3.6731748700e-02
    1965,  -5.5000000000e-02,  -3.6731748700e-02
    1966,  -5.0000000000e-02,  -3.6731748700e-02
    1967,  -4.5000000000e-02,  -3.6731748700e-02
    1968,  -4.0000000000e-02,  -3.6731748700e-02
    1969,  -3.5000000000e-02,  -3.6731748700e-02
    1970,  -3.0000000000e-02,  -3.6731748700e-02
    1971,  -2.5000000000e-02,  -3.6731748700e-02
    1972,  -2.0000000000e-02,  -3.6731748700e-02
    1973,  -1.5000000000e-02,  -3.6731748700e-02
    1974,  -1.0000000000e-02,  -3.6731748700e-02
    1975,  -5.0000000000e-03,  -3.6731748700e-02
    1976,   0.0000000000e+00,  -3.6731748700e-02
    1977,   5.0000000000e-03,  -3.6731748700e-02
    1978,   1.0000000000e-02,  -3.6731748700e-02
    1979,   1.5000000000e-02,  -3.6731748700e-02
    1980,   2.0000000000e-02,  -3.6731748700e-02
    1981,   2.5000000000e-02,  -3.6731748700e-02
    1982,   3.0000000000e-02,  -3.6731748700e-02
    1983,   3.5000000000e-02,  -3.6731748700e-02
    1984,   4.0000000000e-02,  -3.6731748700e-02
    1985,   4.5000000000e-02,  -3.6731748700e-02
    1986,   5.0000000000e-02,  -3.6731748700e-02
    1987,   5.5000000000e-02,  -3.6731748700e-02
    1988,   6.0000000000e-02,  -3.6731748700e-02
    1989,   6.5000000000e-02,  -3.6731748700e-02
    1990,   7.0000000000e-02,  -3.6731748700e-02
    1991,   7.5000000000e-02,  -3.6731748700e-02
    1992,   8.0000000000e-02,  -3.6731748700e-02
    1993,   8.5000000000e-02,  -3.6731748700e-02
    1994,   9.0000000000e-02,  -3.6731748700e-02
    1995,   9.5000000000e-02,  -3.6731748700e-02
    1996,   1.0000000000e-01,  -3.6731748700e-02
    1997,   1.0500000000e-01,  -3.6731748700e-02
    1998,   1.1000000000e-01,  -3.6731748700e-02
    1999,   1.1500000000e-01,  -3.6731748700e-02
    2000,   1.2250000000e-01,  -3.6731748700e-02
    2001,   1.3375000000e-01,  -3.6731748700e-02
    2002,   1.5062500000e-01,  -3.6731748700e-02
    2003,   1.7562500000e-01,  -3.6731748700e-02
    2004,   2.0057692310e-01,  -3.6731748700e-02
    2005,   2.2552884620e-01,  -3.6731748700e-02
    2006,   2.5048076930e-01,  -3.6731748700e-02
    2007,   2.7543269240e-01,  -3.6731748700e-02
    2008,   3.0038461550e-01,  -3.6731748700e-02
    2009,   3.2533653860e-01,  -3.6731748700e-02
    2010,   3.5028846170e-01,  -3.6731748700e-02
    2011,   3.7524038480e-01,  -3.6731748700e-02
    2012,   4.0019230790e-01,  -3.6731748700e-02
    2013,   4.2514423100e-01,  -3.6731748700e-02
    2014,   4.5009615410e-01,  -3.6731748700e-02
    2015,   4.7504807720e-01,  -3.6731748700e-02
    2016,   5.0000000000e-01,  -3.6731748700e-02
    2017,  -5.0000000000e-01,  -3.1791171300e-02
    2018,  -4.7597656250e-01,  -3.1791171300e-02
    2019,  -4.5195312500e-01,  -3.1791171300e-02
    2020,  -4.2792968750e-01,  -3.1791171300e-02
    2021,  -4.0390625000e-01,  -3.1791171300e-02
    2022,  -3.7988281250e-01,  -3.1791171300e-02
    2023,  -3.5585937500e-01,  -3.1791171300e-02
    2024,  -3.3183593750e-01,  -3.1791171300e-02
    2025,  -3.0781250000e-01,  -3.1791171300e-02
    2026,  -2.8378906250e-01,  -3.1791171300e-02
    2027,  -2.5976562500e-01,  -3.1791171300e-02
    2028,  -2.3574218750e-01,  -3.1791171300e-02
    2029,  -2.1171875000e-01,  -3.1791171300e-02
    2030,  -1.8769531250e-01,  -3.1791171300e-02
    2031,  -1.6367187500e-01,  -3.1791171300e-02
    2032,  -1.3964843750e-01,  -3.1791171300e-02
    2033,  -1.1562500000e-01,  -3.1791171300e-02
    2034,  -9.0625000000e-02,  -3.1791171300e-02
    2035,  -7.3750000000e-02,  -3.1791171300e-02
    2036,  -6.2500000000e-02,  -3.1791171300e-02
    2037,  -5.5000000000e-02,  -3.1791171300e-02
    2038,  -5.0000000000e-02,  -3.1791171300e-02
    2039,  -4.5000000000e-02,  -3.1791171300e-02
    2040,  -4.0000000000e-02,  -3.1791171300e-02
    2041,  -3.5000000000e-02,  -3.1791171300e-02
    2042,  -3.0000000000e-02,  -3.1791171300e-02
    2043,  -2.5000000000e-02,  -3.1791171300e-02
    2044,  -2.0000000000e-02,  -3.1791171300e-02
    2045,  -1.5000000000e-02,  -3.1791171300e-02
    2046,  -1.0000000000e-02,  -3.1791171300e-02
    2047,  -5.0000000000e-03,  -3.1791171300e-02
    2048,   0.0000000000e+00,  -3.1791171300e-02
    2049,   5.0000000000e-03,  -3.1791171300e-02
    2050,   1.0000000000e-02,  -3.1791171300e-02
    2051,   1.5000000000e-02,  -3.1791171300e-02
    2052,   2.0000000000e-02,  -3.1791171300e-02
    2053,   2.5000000000e-02,  -3.1791171300e-02
    2054,   3.0000000000e-02,  -3.1791171300e-02
    2055,   3.5000000000e-02,  -3.1791171300e-02
    2056,   4.0000000000e-02,  -3.1791171300e-02
    2057,   4.5000000000e-02,  -3.1791171300e-02
    2058,   5.0000000000e-02,  -3.1791171300e-02
    2059,   5.5000000000e-02,  -3.1791171300e-02
    2060,   6.0000000000e-02,  -3.1791171300e-02
    2061,   6.5000000000e-02,  -3.1791171300e-02
    2062,   7.0000000000e-02,  -3.1791171300e-02
    2063,   7.5000000000e-02,  -3.1791171300e-02
    2064,   8.0000000000e-02,  -3.1791171300e-02
    2065,   8.5000000000e-02,  -3.1791171300e-02
    2066,   9.0000000000e-02,  -3.1791171300e-02
    2067,   9.5000000000e-02,  -3.1791171300e-02
    2068,   1.0000000000e-01,  -3.1791171300e-02
    2069,   1.0500000000e-01,  -3.1791171300e-02
    2070,   1.1000000000e-01,  -3.1791171300e-02
    2071,   1.1500000000e-01,  -3.1791171300e-02
    2072,   1.2250000000e-01,  -3.1791171300e-02
    2073,   1.3375000000e-01,  -3.1791171300e-02
    2074,   1.5062500000e-01,  -3.1791171300e-02
    2075,   1.7562500000e-01,  -3.1791171300e-02
    2076,   2.0057692310e-01,  -3.1791171300e-02
    2077,   2.2552884620e-01,  -3.1791171300e-02
    2078,   2.5048076930e-01,  -3.1791171300e-02
    2079,   2.7543269240e-01,  -3.1791171300e-02
    2080,   3.0038461550e-01,  -3.1791171300e-02
    2081,   3.2533653860e-01,  -3.1791171300e-02
    2082,   3.5028846170e-01,  -3.1791171300e-02
    2083,   3.7524038480e-01,  -3.1791171300e-02
    2084,   4.0019230790e-01,  -3.1791171300e-02
    2085,   4.2514423100e-01,  -3.1791171300e-02
    2086,   4.5009615410e-01,  -3.1791171300e-02
    2087,   4.7504807720e-01,  -3.1791171300e-02
    2088,   5.0000000000e-01,  -3.1791171300e-02
    2089,  -5.0000000000e-01,  -2.6850593900e-02
    2090,  -4.7597656250e-01,  -2.6850593900e-02
    2091,  -4.5195312500e-01,  -2.6850593900e-02
    2092,  -4.2792968750e-01,  -2.6850593900e-02
    2093,  -4.0390625000e-01,  -2.6850593900e-02
    2094,  -3.7988281250e-01,  -2.6850593900e-02
    2095,  -3.5585937500e-01,  -2.6850593900e-02
    2096,  -3.3183593750e-01,  -2.6850593900e-02
    2097,  -3.0781250000e-01,  -2.6850593900e-02
    2098,  -2.8378906250e-01,  -2.6850593900e-02
    2099,  -2.5976562500e-01,  -2.6850593900e-02
    2100,  -2.3574218750e-01,  -2.6850593900e-02
    2101,  -2.1171875000e-01,  -2.6850593900e-02
    2102,  -1.8769531250e-01,  -2.6850593900e-02
    2103,  -1.6367187500e-01,  -2.6850593900e-02
    2104,  -1.3964843750e-01,  -2.6850593900e-02
    2105,  -1.1562500000e-01,  -2.6850593900e-02
    2106,  -9.0625000000e-02,  -2.6850593900e-02
    2107,  -7.3750000000e-02,  -2.6850593900e-02
    2108,  -6.2500000000e-02,  -2.6850593900e-02
    2109,  -5.5000000000e-02,  -2.6850593900e-02
    2110,  -5.0000000000e-02,  -2.6850593900e-02
    2111,  -4.5000000000e-02,  -2.6850593900e-02
    2112,  -4.0000000000e-02,  -2.6850593900e-02
    2113,  -3.5000000000e-02,  -2.6850593900e-02
    2114,  -3.0000000000e-02,  -2.6850593900e-02
    2115,  -2.5000000000e-02,  -2.6850593900e-02
    2116,  -2.0000000000e-02,  -2.6850593900e-02
    2117,  -1.5000000000e-02,  -2.6850593900e-02
    2118,  -1.0000000000e-02,  -2.6850593900e-02
    2119,  -5.0000000000e-03,  -2.6850593900e-02
    2120,   0.0000000000e+00,  -2.6850593900e-02
    2121,   5.0000000000e-03,  -2.6850593900e-02
    2122,   1.0000000000e-02,  -2.6850593900e-02
    2123,   1.5000000000e-02,  -2.6850593900e-02
    2124,   2.0000000000e-02,  -2.6850593900e-02
    2125,   2.5000000000e-02,  -2.6850593900e-02
    2126,   3.0000000000e-02,  -2.6850593900e-02
    2127,   3.5000000000e-02,  -2.6850593900e-02
    2128,   4.0000000000e-02,  -2.6850593900e-02
    2129,   4.5000000000e-02,  -2.6850593900e-02
    2130,   5.0000000000e-02,  -2.6850593900e-02
    2131,   5.5000000000e-02,  -2.6850593900e-02
    2132,   6.0000000000e-02,  -2.6850593900e-02
    2133,   6.5000000000e-02,  -2.6850593900e-02
    2134,   7.0000000000e-02,  -2.6850593900e-02
    2135,   7.5000000000e-02,  -2.6850593900e-02
    2136,   8.0000000000e-02,  -2.6850593900e-02
    2137,   8.5000000000e-02,  -2.6850593900e-02
    2138,   9.0000000000e-02,  -2.6850593900e-02
    2139,   9.5000000000e-02,  -2.6850593900e-02
    2140,   1.0000000000e-01,  -2.6850593900e-02
    2141,   1.0500000000e-01,  -2.6850593900e-02
    2142,   1.1000000000e-01,  -2.6850593900e-02
    2143,   1.1500000000e-01,  -2.6850593900e-02
    2144,   1.2250000000e-01,  -2.6850593900e-02
    2145,   1.3375000000e-01,  -2.6850593900e-02
    2146,   1.5062500000e-01,  -2.6850593900e-02
    2147,   1.7562500000e-01,  -2.6850593900e-02
    2148,   2.0057692310e-01,  -2.6850593900e-02
    2149,   2.2552884620e-01,  -2.6850593900e-02
    2150,   2.5048076930e-01,  -2.6850593900e-02
    2151,   2.7543269240e-01,  -2.6850593900e-02
    2152,   3.0038461550e-01,  -2.6850593900e-02
    2153,   3.2533653860e-01,  -2.6850593900e-02
    2154,   3.5028846170e-01,  -2.6850593900e-02
    2155,   3.7524038480e-01,  -2.6850593900e-02
    2156,   4.0019230790e-01,  -2.6850593900e-02
    2157,   4.2514423100e-01,  -2.6850593900e-02
    2158,   4.5009615410e-01,  -2.6850593900e-02
    2159,   4.7504807720e-01,  -2.6850593900e-02
    2160,   5.0000000000e-01,  -2.6850593900e-02
    2161,  -5.0000000000e-01,  -2.1910016500e-02
    2162,  -4.7597656250e-01,  -2.1910016500e-02
    2163,  -4.5195312500e-01,  -2.1910016500e-02
    2164,  -4.2792968750e-01,  -2.1910016500e-02
    2165,  -4.0390625000e-01,  -2.1910016500e-02
    2166,  -3.7988281250e-01,  -2.1910016500e-02
    2167,  -3.5585937500e-01,  -2.1910016500e-02
    2168,  -3.3183593750e-01,  -2.1910016500e-02
    2169,  -3.0781250000e-01,  -2.1910016500e-02
    2170,  -2.8378906250e-01,  -2.1910016500e-02
    2171,  -2.5976562500e-01,  -2.1910016500e-02
    2172,  -2.3574218750e-01,  -2.1910016500e-02
    2173,  -2.1171875000e-01,  -2.1910016500e-02
    2174,  -1.8769531250e-01,  -2.1910016500e-02
    2175,  -1.6367187500e-01,  -2.1910016500e-02
    2176,  -1.3964843750e-01,  -2.1910016500e-02
    2177,  -1.1562500000e-01,  -2.1910016500e-02
    2178,  -9.0625000000e-02,  -2.1910016500e-02
    2179,  -7.3750000000e-02,  -2.1910016500e-02
    2180,  -6.2500000000e-02,  -2.1910016500e-02
    2181,  -5.5000000000e-02,  -2.1910016500e-02
    2182,  -5.0000000000e-02,  -2.1910016500e-02
    2183,  -4.5000000000e-02,  -2.1910016500e-02
    2184,  -4.0000000000e-02,  -2.1910016500e-02
    2185,  -3.5000000000e-02,  -2.1910016500e-02
    2186,  -3.0000000000e-02,  -2.1910016500e-02
    2187,  -2.5000000000e-02,  -2.1910016500e-02
    2188,  -2.0000000000e-02,  -2.1910016500e-02
    2189,  -1.5000000000e-02,  -2.1910016500e-02
    2190,  -1.0000000000e-02,  -2.1910016500e-02
    2191,  -5.0000000000e-03,  -2.1910016500e-02
    2192,   0.0000000000e+00,  -2.1910016500e-02
    2193,   5.0000000000e-03,  -2.1910016500e-02
    2194,   1.0000000000e-02,  -2.1910016500e-02
    2195,   1.5000000000e-02,  -2.1910016500e-02
    2196,   2.0000000000e-02,  -2.1910016500e-02
    2197,   2.5000000000e-02,  -2.1910016500e-02
    2198,   3.0000000000e-02,  -2.1910016500e-02
    2199,   3.5000000000e-02,  -2.1910016500e-02
    2200,   4.0000000000e-02,  -2.1910016500e-02
    2201,   4.5000000000e-02,  -2.1910016500e-02
    2202,   5.0000000000e-02,  -2.1910016500e-02
    2203,   5.5000000000e-02,  -2.1910016500e-02
    2204,   6.0000000000e-02,  -2.1910016500e-02
    2205,   6.5000000000e-02,  -2.1910016500e-02
    2206,   7.0000000000e-02,  -2.1910016500e-02
    2207,   7.5000000000e-02,  -2.1910016500e-02
    2208,   8.0000000000e-02,  -2.1910016500e-02
    2209,   8.5000000000e-02,  -2.1910016500e-02
    2210,   9.0000000000e-02,  -2.1910016500e-02
    2211,   9.5000000000e-02,  -2.1910016500e-02
    2212,   1.0000000000e-01,  -2.1910016500e-02
    2213,   1.0500000000e-01,  -2.1910016500e-02
    2214,   1.1000000000e-01,  -2.1910016500e-02
    2215,   1.1500000000e-01,  -2.1910016500e-02
    2216,   1.2250000000e-01,  -2.1910016500e-02
    2217,   1.3375000000e-01,  -2.1910016500e-02
    2218,   1.5062500000e-01,  -2.1910016500e-02
    2219,   1.7562500000e-01,  -2.1910016500e-02
    2220,   2.0057692310e-01,  -2.1910016500e-02
    2221,   2.2552884620e-01,  -2.1910016500e-02
    2222,   2.5048076930e-01,  -2.1910016500e-02
    2223,   2.7543269240e-01,  -2.1910016500e-02
    2224,   3.0038461550e-01,  -2.1910016500e-02
    2225,   3.2533653860e-01,  -2.1910016500e-02
    2226,   3.5028846170e-01,  -2.1910016500e-02
    2227,   3.7524038480e-01,  -2.1910016500e-02
    2228,   4.0019230790e-01,  -2.1910016500e-02
    2229,   4.2514423100e-01,  -2.1910016500e-02
    2230,   4.5009615410e-01,  -2.1910016500e-02
    2231,   4.7504807720e-01,  -2.1910016500e-02
    2232,   5.0000000000e-01,  -2.1910016500e-02
    2233,  -5.0000000000e-01,  -1.6969439100e-02
    2234,  -4.7597656250e-01,  -1.6969439100e-02
    2235,  -4.5195312500e-01,  -1.6969439100e-02
    2236,  -4.2792968750e-01,  -1.6969439100e-02
    2237,  -4.0390625000e-01,  -1.6969439100e-02
    2238,  -3.7988281250e-01,  -1.6969439100e-02
    2239,  -3.5585937500e-01,  -1.6969439100e-02
    2240,  -3.3183593750e-01,  -1.6969439100e-02
    2241,  -3.0781250000e-01,  -1.6969439100e-02
    2242,  -2.8378906250e-01,  -1.6969439100e-02
    2243,  -2.5976562500e-01,  -1.6969439100e-02
    2244,  -2.3574218750e-01,  -1.6969439100e-02
    2245,  -2.1171875000e-01,  -1.6969439100e-02
    2246,  -1.8769531250e-01,  -1.6969439100e-02
    2247,  -1.6367187500e-01,  -1.6969439100e-02
    2248,  -1.3964843750e-01,  -1.6969439100e-02
    2249,  -1.1562500000e-01,  -1.6969439100e-02
    2250,  -9.0625000000e-02,  -1.6969439100e-02
    2251,  -7.3750000000e-02,  -1.6969439100e-02
    2252,  -6.2500000000e-02,  -1.6969439100e-02
    2253,  -5.5000000000e-02,  -1.6969439100e-02
    2254,  -5.0000000000e-02,  -1.6969439100e-02
    2255,  -4.5000000000e-02,  -1.6969439100e-02
    2256,  -4.0000000000e-02,  -1.6969439100e-02
    2257,  -3.5000000000e-02,  -1.6969439100e-02
    2258,  -3.0000000000e-02,  -1.6969439100e-02
    2259,  -2.5000000000e-02,  -1.6969439100e-02
    2260,  -2.0000000000e-02,  -1.6969439100e-02
    2261,  -1.5000000000e-02,  -1.6969439100e-02
    2262,  -1.0000000000e-02,  -1.6969439100e-02
    2263,  -5.0000000000e-03,  -1.6969439100e-02
    2264,   0.0000000000e+00,  -1.6969439100e-02
    2265,   5.0000000000e-03,  -1.6969439100e-02
    2266,   1.0000000000e-02,  -1.6969439100e-02
    2267,   1.5000000000e-02,  -1.6969439100e-02
    2268,   2.0000000000e-02,  -1.6969439100e-02
    2269,   2.5000000000e-02,  -1.6969439100e-02
    2270,   3.0000000000e-02,  -1.6969439100e-02
    2271,   3.5000000000e-02,  -1.6969439100e-02
    2272,   4.0000000000e-02,  -1.6969439100e-02
    2273,   4.5000000000e-02,  -1.6969439100e-02
    2274,   5.0000000000e-02,  -1.6969439100e-02
    2275,   5.5000000000e-02,  -1.6969439100e-02
    2276,   6.0000000000e-02,  -1.6969439100e-02
    2277,   6.5000000000e-02,  -1.6969439100e-02
    2278,   7.0000000000e-02,  -1.6969439100e-02
    2279,   7.5000000000e-02,  -1.6969439100e-02
    2280,   8.0000000000e-02,  -1.6969439100e-02
    2281,   8.5000000000e-02,  -1.6969439100e-02
    2282,   9.0000000000e-02,  -1.6969439100e-02
    2283,   9.5000000000e-02,  -1.6969439100e-02
    2284,   1.0000000000e-01,  -1.6969439100e-02
    2285,   1.0500000000e-01,  -1.6969439100e-02
    2286,   1.1000000000e-01,  -1.6969439100e-02
    2287,   1.1500000000e-01,  -1.6969439100e-02
    2288,   1.2250000000e-01,  -1.6969439100e-02
    2289,   1.3375000000e-01,  -1.6969439100e-02
    2290,   1.5062500000e-01,  -1.6969439100e-02
    2291,   1.7562500000e-01,  -1.6969439100e-02
    2292,   2.0057692310e-01,  -1.6969439100e-02
    2293,   2.2552884620e-01,  -1.6969439100e-02
    2294,   2.5048076930e-01,  -1.6969439100e-02
    2295,   2.7543269240e-01,  -1.6969439100e-02
    2296,   3.0038461550e-01,  -1.6969439100e-02
    2297,   3.2533653860e-01,  -1.6969439100e-02
    2298,   3.5028846170e-01,  -1.6969439100e-02
    2299,   3.7524038480e-01,  -1.6969439100e-02
    2300,   4.0019230790e-01,  -1.6969439100e-02
    2301,   4.2514423100e-01,  -1.6969439100e-02
    2302,   4.5009615410e-01,  -1.6969439100e-02
    2303,   4.7504807720e-01,  -1.6969439100e-02
    2304,   5.0000000000e-01,  -1.6969439100e-02
    2305,  -5.0000000000e-01,  -1.2028861700e-02
    2306,  -4.7597656250e-01,  -1.2028861700e-02
    2307,  -4.5195312500e-01,  -1.2028861700e-02
    2308,  -4.2792968750e-01,  -1.2028861700e-02
    2309,  -4.0390625000e-01,  -1.2028861700e-02
    2310,  -3.7988281250e-01,  -1.2028861700e-02
    2311,  -3.5585937500e-01,  -1.2028861700e-02
    2312,  -3.3183593750e-01,  -1.2028861700e-02
    2313,  -3.0781250000e-01,  -1.2028861700e-02
    2314,  -2.8378906250e-01,  -1.2028861700e-02
    2315,  -2.5976562500e-01,  -1.2028861700e-02
    2316,  -2.3574218750e-01,  -1.2028861700e-02
    2317,  -2.1171875000e-01,  -1.2028861700e-02
    2318,  -1.8769531250e-01,  -1.2028861700e-02
    2319,  -1.6367187500e-01,  -1.2028861700e-02
    2320,  -1.3964843750e-01,  -1.2028861700e-02
    2321,  -1.1562500000e-01,  -1.2028861700e-02
    2322,  -9.0625000000e-02,  -1.2028861700e-02
    2323,  -7.3750000000e-02,  -1.2028861700e-02
    2324,  -6.2500000000e-02,  -1.2028861700e-02
    2325,  -5.5000000000e-02,  -1.2028861700e-02
    2326,  -5.0000000000e-02,  -1.2028861700e-02
    2327,  -4.5000000000e-02,  -1.2028861700e-02
    2328,  -4.0000000000e-02,  -1.2028861700e-02
    2329,  -3.5000000000e-02,  -1.2028861700e-02
    2330,  -3.0000000000e-02,  -1.2028861700e-02
    2331,  -2.5000000000e-02,  -1.2028861700e-02
    2332,  -2.0000000000e-02,  -1.2028861700e-02
    2333,  -1.5000000000e-02,  -1.2028861700e-02
    2334,  -1.0000000000e-02,  -1.2028861700e-02
    2335,  -5.0000000000e-03,  -1.2028861700e-02
    2336,   0.0000000000e+00,  -1.2028861700e-02
    2337,   5.0000000000e-03,  -1.2028861700e-02
    2338,   1.0000000000e-02,  -1.2028861700e-02
    2339,   1.5000000000e-02,  -1.2028861700e-02
    2340,   2.0000000000e-02,  -1.2028861700e-02
    2341,   2.5000000000e-02,  -1.2028861700e-02
    2342,   3.0000000000e-02,  -1.2028861700e-02
    2343,   3.5000000000e-02,  -1.2028861700e-02
    2344,   4.0000000000e-02,  -1.2028861700e-02
    2345,   4.5000000000e-02,  -1.2028861700e-02
    2346,   5.0000000000e-02,  -1.2028861700e-02
    2347,   5.5000000000e-02,  -1.2028861700e-02
    2348,   6.0000000000e-02,  -1.2028861700e-02
    2349,   6.5000000000e-02,  -1.2028861700e-02
    2350,   7.0000000000e-02,  -1.2028861700e-02
    2351,   7.5000000000e-02,  -1.2028861700e-02
    2352,   8.0000000000e-02,  -1.2028861700e-02
    2353,   8.5000000000e-02,  -1.2028861700e-02
    2354,   9.0000000000e-02,  -1.2028861700e-02
    2355,   9.5000000000e-02,  -1.2028861700e-02
    2356,   1.0000000000e-01,  -1.2028861700e-02
    2357,   1.0500000000e-01,  -1.2028861700e-02
    2358,   1.1000000000e-01,  -1.2028861700e-02
    2359,   1.1500000000e-01,  -1.2028861700e-02
    2360,   1.2250000000e-01,  -1.2028861700e-02
    2361,   1.3375000000e-01,  -1.2028861700e-02
    2362,   1.5062500000e-01,  -1.2028861700e-02
    2363,   1.7562500000e-01,  -1.2028861700e-02
    2364,   2.0057692310e-01,  -1.2028861700e-02
    2365,   2.2552884620e-01,  -1.2028861700e-02
    2366,   2.5048076930e-01,  -1.2028861700e-02
    2367,   2.7543269240e-01,  -1.2028861700e-02
    2368,   3.0038461550e-01,  -1.2028861700e-02
    2369,   3.2533653860e-01,  -1.2028861700e-02
    2370,   3.5028846170e-01,  -1.2028861700e-02
    2371,   3.7524038480e-01,  -1.2028861700e-02
    2372,   4.0019230790e-01,  -1.2028861700e-02
    2373,   4.2514423100e-01,  -1.2028861700e-02
    2374,   4.5009615410e-01,  -1.2028861700e-02
    2375,   4.7504807720e-01,  -1.2028861700e-02
    2376,   5.0000000000e-01,  -1.2028861700e-02
    2377,  -5.0000000000e-01,  -7.0882843000e-03
    2378,  -4.7597656250e-01,  -7.0882843000e-03
    2379,  -4.5195312500e-01,  -7.0882843000e-03
    2380,  -4.2792968750e-01,  -7.0882843000e-03
    2381,  -4.0390625000e-01,  -7.0882843000e-03
    2382,  -3.7988281250e-01,  -7.0882843000e-03
    2383,  -3.5585937500e-01,  -7.0882843000e-03
    2384,  -3.3183593750e-01,  -7.0882843000e-03
    2385,  -3.0781250000e-01,  -7.0882843000e-03
    2386,  -2.8378906250e-01,  -7.0882843000e-03
    2387,  -2.5976562500e-01,  -7.0882843000e-03
    2388,  -2.3574218750e-01,  -7.0882843000e-03
    2389,  -2.1171875000e-01,  -7.0882843000e-03
    2390,  -1.8769531250e-01,  -7.0882843000e-03
    2391,  -1.6367187500e-01,  -7.0882843000e-03
    2392,  -1.3964843750e-01,  -7.0882843000e-03
    2393,  -1.1562500000e-01,  -7.0882843000e-03
    2394,  -9.0625000000e-02,  -7.0882843000e-03
    2395,  -7.3750000000e-02,  -7.0882843000e-03
    2396,  -6.2500000000e-02,  -7.0882843000e-03
    2397,  -5.5000000000e-02,  -7.0882843000e-03
    2398,  -5.0000000000e-02,  -7.0882843000e-03
    2399,  -4.5000000000e-02,  -7.0882843000e-03
    2400,  -4.0000000000e-02,  -7.0882843000e-03
    2401,  -3.5000000000e-02,  -7.0882843000e-03
    2402,  -3.0000000000e-02,  -7.0882843000e-03
    2403,  -2.5000000000e-02,  -7.0882843000e-03
    2404,  -2.0000000000e-02,  -7.0882843000e-03
    2405,  -1.5000000000e-02,  -7.0882843000e-03
    2406,  -1.0000000000e-02,  -7.0882843000e-03
    2407,  -5.0000000000e-03,  -7.0882843000e-03
    2408,   0.0000000000e+00,  -7.0882843000e-03
    2409,   5.0000000000e-03,  -7.0882843000e-03
    2410,   1.0000000000e-02,  -7.0882843000e-03
    2411,   1.5000000000e-02,  -7.0882843000e-03
    2412,   2.0000000000e-02,  -7.0882843000e-03
    2413,   2.5000000000e-02,  -7.0882843000e-03
    2414,   3.0000000000e-02,  -7.0882843000e-03
    2415,   3.5000000000e-02,  -7.0882843000e-03
    2416,   4.0000000000e-02,  -7.0882843000e-03
    2417,   4.5000000000e-02,  -7.0882843000e-03
    2418,   5.0000000000e-02,  -7.0882843000e-03
    2419,   5.5000000000e-02,  -7.0882843000e-03
    2420,   6.0000000000e-02,  -7.0882843000e-03
    2421,   6.5000000000e-02,  -7.0882843000e-03
    2422,   7.0000000000e-02,  -7.0882843000e-03
    2423,   7.5000000000e-02,  -7.0882843000e-03
    2424,   8.0000000000e-02,  -7.0882843000e-03
    2425,   8.5000000000e-02,  -7.0882843000e-03
    2426,   9.0000000000e-02,  -7.0882843000e-03
    2427,   9.5000000000e-02,  -7.0882843000e-03
    2428,   1.0000000000e-01,  -7.0882843000e-03
    2429,   1.0500000000e-01,  -7.0882843000e-03
    2430,   1.1000000000e-01,  -7.0882843000e-03
    2431,   1.1500000000e-01,  -7.0882843000e-03
    2432,   1.2250000000e-01,  -7.0882843000e-03
    2433,   1.3375000000e-01,  -7.0882843000e-03
    2434,   1.5062500000e-01,  -7.0882843000e-03
    2435,   1.7562500000e-01,  -7.0882843000e-03
    2436,   2.0057692310e-01,  -7.0882843000e-03
    2437,   2.2552884620e-01,  -7.0882843000e-03
    2438,   2.5048076930e-01,  -7.0882843000e-03
    2439,   2.7543269240e-01,  -7.0882843000e-03
    2440,   3.0038461550e-01,  -7.0882843000e-03
    2441,   3.2533653860e-01,  -7.0882843000e-03
    2442,   3.5028846170e-01,  -7.0882843000e-03
    2443,   3.7524038480e-01,  -7.0882843000e-03
    2444,   4.0019230790e-01,  -7.0882843000e-03
    2445,   4.2514423100e-01,  -7.0882843000e-03
    2446,   4.5009615410e-01,  -7.0882843000e-03
    2447,   4.7504807720e-01,  -7.0882843000e-03
    2448,   5.0000000000e-01,  -7.0882843000e-03
    2449,  -5.0000000000e-01,  -2.1477069000e-03
    2450,  -4.7597656250e-01,  -2.1477069000e-03
    2451,  -4.5195312500e-01,  -2.1477069000e-03
    2452,  -4.2792968750e-01,  -2.1477069000e-03
    2453,  -4.0390625000e-01,  -2.1477069000e-03
    2454,  -3.7988281250e-01,  -2.1477069000e-03
    2455,  -3.5585937500e-01,  -2.1477069000e-03
    2456,  -3.3183593750e-01,  -2.1477069000e-03
    2457,  -3.0781250000e-01,  -2.1477069000e-03
    2458,  -2.8378906250e-01,  -2.1477069000e-03
    2459,  -2.5976562500e-01,  -2.1477069000e-03
    2460,  -2.3574218750e-01,  -2.1477069000e-03
    2461,  -2.1171875000e-01,  -2.1477069000e-03
    2462,  -1.8769531250e-01,  -2.1477069000e-03
    2463,  -1.6367187500e-01,  -2.1477069000e-03
    2464,  -1.3964843750e-01,  -2.1477069000e-03
    2465,  -1.1562500000e-01,  -2.1477069000e-03
    2466,  -9.0625000000e-02,  -2.1477069000e-03
    2467,  -7.3750000000e-02,  -2.1477069000e-03
    2468,  -6.2500000000e-02,  -2.1477069000e-03
    2469,  -5.5000000000e-02,  -2.1477069000e-03
    2470,  -5.0000000000e-02,  -2.1477069000e-03
    2471,  -4.5000000000e-02,  -2.1477069000e-03
    2472,  -4.0000000000e-02,  -2.1477069000e-03
    2473,  -3.5000000000e-02,  -2.1477069000e-03
    2474,  -3.0000000000e-02,  -2.1477069000e-03
    2475,  -2.5000000000e-02,  -2.1477069000e-03
    2476,  -2.0000000000e-02,  -2.1477069000e-03
    2477,  -1.5000000000e-02,  -2.1477069000e-03
    2478,  -1.0000000000e-02,  -2.1477069000e-03
    2479,  -5.0000000000e-03,  -2.1477069000e-03
    2480,   0.0000000000e+00,  -2.1477069000e-03
    2481,   5.0000000000e-03,  -2.1477069000e-03
    2482,   1.0000000000e-02,  -2.1477069000e-03
    2483,   1.5000000000e-02,  -2.1477069000e-03
    2484,   2.0000000000e-02,  -2.1477069000e-03
    2485,   2.5000000000e-02,  -2.1477069000e-03
    2486,   3.0000000000e-02,  -2.1477069000e-03
    2487,   3.5000000000e-02,  -2.1477069000e-03
    2488,   4.0000000000e-02,  -2.1477069000e-03
    2489,   4.5000000000e-02,  -2.1477069000e-03
    2490,   5.0000000000e-02,  -2.1477069000e-03
    2491,   5.5000000000e-02,  -2.1477069000e-03
    2492,   6.0000000000e-02,  -2.1477069000e-03
    2493,   6.5000000000e-02,  -2.1477069000e-03
    2494,   7.0000000000e-02,  -2.1477069000e-03
    2495,   7.5000000000e-02,  -2.1477069000e-03
    2496,   8.0000000000e-02,  -2.1477069000e-03
    2497,   8.5000000000e-02,  -2.1477069000e-03
    2498,   9.0000000000e-02,  -2.1477069000e-03
    2499,   9.5000000000e-02,  -2.1477069000e-03
    2500,   1.0000000000e-01,  -2.1477069000e-03
    2501,   1.0500000000e-01,  -2.1477069000e-03
    2502,   1.1000000000e-01,  -2.1477069000e-03
    2503,   1.1500000000e-01,  -2.1477069000e-03
    2504,   1.2250000000e-01,  -2.1477069000e-03
    2505,   1.3375000000e-01,  -2.1477069000e-03
    2506,   1.5062500000e-01,  -2.1477069000e-03
    2507,   1.7562500000e-01,  -2.1477069000e-03
    2508,   2.0057692310e-01,  -2.1477069000e-03
    2509,   2.2552884620e-01,  -2.1477069000e-03
    2510,   2.5048076930e-01,  -2.1477069000e-03
    2511,   2.7543269240e-01,  -2.1477069000e-03
    2512,   3.0038461550e-01,  -2.1477069000e-03
    2513,   3.2533653860e-01,  -2.1477069000e-03
    2514,   3.5028846170e-01,  -2.1477069000e-03
    2515,   3.7524038480e-01,  -2.1477069000e-03
    2516,   4.0019230790e-01,  -2.1477069000e-03
    2517,   4.2514423100e-01,  -2.1477069000e-03
    2518,   4.5009615410e-01,  -2.1477069000e-03
    2519,   4.7504807720e-01,  -2.1477069000e-03
    2520,   5.0000000000e-01,  -2.1477069000e-03
    2521,  -5.0000000000e-01,   0.0000000000e+00
    2522,  -5.0000000000e-01,   0.0000000000e+00
    2523,  -4.7597656250e-01,   0.0000000000e+00
    2524,  -4.7597656250e-01,   0.0000000000e+00
    2525,  -4.5195312500e-01,   0.0000000000e+00
    2526,  -4.5195312500e-01,   0.0000000000e+00
    2527,  -4.2792968750e-01,   0.0000000000e+00
    2528,  -4.2792968750e-01,   0.0000000000e+00
    2529,  -4.0390625000e-01,   0.0000000000e+00
    2530,  -4.0390625000e-01,   0.0000000000e+00
    2531,  -3.7988281250e-01,   0.0000000000e+00
    2532,  -3.7988281250e-01,   0.0000000000e+00
    2533,  -3.5585937500e-01,   0.0000000000e+00
    2534,  -3.5585937500e-01,   0.0000000000e+00
    2535,  -3.3183593750e-01,   0.0000000000e+00
    2536,  -3.3183593750e-01,   0.0000000000e+00
    2537,  -3.0781250000e-01,   0.0000000000e+00
    2538,  -3.0781250000e-01,   0.0000000000e+00
    2539,  -2.8378906250e-01,   0.0000000000e+00
    2540,  -2.8378906250e-01,   0.0000000000e+00
    2541,  -2.5976562500e-01,   0.0000000000e+00
    2542,  -2.5976562500e-01,   0.0000000000e+00
    2543,  -2.3574218750e-01,   0.0000000000e+00
    2544,  -2.3574218750e-01,   0.0000000000e+00
    2545,  -2.1171875000e-01,   0.0000000000e+00
    2546,  -2.1171875000e-01,   0.0000000000e+00
    2547,  -1.8769531250e-01,   0.0000000000e+00
    2548,  -1.8769531250e-01,   0.0000000000e+00
    2549,  -1.6367187500e-01,   0.0000000000e+00
    2550,  -1.6367187500e-01,   0.0000000000e+00
    2551,  -1.3964843750e-01,   0.0000000000e+00
    2552,  -1.3964843750e-01,   0.0000000000e+00
    2553,  -1.1562500000e-01,   0.0000000000e+00
    2554,  -1.1562500000e-01,   0.0000000000e+00
    2555,  -9.0625000000e-02,   0.0000000000e+00
    2556,  -9.0625000000e-02,   0.0000000000e+00
    2557,  -7.3750000000e-02,   0.0000000000e+00
    2558,  -7.3750000000e-02,   0.0000000000e+00
    2559,  -6.2500000000e-02,   0.0000000000e+00
    2560,  -6.2500000000e-02,   0.0000000000e+00
    2561,  -5.5000000000e-02,   0.0000000000e+00
    2562,  -5.5000000000e-02,   0.0000000000e+00
    2563,  -5.0000000000e-02,   0.0000000000e+00
    2564,  -5.0000000000e-02,   0.0000000000e+00
    2565,  -4.5000000000e-02,   0.0000000000e+00
    2566,  -4.5000000000e-02,   0.0000000000e+00
    2567,  -4.0000000000e-02,   0.0000000000e+00
    2568,  -4.0000000000e-02,   0.0000000000e+00
    2569,  -3.5000000000e-02,   0.0000000000e+00
    2570,  -3.5000000000e-02,   0.0000000000e+00
    2571,  -3.0000000000e-02,   0.0000000000e+00
    2572,  -3.0000000000e-02,   0.0000000000e+00
    2573,  -2.5000000000e-02,   0.0000000000e+00
    2574,  -2.5000000000e-02,   0.0000000000e+00
    2575,  -2.0000000000e-02,   0.0000000000e+00
    2576,  -2.0000000000e-02,   0.0000000000e+00
    2577,  -1.5000000000e-02,   0.0000000000e+00
    2578,  -1.5000000000e-02,   0.0000000000e+00
    2579,  -1.0000000000e-02,   0.0000000000e+00
    2580,  -1.0000000000e-02,   0.0000000000e+00
    2581,  -5.0000000000e-03,   0.0000000000e+00
    2582,  -5.0000000000e-03,   0.0000000000e+00
    2583,   0.0000000000e+00,   0.0000000000e+00
    2584,   5.0000000000e-03,   0.0000000000e+00
    2585,   1.0000000000e-02,   0.0000000000e+00
    2586,   1.5000000000e-02,   0.0000000000e+00
    2587,   2.0000000000e-02,   0.0000000000e+00
    2588,   2.5000000000e-02,   0.0000000000e+00
    2589,   3.0000000000e-02,   0.0000000000e+00
    2590,   3.5000000000e-02,   0.0000000000e+00
    2591,   4.0000000000e-02,   0.0000000000e+00
    2592,   4.5000000000e-02,   0.0000000000e+00
    2593,   5.0000000000e-02,   0.0000000000e+00
    2594,   5.5000000000e-02,   0.0000000000e+00
    2595,   6.0000000000e-02,   0.0000000000e+00
    2596,   6.5000000000e-02,   0.0000000000e+00
    2597,   7.0000000000e-02,   0.0000000000e+00
    2598,   7.5000000000e-02,   0.0000000000e+00
    2599,   8.0000000000e-02,   0.0000000000e+00
    2600,   8.5000000000e-02,   0.0000000000e+00
    2601,   9.0000000000e-02,   0.0000000000e+00
    2602,   9.5000000000e-02,   0.0000000000e+00
    2603,   1.0000000000e-01,   0.0000000000e+00
    2604,   1.0500000000e-01,   0.0000000000e+00
    2605,   1.1000000000e-01,   0.0000000000e+00
    2606,   1.1500000000e-01,   0.0000000000e+00
    2607,   1.2250000000e-01,   0.0000000000e+00
    2608,   1.3375000000e-01,   0.0000000000e+00
    2609,   1.5062500000e-01,   0.0000000000e+00
    2610,   1.7562500000e-01,   0.0000000000e+00
    2611,   2.0057692310e-01,   0.0000000000e+00
    2612,   2.2552884620e-01,   0.0000000000e+00
    2613,   2.5048076930e-01,   0.0000000000e+00
    2614,   2.7543269240e-01,   0.0000000000e+00
    2615,   3.0038461550e-01,   0.0000000000e+00
    2616,   3.2533653860e-01,   0.0000000000e+00
    2617,   3.5028846170e-01,   0.0000000000e+00
    2618,   3.7524038480e-01,   0.0000000000e+00
    2619,   4.0019230790e-01,   0.0000000000e+00
    2620,   4.2514423100e-01,   0.0000000000e+00
    2621,   4.5009615410e-01,   0.0000000000e+00
    2622,   4.7504807720e-01,   0.0000000000e+00
    2623,   5.0000000000e-01,   0.0000000000e+00
    2624,  -5.0000000000e-01,   2.7928705000e-03
    2625,  -4.7597656250e-01,   2.7928705000e-03
    2626,  -4.5195312500e-01,   2.7928705000e-03
    2627,  -4.2792968750e-01,   2.7928705000e-03
    2628,  -4.0390625000e-01,   2.7928705000e-03
    2629,  -3.7988281250e-01,   2.7928705000e-03
    2630,  -3.5585937500e-01,   2.7928705000e-03
    2631,  -3.3183593750e-01,   2.7928705000e-03
    2632,  -3.0781250000e-01,   2.7928705000e-03
    2633,  -2.8378906250e-01,   2.7928705000e-03
    2634,  -2.5976562500e-01,   2.7928705000e-03
    2635,  -2.3574218750e-01,   2.7928705000e-03
    2636,  -2.1171875000e-01,   2.7928705000e-03
    2637,  -1.8769531250e-01,   2.7928705000e-03
    2638,  -1.6367187500e-01,   2.7928705000e-03
    2639,  -1.3964843750e-01,   2.7928705000e-03
    2640,  -1.1562500000e-01,   2.7928705000e-03
    2641,  -9.0625000000e-02,   2.7928705000e-03
    2642,  -7.3750000000e-02,   2.7928705000e-03
    2643,  -6.2500000000e-02,   2.7928705000e-03
    2644,  -5.5000000000e-02,   2.7928705000e-03
    2645,  -5.0000000000e-02,   2.7928705000e-03
    2646,  -4.5000000000e-02,   2.7928705000e-03
    2647,  -4.0000000000e-02,   2.7928705000e-03
    2648,  -3.5000000000e-02,   2.7928705000e-03
    2649,  -3.0000000000e-02,   2.7928705000e-03
    2650,  -2.5000000000e-02,   2.7928705000e-03
    2651,  -2.0000000000e-02,   2.7928705000e-03
    2652,  -1.5000000000e-02,   2.7928705000e-03
    2653,  -1.0000000000e-02,   2.7928705000e-03
    2654,  -5.0000000000e-03,   2.7928705000e-03
    2655,   0.0000000000e+00,   2.7928705000e-03
    2656,   5.0000000000e-03,   2.7928705000e-03
    2657,   1.0000000000e-02,   2.7928705000e-03
    2658,   1.5000000000e-02,   2.7928705000e-03
    2659,   2.0000000000e-02,   2.7928705000e-03
    2660,   2.5000000000e-02,   2.7928705000e-03
    2661,   3.0000000000e-02,   2.7928705000e-03
    2662,   3.5000000000e-02,   2.7928705000e-03
    2663,   4.0000000000e-02,   2.7928705000e-03
    2664,   4.5000000000e-02,   2.7928705000e-03
    2665,   5.0000000000e-02,   2.7928705000e-03
    2666,   5.5000000000e-02,   2.7928705000e-03
    2667,   6.0000000000e-02,   2.7928705000e-03
    2668,   6.5000000000e-02,   2.7928705000e-03
    2669,   7.0000000000e-02,   2.7928705000e-03
    2670,   7.5000000000e-02,   2.7928705000e-03
    2671,   8.0000000000e-02,   2.7928705000e-03
    2672,   8.5000000000e-02,   2.7928705000e-03
    2673,   9.0000000000e-02,   2.7928705000e-03
    2674,   9.5000000000e-02,   2.7928705000e-03
    2675,   1.0000000000e-01,   2.7928705000e-03
    2676,   1.0500000000e-01,   2.7928705000e-03
    2677,   1.1000000000e-01,   2.7928705000e-03
    2678,   1.1500000000e-01,   2.7928705000e-03
    2679,   1.2250000000e-01,   2.7928705000e-03
    2680,   1.3375000000e-01,   2.7928705000e-03
    2681,   1.5062500000e-01,   2.7928705000e-03
    2682,   1.7562500000e-01,   2.7928705000e-03
    2683,   2.0057692310e-01,   2.7928705000e-03
    2684,   2.2552884620e-01,   2.7928705000e-03
    2685,   2.5048076930e-01,   2.7928705000e-03
    2686,   2.7543269240e-01,   2.7928705000e-03
    2687,   3.0038461550e-01,   2.7928705000e-03
    2688,   3.2533653860e-01,   2.7928705000e-03
    2689,   3.5028846170e-01,   2.7928705000e-03
    2690,   3.7524038480e-01,   2.7928705000e-03
    2691,   4.0019230790e-01,   2.7928705000e-03
    2692,   4.2514423100e-01,   2.7928705000e-03
    2693,   4.5009615410e-01,   2.7928705000e-03
    2694,   4.7504807720e-01,   2.7928705000e-03
    2695,   5.0000000000e-01,   2.7928705000e-03
    2696,  -5.0000000000e-01,   7.7334479000e-03
    2697,  -4.7597656250e-01,   7.7334479000e-03
    2698,  -4.5195312500e-01,   7.7334479000e-03
    2699,  -4.2792968750e-01,   7.7334479000e-03
    2700,  -4.0390625000e-01,   7.7334479000e-03
    2701,  -3.7988281250e-01,   7.7334479000e-03
    2702,  -3.5585937500e-01,   7.7334479000e-03
    2703,  -3.3183593750e-01,   7.7334479000e-03
    2704,  -3.0781250000e-01,   7.7334479000e-03
    2705,  -2.8378906250e-01,   7.7334479000e-03
    2706,  -2.5976562500e-01,   7.7334479000e-03
    2707,  -2.3574218750e-01,   7.7334479000e-03
    2708,  -2.1171875000e-01,   7.7334479000e-03
    2709,  -1.8769531250e-01,   7.7334479000e-03
    2710,  -1.6367187500e-01,   7.7334479000e-03
    2711,  -1.3964843750e-01,   7.7334479000e-03
    2712,  -1.1562500000e-01,   7.7334479000e-03
    2713,  -9.0625000000e-02,   7.7334479000e-03
    2714,  -7.3750000000e-02,   7.7334479000e-03
    2715,  -6.2500000000e-02,   7.7334479000e-03
    2716,  -5.5000000000e-02,   7.7334479000e-03
    2717,  -5.0000000000e-02,   7.7334479000e-03
    2718,  -4.5000000000e-02,   7.7334479000e-03
    2719,  -4.0000000000e-02,   7.7334479000e-03
    2720,  -3.5000000000e-02,   7.7334479000e-03
    2721,  -3.0000000000e-02,   7.7334479000e-03
    2722,  -2.5000000000e-02,   7.7334479000e-03
    2723,  -2.0000000000e-02,   7.7334479000e-03
    2724,  -1.5000000000e-02,   7.7334479000e-03
    2725,  -1.0000000000e-02,   7.7334479000e-03
    2726,  -5.0000000000e-03,   7.7334479000e-03
    2727,   0.0000000000e+00,   7.7334479000e-03
    2728,   5.0000000000e-03,   7.7334479000e-03
    2729,   1.0000000000e-02,   7.7334479000e-03
    2730,   1.5000000000e-02,   7.7334479000e-03
    2731,   2.0000000000e-02,   7.7334479000e-03
    2732,   2.5000000000e-02,   7.7334479000e-03
    2733,   3.0000000000e-02,   7.7334479000e-03
    2734,   3.5000000000e-02,   7.7334479000e-03
    2735,   4.0000000000e-02,   7.7334479000e-03
    2736,   4.5000000000e-02,   7.7334479000e-03
    2737,   5.0000000000e-02,   7.7334479000e-03
    2738,   5.5000000000e-02,   7.7334479000e-03
    2739,   6.0000000000e-02,   7.7334479000e-03
    2740,   6.5000000000e-02,   7.7334479000e-03
    2741,   7.0000000000e-02,   7.7334479000e-03
    2742,   7.5000000000e-02,   7.7334479000e-03
    2743,   8.0000000000e-02,   7.7334479000e-03
    2744,   8.5000000000e-02,   7.7334479000e-03
    2745,   9.0000000000e-02,   7.7334479000e-03
    2746,   9.5000000000e-02,   7.7334479000e-03
    2747,   1.0000000000e-01,   7.7334479000e-03
    2748,   1.0500000000e-01,   7.7334479000e-03
    2749,   1.1000000000e-01,   7.7334479000e-03
    2750,   1.1500000000e-01,   7.7334479000e-03
    2751,   1.2250000000e-01,   7.7334479000e-03
    2752,   1.3375000000e-01,   7.7334479000e-03
    2753,   1.5062500000e-01,   7.7334479000e-03
    2754,   1.7562500000e-01,   7.7334479000e-03
    2755,   2.0057692310e-01,   7.7334479000e-03
    2756,   2.2552884620e-01,   7.7334479000e-03
    2757,   2.5048076930e-01,   7.7334479000e-03
    2758,   2.7543269240e-01,   7.7334479000e-03
    2759,   3.0038461550e-01,   7.7334479000e-03
    2760,   3.2533653860e-01,   7.7334479000e-03
    2761,   3.5028846170e-01,   7.7334479000e-03
    2762,   3.7524038480e-01,   7.7334479000e-03
    2763,   4.0019230790e-01,   7.7334479000e-03
    2764,   4.2514423100e-01,   7.7334479000e-03
    2765,   4.5009615410e-01,   7.7334479000e-03
    2766,   4.7504807720e-01,   7.7334479000e-03
    2767,   5.0000000000e-01,   7.7334479000e-03
    2768,  -5.0000000000e-01,   1.2674025300e-02
    2769,  -4.7597656250e-01,   1.2674025300e-02
    2770,  -4.5195312500e-01,   1.2674025300e-02
    2771,  -4.2792968750e-01,   1.2674025300e-02
    2772,  -4.0390625000e-01,   1.2674025300e-02
    2773,  -3.7988281250e-01,   1.2674025300e-02
    2774,  -3.5585937500e-01,   1.2674025300e-02
    2775,  -3.3183593750e-01,   1.2674025300e-02
    2776,  -3.0781250000e-01,   1.2674025300e-02
    2777,  -2.8378906250e-01,   1.2674025300e-02
    2778,  -2.5976562500e-01,   1.2674025300e-02
    2779,  -2.3574218750e-01,   1.2674025300e-02
    2780,  -2.1171875000e-01,   1.2674025300e-02
    2781,  -1.8769531250e-01,   1.2674025300e-02
    2782,  -1.6367187500e-01,   1.2674025300e-02
    2783,  -1.3964843750e-01,   1.2674025300e-02
    2784,  -1.1562500000e-01,   1.2674025300e-02
    2785,  -9.0625000000e-02,   1.2674025300e-02
    2786,  -7.3750000000e-02,   1.2674025300e-02
    2787,  -6.2500000000e-02,   1.2674025300e-02
    2788,  -5.5000000000e-02,   1.2674025300e-02
    2789,  -5.0000000000e-02,   1.2674025300e-02
    2790,  -4.5000000000e-02,   1.2674025300e-02
    2791,  -4.0000000000e-02,   1.2674025300e-02
    2792,  -3.5000000000e-02,   1.2674025300e-02
    2793,  -3.0000000000e-02,   1.2674025300e-02
    2794,  -2.5000000000e-02,   1.2674025300e-02
    2795,  -2.0000000000e-02,   1.2674025300e-02
    2796,  -1.5000000000e-02,   1.2674025300e-02
    2797,  -1.0000000000e-02,   1.2674025300e-02
    2798,  -5.0000000000e-03,   1.2674025300e-02
    2799,   0.0000000000e+00,   1.2674025300e-02
    2800,   5.0000000000e-03,   1.2674025300e-02
    2801,   1.0000000000e-02,   1.2674025300e-02
    2802,   1.5000000000e-02,   1.2674025300e-02
    2803,   2.0000000000e-02,   1.2674025300e-02
    2804,   2.5000000000e-02,   1.2674025300e-02
    2805,   3.0000000000e-02,   1.2674025300e-02
    2806,   3.5000000000e-02,   1.2674025300e-02
    2807,   4.0000000000e-02,   1.2674025300e-02
    2808,   4.5000000000e-02,   1.2674025300e-02
    2809,   5.0000000000e-02,   1.2674025300e-02
    2810,   5.5000000000e-02,   1.2674025300e-02
    2811,   6.0000000000e-02,   1.2674025300e-02
    2812,   6.5000000000e-02,   1.2674025300e-02
    2813,   7.0000000000e-02,   1.2674025300e-02
    2814,   7.5000000000e-02,   1.2674025300e-02
    2815,   8.0000000000e-02,   1.2674025300e-02
    2816,   8.5000000000e-02,   1.2674025300e-02
    2817,   9.0000000000e-02,   1.2674025300e-02
    2818,   9.5000000000e-02,   1.2674025300e-02
    2819,   1.0000000000e-01,   1.2674025300e-02
    2820,   1.0500000000e-01,   1.2674025300e-02
    2821,   1.1000000000e-01,   1.2674025300e-02
    2822,   1.1500000000e-01,   1.2674025300e-02
    2823,   1.2250000000e-01,   1.2674025300e-02
    2824,   1.3375000000e-01,   1.2674025300e-02
    2825,   1.5062500000e-01,   1.2674025300e-02
    2826,   1.7562500000e-01,   1.2674025300e-02
    2827,   2.0057692310e-01,   1.2674025300e-02
    2828,   2.2552884620e-01,   1.2674025300e-02
    2829,   2.5048076930e-01,   1.2674025300e-02
    2830,   2.7543269240e-01,   1.2674025300e-02
    2831,   3.0038461550e-01,   1.2674025300e-02
    2832,   3.2533653860e-01,   1.2674025300e-02
    2833,   3.5028846170e-01,   1.2674025300e-02
    2834,   3.7524038480e-01,   1.2674025300e-02
    2835,   4.0019230790e-01,   1.2674025300e-02
    2836,   4.2514423100e-01,   1.2674025300e-02
    2837,   4.5009615410e-01,   1.2674025300e-02
    2838,   4.7504807720e-01,   1.2674025300e-02
    2839,   5.0000000000e-01,   1.2674025300e-02
    2840,  -5.0000000000e-01,   1.7614602700e-02
    2841,  -4.7597656250e-01,   1.7614602700e-02
    2842,  -4.5195312500e-01,   1.7614602700e-02
    2843,  -4.2792968750e-01,   1.7614602700e-02
    2844,  -4.0390625000e-01,   1.7614602700e-02
    2845,  -3.7988281250e-01,   1.7614602700e-02
    2846,  -3.5585937500e-01,   1.7614602700e-02
    2847,  -3.3183593750e-01,   1.7614602700e-02
    2848,  -3.0781250000e-01,   1.7614602700e-02
    2849,  -2.8378906250e-01,   1.7614602700e-02
    2850,  -2.5976562500e-01,   1.7614602700e-02
    2851,  -2.3574218750e-01,   1.7614602700e-02
    2852,  -2.1171875000e-01,   1.7614602700e-02
    2853,  -1.8769531250e-01,   1.7614602700e-02
    2854,  -1.6367187500e-01,   1.7614602700e-02
    2855,  -1.3964843750e-01,   1.7614602700e-02
    2856,  -1.1562500000e-01,   1.7614602700e-02
    2857,  -9.0625000000e-02,   1.7614602700e-02
    2858,  -7.3750000000e-02,   1.7614602700e-02
    2859,  -6.2500000000e-02,   1.7614602700e-02
    2860,  -5.5000000000e-02,   1.7614602700e-02
    2861,  -5.0000000000e-02,   1.7614602700e-02
    2862,  -4.5000000000e-02,   1.7614602700e-02
    2863,  -4.0000000000e-02,   1.7614602700e-02
    2864,  -3.5000000000e-02,   1.7614602700e-02
    2865,  -3.0000000000e-02,   1.7614602700e-02
    2866,  -2.5000000000e-02,   1.7614602700e-02
    2867,  -2.0000000000e-02,   1.7614602700e-02
    2868,  -1.5000000000e-02,   1.7614602700e-02
    2869,  -1.0000000000e-02,   1.7614602700e-02
    2870,  -5.0000000000e-03,   1.7614602700e-02
    2871,   0.0000000000e+00,   1.7614602700e-02
    2872,   5.0000000000e-03,   1.7614602700e-02
    2873,   1.0000000000e-02,   1.7614602700e-02
    2874,   1.5000000000e-02,   1.7614602700e-02
    2875,   2.0000000000e-02,   1.7614602700e-02
    2876,   2.5000000000e-02,   1.7614602700e-02
    2877,   3.0000000000e-02,   1.7614602700e-02
    2878,   3.5000000000e-02,   1.7614602700e-02
    2879,   4.0000000000e-02,   1.7614602700e-02
    2880,   4.5000000000e-02,   1.7614602700e-02
    2881,   5.0000000000e-02,   1.7614602700e-02
    2882,   5.5000000000e-02,   1.7614602700e-02
    2883,   6.0000000000e-02,   1.7614602700e-02
    2884,   6.5000000000e-02,   1.7614602700e-02
    2885,   7.0000000000e-02,   1.7614602700e-02
    2886,   7.5000000000e-02,   1.7614602700e-02
    2887,   8.0000000000e-02,   1.7614602700e-02
    2888,   8.5000000000e-02,   1.7614602700e-02
    2889,   9.0000000000e-02,   1.7614602700e-02
    2890,   9.5000000000e-02,   1.7614602700e-02
    2891,   1.0000000000e-01,   1.7614602700e-02
    2892,   1.0500000000e-01,   1.7614602700e-02
    2893,   1.1000000000e-01,   1.7614602700e-02
    2894,   1.1500000000e-01,   1.7614602700e-02
    2895,   1.2250000000e-01,   1.7614602700e-02
    2896,   1.3375000000e-01,   1.7614602700e-02
    2897,   1.5062500000e-01,   1.7614602700e-02
    2898,   1.7562500000e-01,   1.7614602700e-02
    2899,   2.0057692310e-01,   1.7614602700e-02
    2900,   2.2552884620e-01,   1.7614602700e-02
    2901,   2.5048076930e-01,   1.7614602700e-02
    2902,   2.7543269240e-01,   1.7614602700e-02
    2903,   3.0038461550e-01,   1.7614602700e-02
    2904,   3.2533653860e-01,   1.7614602700e-02
    2905,   3.5028846170e-01,   1.7614602700e-02
    2906,   3.7524038480e-01,   1.7614602700e-02
    2907,   4.0019230790e-01,   1.7614602700e-02
    2908,   4.2514423100e-01,   1.7614602700e-02
    2909,   4.5009615410e-01,   1.7614602700e-02
    2910,   4.7504807720e-01,   1.7614602700e-02
    2911,   5.0000000000e-01,   1.7614602700e-02
    2912,  -5.0000000000e-01,   2.2555180100e-02
    2913,  -4.7597656250e-01,   2.2555180100e-02
    2914,  -4.5195312500e-01,   2.2555180100e-02
    2915,  -4.2792968750e-01,   2.2555180100e-02
    2916,  -4.0390625000e-01,   2.2555180100e-02
    2917,  -3.7988281250e-01,   2.2555180100e-02
    2918,  -3.5585937500e-01,   2.2555180100e-02
    2919,  -3.3183593750e-01,   2.2555180100e-02
    2920,  -3.0781250000e-01,   2.2555180100e-02
    2921,  -2.8378906250e-01,   2.2555180100e-02
    2922,  -2.5976562500e-01,   2.2555180100e-02
    2923,  -2.3574218750e-01,   2.2555180100e-02
    2924,  -2.1171875000e-01,   2.2555180100e-02
    2925,  -1.8769531250e-01,   2.2555180100e-02
    2926,  -1.6367187500e-01,   2.2555180100e-02
    2927,  -1.3964843750e-01,   2.2555180100e-02
    2928,  -1.1562500000e-01,   2.2555180100e-02
    2929,  -9.0625000000e-02,   2.2555180100e-02
    2930,  -7.3750000000e-02,   2.2555180100e-02
    2931,  -6.2500000000e-02,   2.2555180100e-02
    2932,  -5.5000000000e-02,   2.2555180100e-02
    2933,  -5.0000000000e-02,   2.2555180100e-02
    2934,  -4.5000000000e-02,   2.2555180100e-02
    2935,  -4.0000000000e-02,   2.2555180100e-02
    2936,  -3.5000000000e-02,   2.2555180100e-02
    2937,  -3.0000000000e-02,   2.2555180100e-02
    2938,  -2.5000000000e-02,   2.2555180100e-02
    2939,  -2.0000000000e-02,   2.2555180100e-02
    2940,  -1.5000000000e-02,   2.2555180100e-02
    2941,  -1.0000000000e-02,   2.2555180100e-02
    2942,  -5.0000000000e-03,   2.2555180100e-02
    2943,   0.0000000000e+00,   2.2555180100e-02
    2944,   5.0000000000e-03,   2.2555180100e-02
    2945,   1.0000000000e-02,   2.2555180100e-02
    2946,   1.5000000000e-02,   2.2555180100e-02
    2947,   2.0000000000e-02,   2.2555180100e-02
    2948,   2.5000000000e-02,   2.2555180100e-02
    2949,   3.0000000000e-02,   2.2555180100e-02
    2950,   3.5000000000e-02,   2.2555180100e-02
    2951,   4.0000000000e-02,   2.2555180100e-02
    2952,   4.5000000000e-02,   2.2555180100e-02
    2953,   5.0000000000e-02,   2.2555180100e-02
    2954,   5.5000000000e-02,   2.2555180100e-02
    2955,   6.0000000000e-02,   2.2555180100e-02
    2956,   6.5000000000e-02,   2.2555180100e-02
    2957,   7.0000000000e-02,   2.2555180100e-02
    2958,   7.5000000000e-02,   2.2555180100e-02
    2959,   8.0000000000e-02,   2.2555180100e-02
    2960,   8.5000000000e-02,   2.2555180100e-02
    2961,   9.0000000000e-02,   2.2555180100e-02
    2962,   9.5000000000e-02,   2.2555180100e-02
    2963,   1.0000000000e-01,   2.2555180100e-02
    2964,   1.0500000000e-01,   2.2555180100e-02
    2965,   1.1000000000e-01,   2.2555180100e-02
    2966,   1.1500000000e-01,   2.2555180100e-02
    2967,   1.2250000000e-01,   2.2555180100e-02
    2968,   1.3375000000e-01,   2.2555180100e-02
    2969,   1.5062500000e-01,   2.2555180100e-02
    2970,   1.7562500000e-01,   2.2555180100e-02
    2971,   2.0057692310e-01,   2.2555180100e-02
    2972,   2.2552884620e-01,   2.2555180100e-02
    2973,   2.5048076930e-01,   2.2555180100e-02
    2974,   2.7543269240e-01,   2.2555180100e-02
    2975,   3.0038461550e-01,   2.2555180100e-02
    2976,   3.2533653860e-01,   2.2555180100e-02
    2977,   3.5028846170e-01,   2.2555180100e-02
    2978,   3.7524038480e-01,   2.2555180100e-02
    2979,   4.0019230790e-01,   2.2555180100e-02
    2980,   4.2514423100e-01,   2.2555180100e-02
    2981,   4.5009615410e-01,   2.2555180100e-02
    2982,   4.7504807720e-01,   2.2555180100e-02
    2983,   5.0000000000e-01,   2.2555180100e-02
    2984,  -5.0000000000e-01,   2.7495757500e-02
    2985,  -4.7597656250e-01,   2.7495757500e-02
    2986,  -4.5195312500e-01,   2.7495757500e-02
    2987,  -4.2792968750e-01,   2.7495757500e-02
    2988,  -4.0390625000e-01,   2.7495757500e-02
    2989,  -3.7988281250e-01,   2.7495757500e-02
    2990,  -3.5585937500e-01,   2.7495757500e-02
    2991,  -3.3183593750e-01,   2.7495757500e-02
    2992,  -3.0781250000e-01,   2.7495757500e-02
    2993,  -2.8378906250e-01,   2.7495757500e-02
    2994,  -2.5976562500e-01,   2.7495757500e-02
    2995,  -2.3574218750e-01,   2.7495757500e-02
    2996,  -2.1171875000e-01,   2.7495757500e-02
    2997,  -1.8769531250e-01,   2.7495757500e-02
    2998,  -1.6367187500e-01,   2.7495757500e-02
    2999,  -1.3964843750e-01,   2.7495757500e-02
    3000,  -1.1562500000e-01,   2.7495757500e-02
    3001,  -9.0625000000e-02,   2.7495757500e-02
    3002,  -7.3750000000e-02,   2.7495757500e-02
    3003,  -6.2500000000e-02,   2.7495757500e-02
    3004,  -5.5000000000e-02,   2.7495757500e-02
    3005,  -5.0000000000e-02,   2.7495757500e-02
    3006,  -4.5000000000e-02,   2.7495757500e-02
    3007,  -4.0000000000e-02,   2.7495757500e-02
    3008,  -3.5000000000e-02,   2.7495757500e-02
    3009,  -3.0000000000e-02,   2.7495757500e-02
    3010,  -2.5000000000e-02,   2.7495757500e-02
    3011,  -2.0000000000e-02,   2.7495757500e-02
    3012,  -1.5000000000e-02,   2.7495757500e-02
    3013,  -1.0000000000e-02,   2.7495757500e-02
    3014,  -5.0000000000e-03,   2.7495757500e-02
    3015,   0.0000000000e+00,   2.7495757500e-02
    3016,   5.0000000000e-03,   2.7495757500e-02
    3017,   1.0000000000e-02,   2.7495757500e-02
    3018,   1.5000000000e-02,   2.7495757500e-02
    3019,   2.0000000000e-02,   2.7495757500e-02
    3020,   2.5000000000e-02,   2.7495757500e-02
    3021,   3.0000000000e-02,   2.7495757500e-02
    3022,   3.5000000000e-02,   2.7495757500e-02
    3023,   4.0000000000e-02,   2.7495757500e-02
    3024,   4.5000000000e-02,   2.7495757500e-02
    3025,   5.0000000000e-02,   2.7495757500e-02
    3026,   5.5000000000e-02,   2.7495757500e-02
    3027,   6.0000000000e-02,   2.7495757500e-02
    3028,   6.5000000000e-02,   2.7495757500e-02
    3029,   7.0000000000e-02,   2.7495757500e-02
    3030,   7.5000000000e-02,   2.7495757500e-02
    3031,   8.0000000000e-02,   2.7495757500e-02
    3032,   8.5000000000e-02,   2.7495757500e-02
    3033,   9.0000000000e-02,   2.7495757500e-02
    3034,   9.5000000000e-02,   2.7495757500e-02
    3035,   1.0000000000e-01,   2.7495757500e-02
    3036,   1.0500000000e-01,   2.7495757500e-02
    3037,   1.1000000000e-01,   2.7495757500e-02
    3038,   1.1500000000e-01,   2.7495757500e-02
    3039,   1.2250000000e-01,   2.7495757500e-02
    3040,   1.3375000000e-01,   2.7495757500e-02
    3041,   1.5062500000e-01,   2.7495757500e-02
    3042,   1.7562500000e-01,   2.7495757500e-02
    3043,   2.0057692310e-01,   2.7495757500e-02
    3044,   2.2552884620e-01,   2.7495757500e-02
    3045,   2.5048076930e-01,   2.7495757500e-02
    3046,   2.7543269240e-01,   2.7495757500e-02
    3047,   3.0038461550e-01,   2.7495757500e-02
    3048,   3.2533653860e-01,   2.7495757500e-02
    3049,   3.5028846170e-01,   2.7495757500e-02
    3050,   3.7524038480e-01,   2.7495757500e-02
    3051,   4.0019230790e-01,   2.7495757500e-02
    3052,   4.2514423100e-01,   2.7495757500e-02
    3053,   4.5009615410e-01,   2.7495757500e-02
    3054,   4.7504807720e-01,   2.7495757500e-02
    3055,   5.0000000000e-01,   2.7495757500e-02
    3056,  -5.0000000000e-01,   3.2436334900e-02
    3057,  -4.7597656250e-01,   3.2436334900e-02
    3058,  -4.5195312500e-01,   3.2436334900e-02
    3059,  -4.2792968750e-01,   3.2436334900e-02
    3060,  -4.0390625000e-01,   3.2436334900e-02
    3061,  -3.7988281250e-01,   3.2436334900e-02
    3062,  -3.5585937500e-01,   3.2436334900e-02
    3063,  -3.3183593750e-01,   3.2436334900e-02
    3064,  -3.0781250000e-01,   3.2436334900e-02
    3065,  -2.8378906250e-01,   3.2436334900e-02
    3066,  -2.5976562500e-01,   3.2436334900e-02
    3067,  -2.3574218750e-01,   3.2436334900e-02
    3068,  -2.1171875000e-01,   3.2436334900e-02
    3069,  -1.8769531250e-01,   3.2436334900e-02
    3070,  -1.6367187500e-01,   3.2436334900e-02
    3071,  -1.3964843750e-01,   3.2436334900e-02
    3072,  -1.1562500000e-01,   3.2436334900e-02
    3073,  -9.0625000000e-02,   3.2436334900e-02
    3074,  -7.3750000000e-02,   3.2436334900e-02
    3075,  -6.2500000000e-02,   3.2436334900e-02
    3076,  -5.5000000000e-02,   3.2436334900e-02
    3077,  -5.0000000000e-02,   3.2436334900e-02
    3078,  -4.5000000000e-02,   3.2436334900e-02
    3079,  -4.0000000000e-02,   3.2436334900e-02
    3080,  -3.5000000000e-02,   3.2436334900e-02
    3081,  -3.0000000000e-02,   3.2436334900e-02
    3082,  -2.5000000000e-02,   3.2436334900e-02
    3083,  -2.0000000000e-02,   3.2436334900e-02
    3084,  -1.5000000000e-02,   3.2436334900e-02
    3085,  -1.0000000000e-02,   3.2436334900e-02
    3086,  -5.0000000000e-03,   3.2436334900e-02
    3087,   0.0000000000e+00,   3.2436334900e-02
    3088,   5.0000000000e-03,   3.2436334900e-02
    3089,   1.0000000000e-02,   3.2436334900e-02
    3090,   1.5000000000e-02,   3.2436334900e-02
    3091,   2.0000000000e-02,   3.2436334900e-02
    3092,   2.5000000000e-02,   3.2436334900e-02
    3093,   3.0000000000e-02,   3.2436334900e-02
    3094,   3.5000000000e-02,   3.2436334900e-02
    3095,   4.0000000000e-02,   3.2436334900e-02
    3096,   4.5000000000e-02,   3.2436334900e-02
    3097,   5.0000000000e-02,   3.2436334900e-02
    3098,   5.5000000000e-02,   3.2436334900e-02
    3099,   6.0000000000e-02,   3.2436334900e-02
    3100,   6.5000000000e-02,   3.2436334900e-02
    3101,   7.0000000000e-02,   3.2436334900e-02
    3102,   7.5000000000e-02,   3.2436334900e-02
    3103,   8.0000000000e-02,   3.2436334900e-02
    3104,   8.5000000000e-02,   3.2436334900e-02
    3105,   9.0000000000e-02,   3.2436334900e-02
    3106,   9.5000000000e-02,   3.2436334900e-02
    3107,   1.0000000000e-01,   3.2436334900e-02
    3108,   1.0500000000e-01,   3.2436334900e-02
    3109,   1.1000000000e-01,   3.2436334900e-02
    3110,   1.1500000000e-01,   3.2436334900e-02
    3111,   1.2250000000e-01,   3.2436334900e-02
    3112,   1.3375000000e-01,   3.2436334900e-02
    3113,   1.5062500000e-01,   3.2436334900e-02
    3114,   1.7562500000e-01,   3.2436334900e-02
    3115,   2.0057692310e-01,   3.2436334900e-02
    3116,   2.2552884620e-01,   3.2436334900e-02
    3117,   2.5048076930e-01,   3.2436334900e-02
    3118,   2.7543269240e-01,   3.2436334900e-02
    3119,   3.0038461550e-01,   3.2436334900e-02
    3120,   3.2533653860e-01,   3.2436334900e-02
    3121,   3.5028846170e-01,   3.2436334900e-02
    3122,   3.7524038480e-01,   3.2436334900e-02
    3123,   4.0019230790e-01,   3.2436334900e-02
    3124,   4.2514423100e-01,   3.2436334900e-02
    3125,   4.5009615410e-01,   3.2436334900e-02
    3126,   4.7504807720e-01,   3.2436334900e-02
    3127,   5.0000000000e-01,   3.2436334900e-02
    3128,  -5.0000000000e-01,   3.7376912300e-02
    3129,  -4.7597656250e-01,   3.7376912300e-02
    3130,  -4.5195312500e-01,   3.7376912300e-02
    3131,  -4.2792968750e-01,   3.7376912300e-02
    3132,  -4.0390625000e-01,   3.7376912300e-02
    3133,  -3.7988281250e-01,   3.7376912300e-02
    3134,  -3.5585937500e-01,   3.7376912300e-02
    3135,  -3.3183593750e-01,   3.7376912300e-02
    3136,  -3.0781250000e-01,   3.7376912300e-02
    3137,  -2.8378906250e-01,   3.7376912300e-02
    3138,  -2.5976562500e-01,   3.7376912300e-02
    3139,  -2.3574218750e-01,   3.7376912300e-02
    3140,  -2.1171875000e-01,   3.7376912300e-02
    3141,  -1.8769531250e-01,   3.7376912300e-02
    3142,  -1.6367187500e-01,   3.7376912300e-02
    3143,  -1.3964843750e-01,   3.7376912300e-02
    3144,  -1.1562500000e-01,   3.7376912300e-02
    3145,  -9.0625000000e-02,   3.7376912300e-02
    3146,  -7.3750000000e-02,   3.7376912300e-02
    3147,  -6.2500000000e-02,   3.7376912300e-02
    3148,  -5.5000000000e-02,   3.7376912300e-02
    3149,  -5.0000000000e-02,   3.7376912300e-02
    3150,  -4.5000000000e-02,   3.7376912300e-02
    3151,  -4.0000000000e-02,   3.7376912300e-02
    3152,  -3.5000000000e-02,   3.7376912300e-02
    3153,  -3.0000000000e-02,   3.7376912300e-02
    3154,  -2.5000000000e-02,   3.7376912300e-02
    3155,  -2.0000000000e-02,   3.7376912300e-02
    3156,  -1.5000000000e-02,   3.7376912300e-02
    3157,  -1.0000000000e-02,   3.7376912300e-02
    3158,  -5.0000000000e-03,   3.7376912300e-02
    3159,   0.0000000000e+00,   3.7376912300e-02
    3160,   5.0000000000e-03,   3.7376912300e-02
    3161,   1.0000000000e-02,   3.7376912300e-02
    3162,   1.5000000000e-02,   3.7376912300e-02
    3163,   2.0000000000e-02,   3.7376912300e-02
    3164,   2.5000000000e-02,   3.7376912300e-02
    3165,   3.0000000000e-02,   3.7376912300e-02
    3166,   3.5000000000e-02,   3.7376912300e-02
    3167,   4.0000000000e-02,   3.7376912300e-02
    3168,   4.5000000000e-02,   3.7376912300e-02
    3169,   5.0000000000e-02,   3.7376912300e-02
    3170,   5.5000000000e-02,   3.7376912300e-02
    3171,   6.0000000000e-02,   3.7376912300e-02
    3172,   6.5000000000e-02,   3.7376912300e-02
    3173,   7.0000000000e-02,   3.7376912300e-02
    3174,   7.5000000000e-02,   3.7376912300e-02
    3175,   8.0000000000e-02,   3.7376912300e-02
    3176,   8.5000000000e-02,   3.7376912300e-02
    3177,   9.0000000000e-02,   3.7376912300e-02
    3178,   9.5000000000e-02,   3.7376912300e-02
    3179,   1.0000000000e-01,   3.7376912300e-02
    3180,   1.0500000000e-01,   3.7376912300e-02
    3181,   1.1000000000e-01,   3.7376912300e-02
    3182,   1.1500000000e-01,   3.7376912300e-02
    3183,   1.2250000000e-01,   3.7376912300e-02
    3184,   1.3375000000e-01,   3.7376912300e-02
    3185,   1.5062500000e-01,   3.7376912300e-02
    3186,   1.7562500000e-01,   3.7376912300e-02
    3187,   2.0057692310e-01,   3.7376912300e-02
    3188,   2.2552884620e-01,   3.7376912300e-02
    3189,   2.5048076930e-01,   3.7376912300e-02
    3190,   2.7543269240e-01,   3.7376912300e-02
    3191,   3.0038461550e-01,   3.7376912300e-02
    3192,   3.2533653860e-01,   3.7376912300e-02
    3193,   3.5028846170e-01,   3.7376912300e-02
    3194,   3.7524038480e-01,   3.7376912300e-02
    3195,   4.0019230790e-01,   3.7376912300e-02
    3196,   4.2514423100e-01,   3.7376912300e-02
    3197,   4.5009615410e-01,   3.7376912300e-02
    3198,   4.7504807720e-01,   3.7376912300e-02
    3199,   5.0000000000e-01,   3.7376912300e-02
    3200,  -5.0000000000e-01,   4.2317489700e-02
    3201,  -4.7597656250e-01,   4.2317489700e-02
    3202,  -4.5195312500e-01,   4.2317489700e-02
    3203,  -4.2792968750e-01,   4.2317489700e-02
    3204,  -4.0390625000e-01,   4.2317489700e-02
    3205,  -3.7988281250e-01,   4.2317489700e-02
    3206,  -3.5585937500e-01,   4.2317489700e-02
    3207,  -3.3183593750e-01,   4.2317489700e-02
    3208,  -3.0781250000e-01,   4.2317489700e-02
    3209,  -2.8378906250e-01,   4.2317489700e-02
    3210,  -2.5976562500e-01,   4.2317489700e-02
    3211,  -2.3574218750e-01,   4.2317489700e-02
    3212,  -2.1171875000e-01,   4.2317489700e-02
    3213,  -1.8769531250e-01,   4.2317489700e-02
    3214,  -1.6367187500e-01,   4.2317489700e-02
    3215,  -1.3964843750e-01,   4.2317489700e-02
    3216,  -1.1562500000e-01,   4.2317489700e-02
    3217,  -9.0625000000e-02,   4.2317489700e-02
    3218,  -7.3750000000e-02,   4.2317489700e-02
    3219,  -6.2500000000e-02,   4.2317489700e-02
    3220,  -5.5000000000e-02,   4.2317489700e-02
    3221,  -5.0000000000e-02,   4.2317489700e-02
    3222,  -4.5000000000e-02,   4.2317489700e-02
    3223,  -4.0000000000e-02,   4.2317489700e-02
    3224,  -3.5000000000e-02,   4.2317489700e-02
    3225,  -3.0000000000e-02,   4.2317489700e-02
    3226,  -2.5000000000e-02,   4.2317489700e-02
    3227,  -2.0000000000e-02,   4.2317489700e-02
    3228,  -1.5000000000e-02,   4.2317489700e-02
    3229,  -1.0000000000e-02,   4.2317489700e-02
    3230,  -5.0000000000e-03,   4.2317489700e-02
    3231,   0.0000000000e+00,   4.2317489700e-02
    3232,   5.0000000000e-03,   4.2317489700e-02
    3233,   1.0000000000e-02,   4.2317489700e-02
    3234,   1.5000000000e-02,   4.2317489700e-02
    3235,   2.0000000000e-02,   4.2317489700e-02
    3236,   2.5000000000e-02,   4.2317489700e-02
    3237,   3.0000000000e-02,   4.2317489700e-02
    3238,   3.5000000000e-02,   4.2317489700e-02
    3239,   4.0000000000e-02,   4.2317489700e-02
    3240,   4.5000000000e-02,   4.2317489700e-02
    3241,   5.0000000000e-02,   4.2317489700e-02
    3242,   5.5000000000e-02,   4.2317489700e-02
    3243,   6.0000000000e-02,   4.2317489700e-02
    3244,   6.5000000000e-02,   4.2317489700e-02
    3245,   7.0000000000e-02,   4.2317489700e-02
    3246,   7.5000000000e-02,   4.2317489700e-02
    3247,   8.0000000000e-02,   4.2317489700e-02
    3248,   8.5000000000e-02,   4.2317489700e-02
    3249,   9.0000000000e-02,   4.2317489700e-02
    3250,   9.5000000000e-02,   4.2317489700e-02
    3251,   1.0000000000e-01,   4.2317489700e-02
    3252,   1.0500000000e-01,   4.2317489700e-02
    3253,   1.1000000000e-01,   4.2317489700e-02
    3254,   1.1500000000e-01,   4.2317489700e-02
    3255,   1.2250000000e-01,   4.2317489700e-02
    3256,   1.3375000000e-01,   4.2317489700e-02
    3257,   1.5062500000e-01,   4.2317489700e-02
    3258,   1.7562500000e-01,   4.2317489700e-02
    3259,   2.0057692310e-01,   4.2317489700e-02
    3260,   2.2552884620e-01,   4.2317489700e-02
    3261,   2.5048076930e-01,   4.2317489700e-02
    3262,   2.7543269240e-01,   4.2317489700e-02
    3263,   3.0038461550e-01,   4.2317489700e-02
    3264,   3.2533653860e-01,   4.2317489700e-02
    3265,   3.5028846170e-01,   4.2317489700e-02
    3266,   3.7524038480e-01,   4.2317489700e-02
    3267,   4.0019230790e-01,   4.2317489700e-02
    3268,   4.2514423100e-01,   4.2317489700e-02
    3269,   4.5009615410e-01,   4.2317489700e-02
    3270,   4.7504807720e-01,   4.2317489700e-02
    3271,   5.0000000000e-01,   4.2317489700e-02
    3272,  -5.0000000000e-01,   4.7258067100e-02
    3273,  -4.7597656250e-01,   4.7258067100e-02
    3274,  -4.5195312500e-01,   4.7258067100e-02
    3275,  -4.2792968750e-01,   4.7258067100e-02
    3276,  -4.0390625000e-01,   4.7258067100e-02
    3277,  -3.7988281250e-01,   4.7258067100e-02
    3278,  -3.5585937500e-01,   4.7258067100e-02
    3279,  -3.3183593750e-01,   4.7258067100e-02
    3280,  -3.0781250000e-01,   4.7258067100e-02
    3281,  -2.8378906250e-01,   4.7258067100e-02
    3282,  -2.5976562500e-01,   4.7258067100e-02
    3283,  -2.3574218750e-01,   4.7258067100e-02
    3284,  -2.1171875000e-01,   4.7258067100e-02
    3285,  -1.8769531250e-01,   4.7258067100e-02
    3286,  -1.6367187500e-01,   4.7258067100e-02
    3287,  -1.3964843750e-01,   4.7258067100e-02
    3288,  -1.1562500000e-01,   4.7258067100e-02
    3289,  -9.0625000000e-02,   4.7258067100e-02
    3290,  -7.3750000000e-02,   4.7258067100e-02
    3291,  -6.2500000000e-02,   4.7258067100e-02
    3292,  -5.5000000000e-02,   4.7258067100e-02
    3293,  -5.0000000000e-02,   4.7258067100e-02
    3294,  -4.5000000000e-02,   4.7258067100e-02
    3295,  -4.0000000000e-02,   4.7258067100e-02
    3296,  -3.5000000000e-02,   4.7258067100e-02
    3297,  -3.0000000000e-02,   4.7258067100e-02
    3298,  -2.5000000000e-02,   4.7258067100e-02
    3299,  -2.0000000000e-02,   4.7258067100e-02
    3300,  -1.5000000000e-02,   4.7258067100e-02
    3301,  -1.0000000000e-02,   4.7258067100e-02
    3302,  -5.0000000000e-03,   4.7258067100e-02
    3303,   0.0000000000e+00,   4.7258067100e-02
    3304,   5.0000000000e-03,   4.7258067100e-02
    3305,   1.0000000000e-02,   4.7258067100e-02
    3306,   1.5000000000e-02,   4.7258067100e-02
    3307,   2.0000000000e-02,   4.7258067100e-02
    3308,   2.5000000000e-02,   4.7258067100e-02
    3309,   3.0000000000e-02,   4.7258067100e-02
    3310,   3.5000000000e-02,   4.7258067100e-02
    3311,   4.0000000000e-02,   4.7258067100e-02
    3312,   4.5000000000e-02,   4.7258067100e-02
    3313,   5.0000000000e-02,   4.7258067100e-02
    3314,   5.5000000000e-02,   4.7258067100e-02
    3315,   6.0000000000e-02,   4.7258067100e-02
    3316,   6.5000000000e-02,   4.7258067100e-02
    3317,   7.0000000000e-02,   4.7258067100e-02
    3318,   7.5000000000e-02,   4.7258067100e-02
    3319,   8.0000000000e-02,   4.7258067100e-02
    3320,   8.5000000000e-02,   4.7258067100e-02
    3321,   9.0000000000e-02,   4.7258067100e-02
    3322,   9.5000000000e-02,   4.7258067100e-02
    3323,   1.0000000000e-01,   4.7258067100e-02
    3324,   1.0500000000e-01,   4.7258067100e-02
    3325,   1.1000000000e-01,   4.7258067100e-02
    3326,   1.1500000000e-01,   4.7258067100e-02
    3327,   1.2250000000e-01,   4.7258067100e-02
    3328,   1.3375000000e-01,   4.7258067100e-02
    3329,   1.5062500000e-01,   4.7258067100e-02
    3330,   1.7562500000e-01,   4.7258067100e-02
    3331,   2.0057692310e-01,   4.7258067100e-02
    3332,   2.2552884620e-01,   4.7258067100e-02
    3333,   2.5048076930e-01,   4.7258067100e-02
    3334,   2.7543269240e-01,   4.7258067100e-02
    3335,   3.0038461550e-01,   4.7258067100e-02
    3336,   3.2533653860e-01,   4.7258067100e-02
    3337,   3.5028846170e-01,   4.7258067100e-02
    3338,   3.7524038480e-01,   4.7258067100e-02
    3339,   4.0019230790e-01,   4.7258067100e-02
    3340,   4.2514423100e-01,   4.7258067100e-02
    3341,   4.5009615410e-01,   4.7258067100e-02
    3342,   4.7504807720e-01,   4.7258067100e-02
    3343,   5.0000000000e-01,   4.7258067100e-02
    3344,  -5.0000000000e-01,   5.2198644500e-02
    3345,  -4.7597656250e-01,   5.2198644500e-02
    3346,  -4.5195312500e-01,   5.2198644500e-02
    3347,  -4.2792968750e-01,   5.2198644500e-02
    3348,  -4.0390625000e-01,   5.2198644500e-02
    3349,  -3.7988281250e-01,   5.2198644500e-02
    3350,  -3.5585937500e-01,   5.2198644500e-02
    3351,  -3.3183593750e-01,   5.2198644500e-02
    3352,  -3.0781250000e-01,   5.2198644500e-02
    3353,  -2.8378906250e-01,   5.2198644500e-02
    3354,  -2.5976562500e-01,   5.2198644500e-02
    3355,  -2.3574218750e-01,   5.2198644500e-02
    3356,  -2.1171875000e-01,   5.2198644500e-02
    3357,  -1.8769531250e-01,   5.2198644500e-02
    3358,  -1.6367187500e-01,   5.2198644500e-02
    3359,  -1.3964843750e-01,   5.2198644500e-02
    3360,  -1.1562500000e-01,   5.2198644500e-02
    3361,  -9.0625000000e-02,   5.2198644500e-02
    3362,  -7.3750000000e-02,   5.2198644500e-02
    3363,  -6.2500000000e-02,   5.2198644500e-02
    3364,  -5.5000000000e-02,   5.2198644500e-02
    3365,  -5.0000000000e-02,   5.2198644500e-02
    3366,  -4.5000000000e-02,   5.2198644500e-02
    3367,  -4.0000000000e-02,   5.2198644500e-02
    3368,  -3.5000000000e-02,   5.2198644500e-02
    3369,  -3.0000000000e-02,   5.2198644500e-02
    3370,  -2.5000000000e-02,   5.2198644500e-02
    3371,  -2.0000000000e-02,   5.2198644500e-02
    3372,  -1.5000000000e-02,   5.2198644500e-02
    3373,  -1.0000000000e-02,   5.2198644500e-02
    3374,  -5.0000000000e-03,   5.2198644500e-02
    3375,   0.0000000000e+00,   5.2198644500e-02
    3376,   5.0000000000e-03,   5.2198644500e-02
    3377,   1.0000000000e-02,   5.2198644500e-02
    3378,   1.5000000000e-02,   5.2198644500e-02
    3379,   2.0000000000e-02,   5.2198644500e-02
    3380,   2.5000000000e-02,   5.2198644500e-02
    3381,   3.0000000000e-02,   5.2198644500e-02
    3382,   3.5000000000e-02,   5.2198644500e-02
    3383,   4.0000000000e-02,   5.2198644500e-02
    3384,   4.5000000000e-02,   5.2198644500e-02
    3385,   5.0000000000e-02,   5.2198644500e-02
    3386,   5.5000000000e-02,   5.2198644500e-02
    3387,   6.0000000000e-02,   5.2198644500e-02
    3388,   6.5000000000e-02,   5.2198644500e-02
    3389,   7.0000000000e-02,   5.2198644500e-02
    3390,   7.5000000000e-02,   5.2198644500e-02
    3391,   8.0000000000e-02,   5.2198644500e-02
    3392,   8.5000000000e-02,   5.2198644500e-02
    3393,   9.0000000000e-02,   5.2198644500e-02
    3394,   9.5000000000e-02,   5.2198644500e-02
    3395,   1.0000000000e-01,   5.2198644500e-02
    3396,   1.0500000000e-01,   5.2198644500e-02
    3397,   1.1000000000e-01,   5.2198644500e-02
    3398,   1.1500000000e-01,   5.2198644500e-02
    3399,   1.2250000000e-01,   5.2198644500e-02
    3400,   1.3375000000e-01,   5.2198644500e-02
    3401,   1.5062500000e-01,   5.2198644500e-02
    3402,   1.7562500000e-01,   5.2198644500e-02
    3403,   2.0057692310e-01,   5.2198644500e-02
    3404,   2.2552884620e-01,   5.2198644500e-02
    3405,   2.5048076930e-01,   5.2198644500e-02
    3406,   2.7543269240e-01,   5.2198644500e-02
    3407,   3.0038461550e-01,   5.2198644500e-02
    3408,   3.2533653860e-01,   5.2198644500e-02
    3409,   3.5028846170e-01,   5.2198644500e-02
    3410,   3.7524038480e-01,   5.2198644500e-02
    3411,   4.0019230790e-01,   5.2198644500e-02
    3412,   4.2514423100e-01,   5.2198644500e-02
    3413,   4.5009615410e-01,   5.2198644500e-02
    3414,   4.7504807720e-01,   5.2198644500e-02
    3415,   5.0000000000e-01,   5.2198644500e-02
    3416,  -5.0000000000e-01,   5.7139221900e-02
    3417,  -4.7597656250e-01,   5.7139221900e-02
    3418,  -4.5195312500e-01,   5.7139221900e-02
    3419,  -4.2792968750e-01,   5.7139221900e-02
    3420,  -4.0390625000e-01,   5.7139221900e-02
    3421,  -3.7988281250e-01,   5.7139221900e-02
    3422,  -3.5585937500e-01,   5.7139221900e-02
    3423,  -3.3183593750e-01,   5.7139221900e-02
    3424,  -3.0781250000e-01,   5.7139221900e-02
    3425,  -2.8378906250e-01,   5.7139221900e-02
    3426,  -2.5976562500e-01,   5.7139221900e-02
    3427,  -2.3574218750e-01,   5.7139221900e-02
    3428,  -2.1171875000e-01,   5.7139221900e-02
    3429,  -1.8769531250e-01,   5.7139221900e-02
    3430,  -1.6367187500e-01,   5.7139221900e-02
    3431,  -1.3964843750e-01,   5.7139221900e-02
    3432,  -1.1562500000e-01,   5.7139221900e-02
    3433,  -9.0625000000e-02,   5.7139221900e-02
    3434,  -7.3750000000e-02,   5.7139221900e-02
    3435,  -6.2500000000e-02,   5.7139221900e-02
    3436,  -5.5000000000e-02,   5.7139221900e-02
    3437,  -5.0000000000e-02,   5.7139221900e-02
    3438,  -4.5000000000e-02,   5.7139221900e-02
    3439,  -4.0000000000e-02,   5.7139221900e-02
    3440,  -3.5000000000e-02,   5.7139221900e-02
    3441,  -3.0000000000e-02,   5.7139221900e-02
    3442,  -2.5000000000e-02,   5.7139221900e-02
    3443,  -2.0000000000e-02,   5.7139221900e-02
    3444,  -1.5000000000e-02,   5.7139221900e-02
    3445,  -1.0000000000e-02,   5.7139221900e-02
    3446,  -5.0000000000e-03,   5.7139221900e-02
    3447,   0.0000000000e+00,   5.7139221900e-02
    3448,   5.0000000000e-03,   5.7139221900e-02
    3449,   1.0000000000e-02,   5.7139221900e-02
    3450,   1.5000000000e-02,   5.7139221900e-02
    3451,   2.0000000000e-02,   5.7139221900e-02
    3452,   2.5000000000e-02,   5.7139221900e-02
    3453,   3.0000000000e-02,   5.7139221900e-02
    3454,   3.5000000000e-02,   5.7139221900e-02
    3455,   4.0000000000e-02,   5.7139221900e-02
    3456,   4.5000000000e-02,   5.7139221900e-02
    3457,   5.0000000000e-02,   5.7139221900e-02
    3458,   5.5000000000e-02,   5.7139221900e-02
    3459,   6.0000000000e-02,   5.7139221900e-02
    3460,   6.5000000000e-02,   5.7139221900e-02
    3461,   7.0000000000e-02,   5.7139221900e-02
    3462,   7.5000000000e-02,   5.7139221900e-02
    3463,   8.0000000000e-02,   5.7139221900e-02
    3464,   8.5000000000e-02,   5.7139221900e-02
    3465,   9.0000000000e-02,   5.7139221900e-02
    3466,   9.5000000000e-02,   5.7139221900e-02
    3467,   1.0000000000e-01,   5.7139221900e-02
    3468,   1.0500000000e-01,   5.7139221900e-02
    3469,   1.1000000000e-01,   5.7139221900e-02
    3470,   1.1500000000e-01,   5.7139221900e-02
    3471,   1.2250000000e-01,   5.7139221900e-02
    3472,   1.3375000000e-01,   5.7139221900e-02
    3473,   1.5062500000e-01,   5.7139221900e-02
    3474,   1.7562500000e-01,   5.7139221900e-02
    3475,   2.0057692310e-01,   5.7139221900e-02
    3476,   2.2552884620e-01,   5.7139221900e-02
    3477,   2.5048076930e-01,   5.7139221900e-02
    3478,   2.7543269240e-01,   5.7139221900e-02
    3479,   3.0038461550e-01,   5.7139221900e-02
    3480,   3.2533653860e-01,   5.7139221900e-02
    3481,   3.5028846170e-01,   5.7139221900e-02
    3482,   3.7524038480e-01,   5.7139221900e-02
    3483,   4.0019230790e-01,   5.7139221900e-02
    3484,   4.2514423100e-01,   5.7139221900e-02
    3485,   4.5009615410e-01,   5.7139221900e-02
    3486,   4.7504807720e-01,   5.7139221900e-02
    3487,   5.0000000000e-01,   5.7139221900e-02
    3488,  -5.0000000000e-01,   6.2079799300e-02
    3489,  -4.7597656250e-01,   6.2079799300e-02
    3490,  -4.5195312500e-01,   6.2079799300e-02
    3491,  -4.2792968750e-01,   6.2079799300e-02
    3492,  -4.0390625000e-01,   6.2079799300e-02
    3493,  -3.7988281250e-01,   6.2079799300e-02
    3494,  -3.5585937500e-01,   6.2079799300e-02
    3495,  -3.3183593750e-01,   6.2079799300e-02
    3496,  -3.0781250000e-01,   6.2079799300e-02
    3497,  -2.8378906250e-01,   6.2079799300e-02
    3498,  -2.5976562500e-01,   6.2079799300e-02
    3499,  -2.3574218750e-01,   6.2079799300e-02
    3500,  -2.1171875000e-01,   6.2079799300e-02
    3501,  -1.8769531250e-01,   6.2079799300e-02
    3502,  -1.6367187500e-01,   6.2079799300e-02
    3503,  -1.3964843750e-01,   6.2079799300e-02
    3504,  -1.1562500000e-01,   6.2079799300e-02
    3505,  -9.0625000000e-02,   6.2079799300e-02
    3506,  -7.3750000000e-02,   6.2079799300e-02
    3507,  -6.2500000000e-02,   6.2079799300e-02
    3508,  -5.5000000000e-02,   6.2079799300e-02
    3509,  -5.0000000000e-02,   6.2079799300e-02
    3510,  -4.5000000000e-02,   6.2079799300e-02
    3511,  -4.0000000000e-02,   6.2079799300e-02
    3512,  -3.5000000000e-02,   6.2079799300e-02
    3513,  -3.0000000000e-02,   6.2079799300e-02
    3514,  -2.5000000000e-02,   6.2079799300e-02
    3515,  -2.0000000000e-02,   6.2079799300e-02
    3516,  -1.5000000000e-02,   6.2079799300e-02
    3517,  -1.0000000000e-02,   6.2079799300e-02
    3518,  -5.0000000000e-03,   6.2079799300e-02
    3519,   0.0000000000e+00,   6.2079799300e-02
    3520,   5.0000000000e-03,   6.2079799300e-02
    3521,   1.0000000000e-02,   6.2079799300e-02
    3522,   1.5000000000e-02,   6.2079799300e-02
    3523,   2.0000000000e-02,   6.2079799300e-02
    3524,   2.5000000000e-02,   6.2079799300e-02
    3525,   3.0000000000e-02,   6.2079799300e-02
    3526,   3.5000000000e-02,   6.2079799300e-02
    3527,   4.0000000000e-02,   6.2079799300e-02
    3528,   4.5000000000e-02,   6.2079799300e-02
    3529,   5.0000000000e-02,   6.2079799300e-02
    3530,   5.5000000000e-02,   6.2079799300e-02
    3531,   6.0000000000e-02,   6.2079799300e-02
    3532,   6.5000000000e-02,   6.2079799300e-02
    3533,   7.0000000000e-02,   6.2079799300e-02
    3534,   7.5000000000e-02,   6.2079799300e-02
    3535,   8.0000000000e-02,   6.2079799300e-02
    3536,   8.5000000000e-02,   6.2079799300e-02
    3537,   9.0000000000e-02,   6.2079799300e-02
    3538,   9.5000000000e-02,   6.2079799300e-02
    3539,   1.0000000000e-01,   6.2079799300e-02
    3540,   1.0500000000e-01,   6.2079799300e-02
    3541,   1.1000000000e-01,   6.2079799300e-02
    3542,   1.1500000000e-01,   6.2079799300e-02
    3543,   1.2250000000e-01,   6.2079799300e-02
    3544,   1.3375000000e-01,   6.2079799300e-02
    3545,   1.5062500000e-01,   6.2079799300e-02
    3546,   1.7562500000e-01,   6.2079799300e-02
    3547,   2.0057692310e-01,   6.2079799300e-02
    3548,   2.2552884620e-01,   6.2079799300e-02
    3549,   2.5048076930e-01,   6.2079799300e-02
    3550,   2.7543269240e-01,   6.2079799300e-02
    3551,   3.0038461550e-01,   6.2079799300e-02
    3552,   3.2533653860e-01,   6.2079799300e-02
    3553,   3.5028846170e-01,   6.2079799300e-02
    3554,   3.7524038480e-01,   6.2079799300e-02
    3555,   4.0019230790e-01,   6.2079799300e-02
    3556,   4.2514423100e-01,   6.2079799300e-02
    3557,   4.5009615410e-01,   6.2079799300e-02
    3558,   4.7504807720e-01,   6.2079799300e-02
    3559,   5.0000000000e-01,   6.2079799300e-02
    3560,  -5.0000000000e-01,   6.7020376700e-02
    3561,  -4.7597656250e-01,   6.7020376700e-02
    3562,  -4.5195312500e-01,   6.7020376700e-02
    3563,  -4.2792968750e-01,   6.7020376700e-02
    3564,  -4.0390625000e-01,   6.7020376700e-02
    3565,  -3.7988281250e-01,   6.7020376700e-02
    3566,  -3.5585937500e-01,   6.7020376700e-02
    3567,  -3.3183593750e-01,   6.7020376700e-02
    3568,  -3.0781250000e-01,   6.7020376700e-02
    3569,  -2.8378906250e-01,   6.7020376700e-02
    3570,  -2.5976562500e-01,   6.7020376700e-02
    3571,  -2.3574218750e-01,   6.7020376700e-02
    3572,  -2.1171875000e-01,   6.7020376700e-02
    3573,  -1.8769531250e-01,   6.7020376700e-02
    3574,  -1.6367187500e-01,   6.7020376700e-02
    3575,  -1.3964843750e-01,   6.7020376700e-02
    3576,  -1.1562500000e-01,   6.7020376700e-02
    3577,  -9.0625000000e-02,   6.7020376700e-02
    3578,  -7.3750000000e-02,   6.7020376700e-02
    3579,  -6.2500000000e-02,   6.7020376700e-02
    3580,  -5.5000000000e-02,   6.7020376700e-02
    3581,  -5.0000000000e-02,   6.7020376700e-02
    3582,  -4.5000000000e-02,   6.7020376700e-02
    3583,  -4.0000000000e-02,   6.7020376700e-02
    3584,  -3.5000000000e-02,   6.7020376700e-02
    3585,  -3.0000000000e-02,   6.7020376700e-02
    3586,  -2.5000000000e-02,   6.7020376700e-02
    3587,  -2.0000000000e-02,   6.7020376700e-02
    3588,  -1.5000000000e-02,   6.7020376700e-02
    3589,  -1.0000000000e-02,   6.7020376700e-02
    3590,  -5.0000000000e-03,   6.7020376700e-02
    3591,   0.0000000000e+00,   6.7020376700e-02
    3592,   5.0000000000e-03,   6.7020376700e-02
    3593,   1.0000000000e-02,   6.7020376700e-02
    3594,   1.5000000000e-02,   6.7020376700e-02
    3595,   2.0000000000e-02,   6.7020376700e-02
    3596,   2.5000000000e-02,   6.7020376700e-02
    3597,   3.0000000000e-02,   6.7020376700e-02
    3598,   3.5000000000e-02,   6.7020376700e-02
    3599,   4.0000000000e-02,   6.7020376700e-02
    3600,   4.5000000000e-02,   6.7020376700e-02
    3601,   5.0000000000e-02,   6.7020376700e-02
    3602,   5.5000000000e-02,   6.7020376700e-02
    3603,   6.0000000000e-02,   6.7020376700e-02
    3604,   6.5000000000e-02,   6.7020376700e-02
    3605,   7.0000000000e-02,   6.7020376700e-02
    3606,   7.5000000000e-02,   6.7020376700e-02
    3607,   8.0000000000e-02,   6.7020376700e-02
    3608,   8.5000000000e-02,   6.7020376700e-02
    3609,   9.0000000000e-02,   6.7020376700e-02
    3610,   9.5000000000e-02,   6.7020376700e-02
    3611,   1.0000000000e-01,   6.7020376700e-02
    3612,   1.0500000000e-01,   6.7020376700e-02
    3613,   1.1000000000e-01,   6.7020376700e-02
    3614,   1.1500000000e-01,   6.7020376700e-02
    3615,   1.2250000000e-01,   6.7020376700e-02
    3616,   1.3375000000e-01,   6.7020376700e-02
    3617,   1.5062500000e-01,   6.7020376700e-02
    3618,   1.7562500000e-01,   6.7020376700e-02
    3619,   2.0057692310e-01,   6.7020376700e-02
    3620,   2.2552884620e-01,   6.7020376700e-02
    3621,   2.5048076930e-01,   6.7020376700e-02
    3622,   2.7543269240e-01,   6.7020376700e-02
    3623,   3.0038461550e-01,   6.7020376700e-02
    3624,   3.2533653860e-01,   6.7020376700e-02
    3625,   3.5028846170e-01,   6.7020376700e-02
    3626,   3.7524038480e-01,   6.7020376700e-02
    3627,   4.0019230790e-01,   6.7020376700e-02
    3628,   4.2514423100e-01,   6.7020376700e-02
    3629,   4.5009615410e-01,   6.7020376700e-02
    3630,   4.7504807720e-01,   6.7020376700e-02
    3631,   5.0000000000e-01,   6.7020376700e-02
    3632,  -5.0000000000e-01,   7.1960954100e-02
    3633,  -4.7597656250e-01,   7.1960954100e-02
    3634,  -4.5195312500e-01,   7.1960954100e-02
    3635,  -4.2792968750e-01,   7.1960954100e-02
    3636,  -4.0390625000e-01,   7.1960954100e-02
    3637,  -3.7988281250e-01,   7.1960954100e-02
    3638,  -3.5585937500e-01,   7.1960954100e-02
    3639,  -3.3183593750e-01,   7.1960954100e-02
    3640,  -3.0781250000e-01,   7.1960954100e-02
    3641,  -2.8378906250e-01,   7.1960954100e-02
    3642,  -2.5976562500e-01,   7.1960954100e-02
    3643,  -2.3574218750e-01,   7.1960954100e-02
    3644,  -2.1171875000e-01,   7.1960954100e-02
    3645,  -1.8769531250e-01,   7.1960954100e-02
    3646,  -1.6367187500e-01,   7.1960954100e-02
    3647,  -1.3964843750e-01,   7.1960954100e-02
    3648,  -1.1562500000e-01,   7.1960954100e-02
    3649,  -9.0625000000e-02,   7.1960954100e-02
    3650,  -7.3750000000e-02,   7.1960954100e-02
    3651,  -6.2500000000e-02,   7.1960954100e-02
    3652,  -5.5000000000e-02,   7.1960954100e-02
    3653,  -5.0000000000e-02,   7.1960954100e-02
    3654,  -4.5000000000e-02,   7.1960954100e-02
    3655,  -4.0000000000e-02,   7.1960954100e-02
    3656,  -3.5000000000e-02,   7.1960954100e-02
    3657,  -3.0000000000e-02,   7.1960954100e-02
    3658,  -2.5000000000e-02,   7.1960954100e-02
    3659,  -2.0000000000e-02,   7.1960954100e-02
    3660,  -1.5000000000e-02,   7.1960954100e-02
    3661,  -1.0000000000e-02,   7.1960954100e-02
    3662,  -5.0000000000e-03,   7.1960954100e-02
    3663,   0.0000000000e+00,   7.1960954100e-02
    3664,   5.0000000000e-03,   7.1960954100e-02
    3665,   1.0000000000e-02,   7.1960954100e-02
    3666,   1.5000000000e-02,   7.1960954100e-02
    3667,   2.0000000000e-02,   7.1960954100e-02
    3668,   2.5000000000e-02,   7.1960954100e-02
    3669,   3.0000000000e-02,   7.1960954100e-02
    3670,   3.5000000000e-02,   7.1960954100e-02
    3671,   4.0000000000e-02,   7.1960954100e-02
    3672,   4.5000000000e-02,   7.1960954100e-02
    3673,   5.0000000000e-02,   7.1960954100e-02
    3674,   5.5000000000e-02,   7.1960954100e-02
    3675,   6.0000000000e-02,   7.1960954100e-02
    3676,   6.5000000000e-02,   7.1960954100e-02
    3677,   7.0000000000e-02,   7.1960954100e-02
    3678,   7.5000000000e-02,   7.1960954100e-02
    3679,   8.0000000000e-02,   7.1960954100e-02
    3680,   8.5000000000e-02,   7.1960954100e-02
    3681,   9.0000000000e-02,   7.1960954100e-02
    3682,   9.5000000000e-02,   7.1960954100e-02
    3683,   1.0000000000e-01,   7.1960954100e-02
    3684,   1.0500000000e-01,   7.1960954100e-02
    3685,   1.1000000000e-01,   7.1960954100e-02
    3686,   1.1500000000e-01,   7.1960954100e-02
    3687,   1.2250000000e-01,   7.1960954100e-02
    3688,   1.3375000000e-01,   7.1960954100e-02
    3689,   1.5062500000e-01,   7.1960954100e-02
    3690,   1.7562500000e-01,   7.1960954100e-02
    3691,   2.0057692310e-01,   7.1960954100e-02
    3692,   2.2552884620e-01,   7.1960954100e-02
    3693,   2.5048076930e-01,   7.1960954100e-02
    3694,   2.7543269240e-01,   7.1960954100e-02
    3695,   3.0038461550e-01,   7.1960954100e-02
    3696,   3.2533653860e-01,   7.1960954100e-02
    3697,   3.5028846170e-01,   7.1960954100e-02
    3698,   3.7524038480e-01,   7.1960954100e-02
    3699,   4.0019230790e-01,   7.1960954100e-02
    3700,   4.2514423100e-01,   7.1960954100e-02
    3701,   4.5009615410e-01,   7.1960954100e-02
    3702,   4.7504807720e-01,   7.1960954100e-02
    3703,   5.0000000000e-01,   7.1960954100e-02
    3704,  -5.0000000000e-01,   7.6901531500e-02
    3705,  -4.7597656250e-01,   7.6901531500e-02
    3706,  -4.5195312500e-01,   7.6901531500e-02
    3707,  -4.2792968750e-01,   7.6901531500e-02
    3708,  -4.0390625000e-01,   7.6901531500e-02
    3709,  -3.7988281250e-01,   7.6901531500e-02
    3710,  -3.5585937500e-01,   7.6901531500e-02
    3711,  -3.3183593750e-01,   7.6901531500e-02
    3712,  -3.0781250000e-01,   7.6901531500e-02
    3713,  -2.8378906250e-01,   7.6901531500e-02
    3714,  -2.5976562500e-01,   7.6901531500e-02
    3715,  -2.3574218750e-01,   7.6901531500e-02
    3716,  -2.1171875000e-01,   7.6901531500e-02
    3717,  -1.8769531250e-01,   7.6901531500e-02
    3718,  -1.6367187500e-01,   7.6901531500e-02
    3719,  -1.3964843750e-01,   7.6901531500e-02
    3720,  -1.1562500000e-01,   7.6901531500e-02
    3721,  -9.0625000000e-02,   7.6901531500e-02
    3722,  -7.3750000000e-02,   7.6901531500e-02
    3723,  -6.2500000000e-02,   7.6901531500e-02
    3724,  -5.5000000000e-02,   7.6901531500e-02
    3725,  -5.0000000000e-02,   7.6901531500e-02
    3726,  -4.5000000000e-02,   7.6901531500e-02
    3727,  -4.0000000000e-02,   7.6901531500e-02
    3728,  -3.5000000000e-02,   7.6901531500e-02
    3729,  -3.0000000000e-02,   7.6901531500e-02
    3730,  -2.5000000000e-02,   7.6901531500e-02
    3731,  -2.0000000000e-02,   7.6901531500e-02
    3732,  -1.5000000000e-02,   7.6901531500e-02
    3733,  -1.0000000000e-02,   7.6901531500e-02
    3734,  -5.0000000000e-03,   7.6901531500e-02
    3735,   0.0000000000e+00,   7.6901531500e-02
    3736,   5.0000000000e-03,   7.6901531500e-02
    3737,   1.0000000000e-02,   7.6901531500e-02
    3738,   1.5000000000e-02,   7.6901531500e-02
    3739,   2.0000000000e-02,   7.6901531500e-02
    3740,   2.5000000000e-02,   7.6901531500e-02
    3741,   3.0000000000e-02,   7.6901531500e-02
    3742,   3.5000000000e-02,   7.6901531500e-02
    3743,   4.0000000000e-02,   7.6901531500e-02
    3744,   4.5000000000e-02,   7.6901531500e-02
    3745,   5.0000000000e-02,   7.6901531500e-02
    3746,   5.5000000000e-02,   7.6901531500e-02
    3747,   6.0000000000e-02,   7.6901531500e-02
    3748,   6.5000000000e-02,   7.6901531500e-02
    3749,   7.0000000000e-02,   7.6901531500e-02
    3750,   7.5000000000e-02,   7.6901531500e-02
    3751,   8.0000000000e-02,   7.6901531500e-02
    3752,   8.5000000000e-02,   7.6901531500e-02
    3753,   9.0000000000e-02,   7.6901531500e-02
    3754,   9.5000000000e-02,   7.6901531500e-02
    3755,   1.0000000000e-01,   7.6901531500e-02
    3756,   1.0500000000e-01,   7.6901531500e-02
    3757,   1.1000000000e-01,   7.6901531500e-02
    3758,   1.1500000000e-01,   7.6901531500e-02
    3759,   1.2250000000e-01,   7.6901531500e-02
    3760,   1.3375000000e-01,   7.6901531500e-02
    3761,   1.5062500000e-01,   7.6901531500e-02
    3762,   1.7562500000e-01,   7.6901531500e-02
    3763,   2.0057692310e-01,   7.6901531500e-02
    3764,   2.2552884620e-01,   7.6901531500e-02
    3765,   2.5048076930e-01,   7.6901531500e-02
    3766,   2.7543269240e-01,   7.6901531500e-02
    3767,   3.0038461550e-01,   7.6901531500e-02
    3768,   3.2533653860e-01,   7.6901531500e-02
    3769,   3.5028846170e-01,   7.6901531500e-02
    3770,   3.7524038480e-01,   7.6901531500e-02
    3771,   4.0019230790e-01,   7.6901531500e-02
    3772,   4.2514423100e-01,   7.6901531500e-02
    3773,   4.5009615410e-01,   7.6901531500e-02
    3774,   4.7504807720e-01,   7.6901531500e-02
    3775,   5.0000000000e-01,   7.6901531500e-02
    3776,  -5.0000000000e-01,   8.1842108900e-02
    3777,  -4.7597656250e-01,   8.1842108900e-02
    3778,  -4.5195312500e-01,   8.1842108900e-02
    3779,  -4.2792968750e-01,   8.1842108900e-02
    3780,  -4.0390625000e-01,   8.1842108900e-02
    3781,  -3.7988281250e-01,   8.1842108900e-02
    3782,  -3.5585937500e-01,   8.1842108900e-02
    3783,  -3.3183593750e-01,   8.1842108900e-02
    3784,  -3.0781250000e-01,   8.1842108900e-02
    3785,  -2.8378906250e-01,   8.1842108900e-02
    3786,  -2.5976562500e-01,   8.1842108900e-02
    3787,  -2.3574218750e-01,   8.1842108900e-02
    3788,  -2.1171875000e-01,   8.1842108900e-02
    3789,  -1.8769531250e-01,   8.1842108900e-02
    3790,  -1.6367187500e-01,   8.1842108900e-02
    3791,  -1.3964843750e-01,   8.1842108900e-02
    3792,  -1.1562500000e-01,   8.1842108900e-02
    3793,  -9.0625000000e-02,   8.1842108900e-02
    3794,  -7.3750000000e-02,   8.1842108900e-02
    3795,  -6.2500000000e-02,   8.1842108900e-02
    3796,  -5.5000000000e-02,   8.1842108900e-02
    3797,  -5.0000000000e-02,   8.1842108900e-02
    3798,  -4.5000000000e-02,   8.1842108900e-02
    3799,  -4.0000000000e-02,   8.1842108900e-02
    3800,  -3.5000000000e-02,   8.1842108900e-02
    3801,  -3.0000000000e-02,   8.1842108900e-02
    3802,  -2.5000000000e-02,   8.1842108900e-02
    3803,  -2.0000000000e-02,   8.1842108900e-02
    3804,  -1.5000000000e-02,   8.1842108900e-02
    3805,  -1.0000000000e-02,   8.1842108900e-02
    3806,  -5.0000000000e-03,   8.1842108900e-02
    3807,   0.0000000000e+00,   8.1842108900e-02
    3808,   5.0000000000e-03,   8.1842108900e-02
    3809,   1.0000000000e-02,   8.1842108900e-02
    3810,   1.5000000000e-02,   8.1842108900e-02
    3811,   2.0000000000e-02,   8.1842108900e-02
    3812,   2.5000000000e-02,   8.1842108900e-02
    3813,   3.0000000000e-02,   8.1842108900e-02
    3814,   3.5000000000e-02,   8.1842108900e-02
    3815,   4.0000000000e-02,   8.1842108900e-02
    3816,   4.5000000000e-02,   8.1842108900e-02
    3817,   5.0000000000e-02,   8.1842108900e-02
    3818,   5.5000000000e-02,   8.1842108900e-02
    3819,   6.0000000000e-02,   8.1842108900e-02
    3820,   6.5000000000e-02,   8.1842108900e-02
    3821,   7.0000000000e-02,   8.1842108900e-02
    3822,   7.5000000000e-02,   8.1842108900e-02
    3823,   8.0000000000e-02,   8.1842108900e-02
    3824,   8.5000000000e-02,   8.1842108900e-02
    3825,   9.0000000000e-02,   8.1842108900e-02
    3826,   9.5000000000e-02,   8.1842108900e-02
    3827,   1.0000000000e-01,   8.1842108900e-02
    3828,   1.0500000000e-01,   8.1842108900e-02
    3829,   1.1000000000e-01,   8.1842108900e-02
    3830,   1.1500000000e-01,   8.1842108900e-02
    3831,   1.2250000000e-01,   8.1842108900e-02
    3832,   1.3375000000e-01,   8.1842108900e-02
    3833,   1.5062500000e-01,   8.1842108900e-02
    3834,   1.7562500000e-01,   8.1842108900e-02
    3835,   2.0057692310e-01,   8.1842108900e-02
    3836,   2.2552884620e-01,   8.1842108900e-02
    3837,   2.5048076930e-01,   8.1842108900e-02
    3838,   2.7543269240e-01,   8.1842108900e-02
    3839,   3.0038461550e-01,   8.1842108900e-02
    3840,   3.2533653860e-01,   8.1842108900e-02
    3841,   3.5028846170e-01,   8.1842108900e-02
    3842,   3.7524038480e-01,   8.1842108900e-02
    3843,   4.0019230790e-01,   8.1842108900e-02
    3844,   4.2514423100e-01,   8.1842108900e-02
    3845,   4.5009615410e-01,   8.1842108900e-02
    3846,   4.7504807720e-01,   8.1842108900e-02
    3847,   5.0000000000e-01,   8.1842108900e-02
    3848,  -5.0000000000e-01,   8.6842108900e-02
    3849,  -4.7597656250e-01,   8.6842108900e-02
    3850,  -4.5195312500e-01,   8.6842108900e-02
    3851,  -4.2792968750e-01,   8.6842108900e-02
    3852,  -4.0390625000e-01,   8.6842108900e-02
    3853,  -3.7988281250e-01,   8.6842108900e-02
    3854,  -3.5585937500e-01,   8.6842108900e-02
    3855,  -3.3183593750e-01,   8.6842108900e-02
    3856,  -3.0781250000e-01,   8.6842108900e-02
    3857,  -2.8378906250e-01,   8.6842108900e-02
    3858,  -2.5976562500e-01,   8.6842108900e-02
    3859,  -2.3574218750e-01,   8.6842108900e-02
    3860,  -2.1171875000e-01,   8.6842108900e-02
    3861,  -1.8769531250e-01,   8.6842108900e-02
    3862,  -1.6367187500e-01,   8.6842108900e-02
    3863,  -1.3964843750e-01,   8.6842108900e-02
    3864,  -1.1562500000e-01,   8.6842108900e-02
    3865,  -9.0625000000e-02,   8.6842108900e-02
    3866,  -7.3750000000e-02,   8.6842108900e-02
    3867,  -6.2500000000e-02,   8.6842108900e-02
    3868,  -5.5000000000e-02,   8.6842108900e-02
    3869,  -5.0000000000e-02,   8.6842108900e-02
    3870,  -4.5000000000e-02,   8.6842108900e-02
    3871,  -4.0000000000e-02,   8.6842108900e-02
    3872,  -3.5000000000e-02,   8.6842108900e-02
    3873,  -3.0000000000e-02,   8.6842108900e-02
    3874,  -2.5000000000e-02,   8.6842108900e-02
    3875,  -2.0000000000e-02,   8.6842108900e-02
    3876,  -1.5000000000e-02,   8.6842108900e-02
    3877,  -1.0000000000e-02,   8.6842108900e-02
    3878,  -5.0000000000e-03,   8.6842108900e-02
    3879,   0.0000000000e+00,   8.6842108900e-02
    3880,   5.0000000000e-03,   8.6842108900e-02
    3881,   1.0000000000e-02,   8.6842108900e-02
    3882,   1.5000000000e-02,   8.6842108900e-02
    3883,   2.0000000000e-02,   8.6842108900e-02
    3884,   2.5000000000e-02,   8.6842108900e-02
    3885,   3.0000000000e-02,   8.6842108900e-02
    3886,   3.5000000000e-02,   8.6842108900e-02
    3887,   4.0000000000e-02,   8.6842108900e-02
    3888,   4.5000000000e-02,   8.6842108900e-02
    3889,   5.0000000000e-02,   8.6842108900e-02
    3890,   5.5000000000e-02,   8.6842108900e-02
    3891,   6.0000000000e-02,   8.6842108900e-02
    3892,   6.5000000000e-02,   8.6842108900e-02
    3893,   7.0000000000e-02,   8.6842108900e-02
    3894,   7.5000000000e-02,   8.6842108900e-02
    3895,   8.0000000000e-02,   8.6842108900e-02
    3896,   8.5000000000e-02,   8.6842108900e-02
    3897,   9.0000000000e-02,   8.6842108900e-02
    3898,   9.5000000000e-02,   8.6842108900e-02
    3899,   1.0000000000e-01,   8.6842108900e-02
    3900,   1.0500000000e-01,   8.6842108900e-02
    3901,   1.1000000000e-01,   8.6842108900e-02
    3902,   1.1500000000e-01,   8.6842108900e-02
    3903,   1.2250000000e-01,   8.6842108900e-02
    3904,   1.3375000000e-01,   8.6842108900e-02
    3905,   1.5062500000e-01,   8.6842108900e-02
    3906,   1.7562500000e-01,   8.6842108900e-02
    3907,   2.0057692310e-01,   8.6842108900e-02
    3908,   2.2552884620e-01,   8.6842108900e-02
    3909,   2.5048076930e-01,   8.6842108900e-02
    3910,   2.7543269240e-01,   8.6842108900e-02
    3911,   3.0038461550e-01,   8.6842108900e-02
    3912,   3.2533653860e-01,   8.6842108900e-02
    3913,   3.5028846170e-01,   8.6842108900e-02
    3914,   3.7524038480e-01,   8.6842108900e-02
    3915,   4.0019230790e-01,   8.6842108900e-02
    3916,   4.2514423100e-01,   8.6842108900e-02
    3917,   4.5009615410e-01,   8.6842108900e-02
    3918,   4.7504807720e-01,   8.6842108900e-02
    3919,   5.0000000000e-01,   8.6842108900e-02
    3920,  -5.0000000000e-01,   9.4342108900e-02
    3921,  -4.7597656250e-01,   9.4342108900e-02
    3922,  -4.5195312500e-01,   9.4342108900e-02
    3923,  -4.2792968750e-01,   9.4342108900e-02
    3924,  -4.0390625000e-01,   9.4342108900e-02
    3925,  -3.7988281250e-01,   9.4342108900e-02
    3926,  -3.5585937500e-01,   9.4342108900e-02
    3927,  -3.3183593750e-01,   9.4342108900e-02
    3928,  -3.0781250000e-01,   9.4342108900e-02
    3929,  -2.8378906250e-01,   9.4342108900e-02
    3930,  -2.5976562500e-01,   9.4342108900e-02
    3931,  -2.3574218750e-01,   9.4342108900e-02
    3932,  -2.1171875000e-01,   9.4342108900e-02
    3933,  -1.8769531250e-01,   9.4342108900e-02
    3934,  -1.6367187500e-01,   9.4342108900e-02
    3935,  -1.3964843750e-01,   9.4342108900e-02
    3936,  -1.1562500000e-01,   9.4342108900e-02
    3937,  -9.0625000000e-02,   9.4342108900e-02
    3938,  -7.3750000000e-02,   9.4342108900e-02
    3939,  -6.2500000000e-02,   9.4342108900e-02
    3940,  -5.5000000000e-02,   9.4342108900e-02
    3941,  -5.0000000000e-02,   9.4342108900e-02
    3942,  -4.5000000000e-02,   9.4342108900e-02
    3943,  -4.0000000000e-02,   9.4342108900e-02
    3944,  -3.5000000000e-02,   9.4342108900e-02
    3945,  -3.0000000000e-02,   9.4342108900e-02
    3946,  -2.5000000000e-02,   9.4342108900e-02
    3947,  -2.0000000000e-02,   9.4342108900e-02
    3948,  -1.5000000000e-02,   9.4342108900e-02
    3949,  -1.0000000000e-02,   9.4342108900e-02
    3950,  -5.0000000000e-03,   9.4342108900e-02
    3951,   0.0000000000e+00,   9.4342108900e-02
    3952,   5.0000000000e-03,   9.4342108900e-02
    3953,   1.0000000000e-02,   9.4342108900e-02
    3954,   1.5000000000e-02,   9.4342108900e-02
    3955,   2.0000000000e-02,   9.4342108900e-02
    3956,   2.5000000000e-02,   9.4342108900e-02
    3957,   3.0000000000e-02,   9.4342108900e-02
    3958,   3.5000000000e-02,   9.4342108900e-02
    3959,   4.0000000000e-02,   9.4342108900e-02
    3960,   4.5000000000e-02,   9.4342108900e-02
    3961,   5.0000000000e-02,   9.4342108900e-02
    3962,   5.5000000000e-02,   9.4342108900e-02
    3963,   6.0000000000e-02,   9.4342108900e-02
    3964,   6.5000000000e-02,   9.4342108900e-02
    3965,   7.0000000000e-02,   9.4342108900e-02
    3966,   7.5000000000e-02,   9.4342108900e-02
    3967,   8.0000000000e-02,   9.4342108900e-02
    3968,   8.5000000000e-02,   9.4342108900e-02
    3969,   9.0000000000e-02,   9.4342108900e-02
    3970,   9.5000000000e-02,   9.4342108900e-02
    3971,   1.0000000000e-01,   9.4342108900e-02
    3972,   1.0500000000e-01,   9.4342108900e-02
    3973,   1.1000000000e-01,   9.4342108900e-02
    3974,   1.1500000000e-01,   9.4342108900e-02
    3975,   1.2250000000e-01,   9.4342108900e-02
    3976,   1.3375000000e-01,   9.4342108900e-02
    3977,   1.5062500000e-01,   9.4342108900e-02
    3978,   1.7562500000e-01,   9.4342108900e-02
    3979,   2.0057692310e-01,   9.4342108900e-02
    3980,   2.2552884620e-01,   9.4342108900e-02
    3981,   2.5048076930e-01,   9.4342108900e-02
    3982,   2.7543269240e-01,   9.4342108900e-02
    3983,   3.0038461550e-01,   9.4342108900e-02
    3984,   3.2533653860e-01,   9.4342108900e-02
    3985,   3.5028846170e-01,   9.4342108900e-02
    3986,   3.7524038480e-01,   9.4342108900e-02
    3987,   4.0019230790e-01,   9.4342108900e-02
    3988,   4.2514423100e-01,   9.4342108900e-02
    3989,   4.5009615410e-01,   9.4342108900e-02
    3990,   4.7504807720e-01,   9.4342108900e-02
    3991,   5.0000000000e-01,   9.4342108900e-02
    3992,  -5.0000000000e-01,   1.0559210890e-01
    3993,  -4.7597656250e-01,   1.0559210890e-01
    3994,  -4.5195312500e-01,   1.0559210890e-01
    3995,  -4.2792968750e-01,   1.0559210890e-01
    3996,  -4.0390625000e-01,   1.0559210890e-01
    3997,  -3.7988281250e-01,   1.0559210890e-01
    3998,  -3.5585937500e-01,   1.0559210890e-01
    3999,  -3.3183593750e-01,   1.0559210890e-01
    4000,  -3.0781250000e-01,   1.0559210890e-01
    4001,  -2.8378906250e-01,   1.0559210890e-01
    4002,  -2.5976562500e-01,   1.0559210890e-01
    4003,  -2.3574218750e-01,   1.0559210890e-01
    4004,  -2.1171875000e-01,   1.0559210890e-01
    4005,  -1.8769531250e-01,   1.0559210890e-01
    4006,  -1.6367187500e-01,   1.0559210890e-01
    4007,  -1.3964843750e-01,   1.0559210890e-01
    4008,  -1.1562500000e-01,   1.0559210890e-01
    4009,  -9.0625000000e-02,   1.0559210890e-01
    4010,  -7.3750000000e-02,   1.0559210890e-01
    4011,  -6.2500000000e-02,   1.0559210890e-01
    4012,  -5.5000000000e-02,   1.0559210890e-01
    4013,  -5.0000000000e-02,   1.0559210890e-01
    4014,  -4.5000000000e-02,   1.0559210890e-01
    4015,  -4.0000000000e-02,   1.0559210890e-01
    4016,  -3.5000000000e-02,   1.0559210890e-01
    4017,  -3.0000000000e-02,   1.0559210890e-01
    4018,  -2.5000000000e-02,   1.0559210890e-01
    4019,  -2.0000000000e-02,   1.0559210890e-01
    4020,  -1.5000000000e-02,   1.0559210890e-01
    4021,  -1.0000000000e-02,   1.0559210890e-01
    4022,  -5.0000000000e-03,   1.0559210890e-01
    4023,   0.0000000000e+00,   1.0559210890e-01
    4024,   5.0000000000e-03,   1.0559210890e-01
    4025,   1.0000000000e-02,   1.0559210890e-01
    4026,   1.5000000000e-02,   1.0559210890e-01
    4027,   2.0000000000e-02,   1.0559210890e-01
    4028,   2.5000000000e-02,   1.0559210890e-01
    4029,   3.0000000000e-02,   1.0559210890e-01
    4030,   3.5000000000e-02,   1.0559210890e-01
    4031,   4.0000000000e-02,   1.0559210890e-01
    4032,   4.5000000000e-02,   1.0559210890e-01
    4033,   5.0000000000e-02,   1.0559210890e-01
    4034,   5.5000000000e-02,   1.0559210890e-01
    4035,   6.0000000000e-02,   1.0559210890e-01
    4036,   6.5000000000e-02,   1.0559210890e-01
    4037,   7.0000000000e-02,   1.0559210890e-01
    4038,   7.5000000000e-02,   1.0559210890e-01
    4039,   8.0000000000e-02,   1.0559210890e-01
    4040,   8.5000000000e-02,   1.0559210890e-01
    4041,   9.0000000000e-02,   1.0559210890e-01
    4042,   9.5000000000e-02,   1.0559210890e-01
    4043,   1.0000000000e-01,   1.0559210890e-01
    4044,   1.0500000000e-01,   1.0559210890e-01
    4045,   1.1000000000e-01,   1.0559210890e-01
    4046,   1.1500000000e-01,   1.0559210890e-01
    4047,   1.2250000000e-01,   1.0559210890e-01
    4048,   1.3375000000e-01,   1.0559210890e-01
    4049,   1.5062500000e-01,   1.0559210890e-01
    4050,   1.7562500000e-01,   1.0559210890e-01
    4051,   2.0057692310e-01,   1.0559210890e-01
    4052,   2.2552884620e-01,   1.0559210890e-01
    4053,   2.5048076930e-01,   1.0559210890e-01
    4054,   2.7543269240e-01,   1.0559210890e-01
    4055,   3.0038461550e-01,   1.0559210890e-01
    4056,   3.2533653860e-01,   1.0559210890e-01
    4057,   3.5028846170e-01,   1.0559210890e-01
    4058,   3.7524038480e-01,   1.0559210890e-01
    4059,   4.0019230790e-01,   1.0559210890e-01
    4060,   4.2514423100e-01,   1.0559210890e-01
    4061,   4.5009615410e-01,   1.0559210890e-01
    4062,   4.7504807720e-01,   1.0559210890e-01
    4063,   5.0000000000e-01,   1.0559210890e-01
    4064,  -5.0000000000e-01,   1.2246710890e-01
    4065,  -4.7597656250e-01,   1.2246710890e-01
    4066,  -4.5195312500e-01,   1.2246710890e-01
    4067,  -4.2792968750e-01,   1.2246710890e-01
    4068,  -4.0390625000e-01,   1.2246710890e-01
    4069,  -3.7988281250e-01,   1.2246710890e-01
    4070,  -3.5585937500e-01,   1.2246710890e-01
    4071,  -3.3183593750e-01,   1.2246710890e-01
    4072,  -3.0781250000e-01,   1.2246710890e-01
    4073,  -2.8378906250e-01,   1.2246710890e-01
    4074,  -2.5976562500e-01,   1.2246710890e-01
    4075,  -2.3574218750e-01,   1.2246710890e-01
    4076,  -2.1171875000e-01,   1.2246710890e-01
    4077,  -1.8769531250e-01,   1.2246710890e-01
    4078,  -1.6367187500e-01,   1.2246710890e-01
    4079,  -1.3964843750e-01,   1.2246710890e-01
    4080,  -1.1562500000e-01,   1.2246710890e-01
    4081,  -9.0625000000e-02,   1.2246710890e-01
    4082,  -7.3750000000e-02,   1.2246710890e-01
    4083,  -6.2500000000e-02,   1.2246710890e-01
    4084,  -5.5000000000e-02,   1.2246710890e-01
    4085,  -5.0000000000e-02,   1.2246710890e-01
    4086,  -4.5000000000e-02,   1.2246710890e-01
    4087,  -4.0000000000e-02,   1.2246710890e-01
    4088,  -3.5000000000e-02,   1.2246710890e-01
    4089,  -3.0000000000e-02,   1.2246710890e-01
    4090,  -2.5000000000e-02,   1.2246710890e-01
    4091,  -2.0000000000e-02,   1.2246710890e-01
    4092,  -1.5000000000e-02,   1.2246710890e-01
    4093,  -1.0000000000e-02,   1.2246710890e-01
    4094,  -5.0000000000e-03,   1.2246710890e-01
    4095,   0.0000000000e+00,   1.2246710890e-01
    4096,   5.0000000000e-03,   1.2246710890e-01
    4097,   1.0000000000e-02,   1.2246710890e-01
    4098,   1.5000000000e-02,   1.2246710890e-01
    4099,   2.0000000000e-02,   1.2246710890e-01
    4100,   2.5000000000e-02,   1.2246710890e-01
    4101,   3.0000000000e-02,   1.2246710890e-01
    4102,   3.5000000000e-02,   1.2246710890e-01
    4103,   4.0000000000e-02,   1.2246710890e-01
    4104,   4.5000000000e-02,   1.2246710890e-01
    4105,   5.0000000000e-02,   1.2246710890e-01
    4106,   5.5000000000e-02,   1.2246710890e-01
    4107,   6.0000000000e-02,   1.2246710890e-01
    4108,   6.5000000000e-02,   1.2246710890e-01
    4109,   7.0000000000e-02,   1.2246710890e-01
    4110,   7.5000000000e-02,   1.2246710890e-01
    4111,   8.0000000000e-02,   1.2246710890e-01
    4112,   8.5000000000e-02,   1.2246710890e-01
    4113,   9.0000000000e-02,   1.2246710890e-01
    4114,   9.5000000000e-02,   1.2246710890e-01
    4115,   1.0000000000e-01,   1.2246710890e-01
    4116,   1.0500000000e-01,   1.2246710890e-01
    4117,   1.1000000000e-01,   1.2246710890e-01
    4118,   1.1500000000e-01,   1.2246710890e-01
    4119,   1.2250000000e-01,   1.2246710890e-01
    4120,   1.3375000000e-01,   1.2246710890e-01
    4121,   1.5062500000e-01,   1.2246710890e-01
    4122,   1.7562500000e-01,   1.2246710890e-01
    4123,   2.0057692310e-01,   1.2246710890e-01
    4124,   2.2552884620e-01,   1.2246710890e-01
    4125,   2.5048076930e-01,   1.2246710890e-01
    4126,   2.7543269240e-01,   1.2246710890e-01
    4127,   3.0038461550e-01,   1.2246710890e-01
    4128,   3.2533653860e-01,   1.2246710890e-01
    4129,   3.5028846170e-01,   1.2246710890e-01
    4130,   3.7524038480e-01,   1.2246710890e-01
    4131,   4.0019230790e-01,   1.2246710890e-01
    4132,   4.2514423100e-01,   1.2246710890e-01
    4133,   4.5009615410e-01,   1.2246710890e-01
    4134,   4.7504807720e-01,   1.2246710890e-01
    4135,   5.0000000000e-01,   1.2246710890e-01
    4136,  -5.0000000000e-01,   1.4746710890e-01
    4137,  -4.7597656250e-01,   1.4746710890e-01
    4138,  -4.5195312500e-01,   1.4746710890e-01
    4139,  -4.2792968750e-01,   1.4746710890e-01
    4140,  -4.0390625000e-01,   1.4746710890e-01
    4141,  -3.7988281250e-01,   1.4746710890e-01
    4142,  -3.5585937500e-01,   1.4746710890e-01
    4143,  -3.3183593750e-01,   1.4746710890e-01
    4144,  -3.0781250000e-01,   1.4746710890e-01
    4145,  -2.8378906250e-01,   1.4746710890e-01
    4146,  -2.5976562500e-01,   1.4746710890e-01
    4147,  -2.3574218750e-01,   1.4746710890e-01
    4148,  -2.1171875000e-01,   1.4746710890e-01
    4149,  -1.8769531250e-01,   1.4746710890e-01
    4150,  -1.6367187500e-01,   1.4746710890e-01
    4151,  -1.3964843750e-01,   1.4746710890e-01
    4152,  -1.1562500000e-01,   1.4746710890e-01
    4153,  -9.0625000000e-02,   1.4746710890e-01
    4154,  -7.3750000000e-02,   1.4746710890e-01
    4155,  -6.2500000000e-02,   1.4746710890e-01
    4156,  -5.5000000000e-02,   1.4746710890e-01
    4157,  -5.0000000000e-02,   1.4746710890e-01
    4158,  -4.5000000000e-02,   1.4746710890e-01
    4159,  -4.0000000000e-02,   1.4746710890e-01
    4160,  -3.5000000000e-02,   1.4746710890e-01
    4161,  -3.0000000000e-02,   1.4746710890e-01
    4162,  -2.5000000000e-02,   1.4746710890e-01
    4163,  -2.0000000000e-02,   1.4746710890e-01
    4164,  -1.5000000000e-02,   1.4746710890e-01
    4165,  -1.0000000000e-02,   1.4746710890e-01
    4166,  -5.0000000000e-03,   1.4746710890e-01
    4167,   0.0000000000e+00,   1.4746710890e-01
    4168,   5.0000000000e-03,   1.4746710890e-01
    4169,   1.0000000000e-02,   1.4746710890e-01
    4170,   1.5000000000e-02,   1.4746710890e-01
    4171,   2.0000000000e-02,   1.4746710890e-01
    4172,   2.5000000000e-02,   1.4746710890e-01
    4173,   3.0000000000e-02,   1.4746710890e-01
    4174,   3.5000000000e-02,   1.4746710890e-01
    4175,   4.0000000000e-02,   1.4746710890e-01
    4176,   4.5000000000e-02,   1.4746710890e-01
    4177,   5.0000000000e-02,   1.4746710890e-01
    4178,   5.5000000000e-02,   1.4746710890e-01
    4179,   6.0000000000e-02,   1.4746710890e-01
    4180,   6.5000000000e-02,   1.4746710890e-01
    4181,   7.0000000000e-02,   1.4746710890e-01
    4182,   7.5000000000e-02,   1.4746710890e-01
    4183,   8.0000000000e-02,   1.4746710890e-01
    4184,   8.5000000000e-02,   1.4746710890e-01
    4185,   9.0000000000e-02,   1.4746710890e-01
    4186,   9.5000000000e-02,   1.4746710890e-01
    4187,   1.0000000000e-01,   1.4746710890e-01
    4188,   1.0500000000e-01,   1.4746710890e-01
    4189,   1.1000000000e-01,   1.4746710890e-01
    4190,   1.1500000000e-01,   1.4746710890e-01
    4191,   1.2250000000e-01,   1.4746710890e-01
    4192,   1.3375000000e-01,   1.4746710890e-01
    4193,   1.5062500000e-01,   1.4746710890e-01
    4194,   1.7562500000e-01,   1.4746710890e-01
    4195,   2.0057692310e-01,   1.4746710890e-01
    4196,   2.2552884620e-01,   1.4746710890e-01
    4197,   2.5048076930e-01,   1.4746710890e-01
    4198,   2.7543269240e-01,   1.4746710890e-01
    4199,   3.0038461550e-01,   1.4746710890e-01
    4200,   3.2533653860e-01,   1.4746710890e-01
    4201,   3.5028846170e-01,   1.4746710890e-01
    4202,   3.7524038480e-01,   1.4746710890e-01
    4203,   4.0019230790e-01,   1.4746710890e-01
    4204,   4.2514423100e-01,   1.4746710890e-01
    4205,   4.5009615410e-01,   1.4746710890e-01
    4206,   4.7504807720e-01,   1.4746710890e-01
    4207,   5.0000000000e-01,   1.4746710890e-01
    4208,  -5.0000000000e-01,   1.7096930160e-01
    4209,  -4.7597656250e-01,   1.7096930160e-01
    4210,  -4.5195312500e-01,   1.7096930160e-01
    4211,  -4.2792968750e-01,   1.7096930160e-01
    4212,  -4.0390625000e-01,   1.7096930160e-01
    4213,  -3.7988281250e-01,   1.7096930160e-01
    4214,  -3.5585937500e-01,   1.7096930160e-01
    4215,  -3.3183593750e-01,   1.7096930160e-01
    4216,  -3.0781250000e-01,   1.7096930160e-01
    4217,  -2.8378906250e-01,   1.7096930160e-01
    4218,  -2.5976562500e-01,   1.7096930160e-01
    4219,  -2.3574218750e-01,   1.7096930160e-01
    4220,  -2.1171875000e-01,   1.7096930160e-01
    4221,  -1.8769531250e-01,   1.7096930160e-01
    4222,  -1.6367187500e-01,   1.7096930160e-01
    4223,  -1.3964843750e-01,   1.7096930160e-01
    4224,  -1.1562500000e-01,   1.7096930160e-01
    4225,  -9.0625000000e-02,   1.7096930160e-01
    4226,  -7.3750000000e-02,   1.7096930160e-01
    4227,  -6.2500000000e-02,   1.7096930160e-01
    4228,  -5.5000000000e-02,   1.7096930160e-01
    4229,  -5.0000000000e-02,   1.7096930160e-01
    4230,  -4.5000000000e-02,   1.7096930160e-01
    4231,  -4.0000000000e-02,   1.7096930160e-01
    4232,  -3.5000000000e-02,   1.7096930160e-01
    4233,  -3.0000000000e-02,   1.7096930160e-01
    4234,  -2.5000000000e-02,   1.7096930160e-01
    4235,  -2.0000000000e-02,   1.7096930160e-01
    4236,  -1.5000000000e-02,   1.7096930160e-01
    4237,  -1.0000000000e-02,   1.7096930160e-01
    4238,  -5.0000000000e-03,   1.7096930160e-01
    4239,   0.0000000000e+00,   1.7096930160e-01
    4240,   5.0000000000e-03,   1.7096930160e-01
    4241,   1.0000000000e-02,   1.7096930160e-01
    4242,   1.5000000000e-02,   1.7096930160e-01
    4243,   2.0000000000e-02,   1.7096930160e-01
    4244,   2.5000000000e-02,   1.7096930160e-01
    4245,   3.0000000000e-02,   1.7096930160e-01
    4246,   3.5000000000e-02,   1.7096930160e-01
    4247,   4.0000000000e-02,   1.7096930160e-01
    4248,   4.5000000000e-02,   1.7096930160e-01
    4249,   5.0000000000e-02,   1.7096930160e-01
    4250,   5.5000000000e-02,   1.7096930160e-01
    4251,   6.0000000000e-02,   1.7096930160e-01
    4252,   6.5000000000e-02,   1.7096930160e-01
    4253,   7.0000000000e-02,   1.7096930160e-01
    4254,   7.5000000000e-02,   1.7096930160e-01
    4255,   8.0000000000e-02,   1.7096930160e-01
    4256,   8.5000000000e-02,   1.7096930160e-01
    4257,   9.0000000000e-02,   1.7096930160e-01
    4258,   9.5000000000e-02,   1.7096930160e-01
    4259,   1.0000000000e-01,   1.7096930160e-01
    4260,   1.0500000000e-01,   1.7096930160e-01
    4261,   1.1000000000e-01,   1.7096930160e-01
    4262,   1.1500000000e-01,   1.7096930160e-01
    4263,   1.2250000000e-01,   1.7096930160e-01
    4264,   1.3375000000e-01,   1.7096930160e-01
    4265,   1.5062500000e-01,   1.7096930160e-01
    4266,   1.7562500000e-01,   1.7096930160e-01
    4267,   2.0057692310e-01,   1.7096930160e-01
    4268,   2.2552884620e-01,   1.7096930160e-01
    4269,   2.5048076930e-01,   1.7096930160e-01
    4270,   2.7543269240e-01,   1.7096930160e-01
    4271,   3.0038461550e-01,   1.7096930160e-01
    4272,   3.2533653860e-01,   1.7096930160e-01
    4273,   3.5028846170e-01,   1.7096930160e-01
    4274,   3.7524038480e-01,   1.7096930160e-01
    4275,   4.0019230790e-01,   1.7096930160e-01
    4276,   4.2514423100e-01,   1.7096930160e-01
    4277,   4.5009615410e-01,   1.7096930160e-01
    4278,   4.7504807720e-01,   1.7096930160e-01
    4279,   5.0000000000e-01,   1.7096930160e-01
    4280,  -5.0000000000e-01,   1.9447149430e-01
    4281,  -4.7597656250e-01,   1.9447149430e-01
    4282,  -4.5195312500e-01,   1.9447149430e-01
    4283,  -4.2792968750e-01,   1.9447149430e-01
    4284,  -4.0390625000e-01,   1.9447149430e-01
    4285,  -3.7988281250e-01,   1.9447149430e-01
    4286,  -3.5585937500e-01,   1.9447149430e-01
    4287,  -3.3183593750e-01,   1.9447149430e-01
    4288,  -3.0781250000e-01,   1.9447149430e-01
    4289,  -2.8378906250e-01,   1.9447149430e-01
    4290,  -2.5976562500e-01,   1.9447149430e-01
    4291,  -2.3574218750e-01,   1.9447149430e-01
    4292,  -2.1171875000e-01,   1.9447149430e-01
    4293,  -1.8769531250e-01,   1.9447149430e-01
    4294,  -1.6367187500e-01,   1.9447149430e-01
    4295,  -1.3964843750e-01,   1.9447149430e-01
    4296,  -1.1562500000e-01,   1.9447149430e-01
    4297,  -9.0625000000e-02,   1.9447149430e-01
    4298,  -7.3750000000e-02,   1.9447149430e-01
    4299,  -6.2500000000e-02,   1.9447149430e-01
    4300,  -5.5000000000e-02,   1.9447149430e-01
    4301,  -5.0000000000e-02,   1.9447149430e-01
    4302,  -4.5000000000e-02,   1.9447149430e-01
    4303,  -4.0000000000e-02,   1.9447149430e-01
    4304,  -3.5000000000e-02,   1.9447149430e-01
    4305,  -3.0000000000e-02,   1.9447149430e-01
    4306,  -2.5000000000e-02,   1.9447149430e-01
    4307,  -2.0000000000e-02,   1.9447149430e-01
    4308,  -1.5000000000e-02,   1.9447149430e-01
    4309,  -1.0000000000e-02,   1.9447149430e-01
    4310,  -5.0000000000e-03,   1.9447149430e-01
    4311,   0.0000000000e+00,   1.9447149430e-01
    4312,   5.0000000000e-03,   1.9447149430e-01
    4313,   1.0000000000e-02,   1.9447149430e-01
    4314,   1.5000000000e-02,   1.9447149430e-01
    4315,   2.0000000000e-02,   1.9447149430e-01
    4316,   2.5000000000e-02,   1.9447149430e-01
    4317,   3.0000000000e-02,   1.9447149430e-01
    4318,   3.5000000000e-02,   1.9447149430e-01
    4319,   4.0000000000e-02,   1.9447149430e-01
    4320,   4.5000000000e-02,   1.9447149430e-01
    4321,   5.0000000000e-02,   1.9447149430e-01
    4322,   5.5000000000e-02,   1.9447149430e-01
    4323,   6.0000000000e-02,   1.9447149430e-01
    4324,   6.5000000000e-02,   1.9447149430e-01
    4325,   7.0000000000e-02,   1.9447149430e-01
    4326,   7.5000000000e-02,   1.9447149430e-01
    4327,   8.0000000000e-02,   1.9447149430e-01
    4328,   8.5000000000e-02,   1.9447149430e-01
    4329,   9.0000000000e-02,   1.9447149430e-01
    4330,   9.5000000000e-02,   1.9447149430e-01
    4331,   1.0000000000e-01,   1.9447149430e-01
    4332,   1.0500000000e-01,   1.9447149430e-01
    4333,   1.1000000000e-01,   1.9447149430e-01
    4334,   1.1500000000e-01,   1.9447149430e-01
    4335,   1.2250000000e-01,   1.9447149430e-01
    4336,   1.3375000000e-01,   1.9447149430e-01
    4337,   1.5062500000e-01,   1.9447149430e-01
    4338,   1.7562500000e-01,   1.9447149430e-01
    4339,   2.0057692310e-01,   1.9447149430e-01
    4340,   2.2552884620e-01,   1.9447149430e-01
    4341,   2.5048076930e-01,   1.9447149430e-01
    4342,   2.7543269240e-01,   1.9447149430e-01
    4343,   3.0038461550e-01,   1.9447149430e-01
    4344,   3.2533653860e-01,   1.9447149430e-01
    4345,   3.5028846170e-01,   1.9447149430e-01
    4346,   3.7524038480e-01,   1.9447149430e-01
    4347,   4.0019230790e-01,   1.9447149430e-01
    4348,   4.2514423100e-01,   1.9447149430e-01
    4349,   4.5009615410e-01,   1.9447149430e-01
    4350,   4.7504807720e-01,   1.9447149430e-01
    4351,   5.0000000000e-01,   1.9447149430e-01
    4352,  -5.0000000000e-01,   2.1797368700e-01
    4353,  -4.7597656250e-01,   2.1797368700e-01
    4354,  -4.5195312500e-01,   2.1797368700e-01
    4355,  -4.2792968750e-01,   2.1797368700e-01
    4356,  -4.0390625000e-01,   2.1797368700e-01
    4357,  -3.7988281250e-01,   2.1797368700e-01
    4358,  -3.5585937500e-01,   2.1797368700e-01
    4359,  -3.3183593750e-01,   2.1797368700e-01
    4360,  -3.0781250000e-01,   2.1797368700e-01
    4361,  -2.8378906250e-01,   2.1797368700e-01
    4362,  -2.5976562500e-01,   2.1797368700e-01
    4363,  -2.3574218750e-01,   2.1797368700e-01
    4364,  -2.1171875000e-01,   2.1797368700e-01
    4365,  -1.8769531250e-01,   2.1797368700e-01
    4366,  -1.6367187500e-01,   2.1797368700e-01
    4367,  -1.3964843750e-01,   2.1797368700e-01
    4368,  -1.1562500000e-01,   2.1797368700e-01
    4369,  -9.0625000000e-02,   2.1797368700e-01
    4370,  -7.3750000000e-02,   2.1797368700e-01
    4371,  -6.2500000000e-02,   2.1797368700e-01
    4372,  -5.5000000000e-02,   2.1797368700e-01
    4373,  -5.0000000000e-02,   2.1797368700e-01
    4374,  -4.5000000000e-02,   2.1797368700e-01
    4375,  -4.0000000000e-02,   2.1797368700e-01
    4376,  -3.5000000000e-02,   2.1797368700e-01
    4377,  -3.0000000000e-02,   2.1797368700e-01
    4378,  -2.5000000000e-02,   2.1797368700e-01
    4379,  -2.0000000000e-02,   2.1797368700e-01
    4380,  -1.5000000000e-02,   2.1797368700e-01
    4381,  -1.0000000000e-02,   2.1797368700e-01
    4382,  -5.0000000000e-03,   2.1797368700e-01
    4383,   0.0000000000e+00,   2.1797368700e-01
    4384,   5.0000000000e-03,   2.1797368700e-01
    4385,   1.0000000000e-02,   2.1797368700e-01
    4386,   1.5000000000e-02,   2.1797368700e-01
    4387,   2.0000000000e-02,   2.1797368700e-01
    4388,   2.5000000000e-02,   2.1797368700e-01
    4389,   3.0000000000e-02,   2.1797368700e-01
    4390,   3.5000000000e-02,   2.1797368700e-01
    4391,   4.0000000000e-02,   2.1797368700e-01
    4392,   4.5000000000e-02,   2.1797368700e-01
    4393,   5.0000000000e-02,   2.1797368700e-01
    4394,   5.5000000000e-02,   2.1797368700e-01
    4395,   6.0000000000e-02,   2.1797368700e-01
    4396,   6.5000000000e-02,   2.1797368700e-01
    4397,   7.0000000000e-02,   2.1797368700e-01
    4398,   7.5000000000e-02,   2.1797368700e-01
    4399,   8.0000000000e-02,   2.1797368700e-01
    4400,   8.5000000000e-02,   2.1797368700e-01
    4401,   9.0000000000e-02,   2.1797368700e-01
    4402,   9.5000000000e-02,   2.1797368700e-01
    4403,   1.0000000000e-01,   2.1797368700e-01
    4404,   1.0500000000e-01,   2.1797368700e-01
    4405,   1.1000000000e-01,   2.1797368700e-01
    4406,   1.1500000000e-01,   2.1797368700e-01
    4407,   1.2250000000e-01,   2.1797368700e-01
    4408,   1.3375000000e-01,   2.1797368700e-01
    4409,   1.5062500000e-01,   2.1797368700e-01
    4410,   1.7562500000e-01,   2.1797368700e-01
    4411,   2.0057692310e-01,   2.1797368700e-01
    4412,   2.2552884620e-01,   2.1797368700e-01
    4413,   2.5048076930e-01,   2.1797368700e-01
    4414,   2.7543269240e-01,   2.1797368700e-01
    4415,   3.0038461550e-01,   2.1797368700e-01
    4416,   3.2533653860e-01,   2.1797368700e-01
    4417,   3.5028846170e-01,   2.1797368700e-01
    4418,   3.7524038480e-01,   2.1797368700e-01
    4419,   4.0019230790e-01,   2.1797368700e-01
    4420,   4.2514423100e-01,   2.1797368700e-01
    4421,   4.5009615410e-01,   2.1797368700e-01
    4422,   4.7504807720e-01,   2.1797368700e-01
    4423,   5.0000000000e-01,   2.1797368700e-01
    4424,  -5.0000000000e-01,   2.4147587970e-01
    4425,  -4.7597656250e-01,   2.4147587970e-01
    4426,  -4.5195312500e-01,   2.4147587970e-01
    4427,  -4.2792968750e-01,   2.4147587970e-01
    4428,  -4.0390625000e-01,   2.4147587970e-01
    4429,  -3.7988281250e-01,   2.4147587970e-01
    4430,  -3.5585937500e-01,   2.4147587970e-01
    4431,  -3.3183593750e-01,   2.4147587970e-01
    4432,  -3.0781250000e-01,   2.4147587970e-01
    4433,  -2.8378906250e-01,   2.4147587970e-01
    4434,  -2.5976562500e-01,   2.4147587970e-01
    4435,  -2.3574218750e-01,   2.4147587970e-01
    4436,  -2.1171875000e-01,   2.4147587970e-01
    4437,  -1.8769531250e-01,   2.4147587970e-01
    4438,  -1.6367187500e-01,   2.4147587970e-01
    4439,  -1.3964843750e-01,   2.4147587970e-01
    4440,  -1.1562500000e-01,   2.4147587970e-01
    4441,  -9.0625000000e-02,   2.4147587970e-01
    4442,  -7.3750000000e-02,   2.4147587970e-01
    4443,  -6.2500000000e-02,   2.4147587970e-01
    4444,  -5.5000000000e-02,   2.4147587970e-01
    4445,  -5.0000000000e-02,   2.4147587970e-01
    4446,  -4.5000000000e-02,   2.4147587970e-01
    4447,  -4.0000000000e-02,   2.4147587970e-01
    4448,  -3.5000000000e-02,   2.4147587970e-01
    4449,  -3.0000000000e-02,   2.4147587970e-01
    4450,  -2.5000000000e-02,   2.4147587970e-01
    4451,  -2.0000000000e-02,   2.4147587970e-01
    4452,  -1.5000000000e-02,   2.4147587970e-01
    4453,  -1.0000000000e-02,   2.4147587970e-01
    4454,  -5.0000000000e-03,   2.4147587970e-01
    4455,   0.0000000000e+00,   2.4147587970e-01
    4456,   5.0000000000e-03,   2.4147587970e-01
    4457,   1.0000000000e-02,   2.4147587970e-01
    4458,   1.5000000000e-02,   2.4147587970e-01
    4459,   2.0000000000e-02,   2.4147587970e-01
    4460,   2.5000000000e-02,   2.4147587970e-01
    4461,   3.0000000000e-02,   2.4147587970e-01
    4462,   3.5000000000e-02,   2.4147587970e-01
    4463,   4.0000000000e-02,   2.4147587970e-01
    4464,   4.5000000000e-02,   2.4147587970e-01
    4465,   5.0000000000e-02,   2.4147587970e-01
    4466,   5.5000000000e-02,   2.4147587970e-01
    4467,   6.0000000000e-02,   2.4147587970e-01
    4468,   6.5000000000e-02,   2.4147587970e-01
    4469,   7.0000000000e-02,   2.4147587970e-01
    4470,   7.5000000000e-02,   2.4147587970e-01
    4471,   8.0000000000e-02,   2.4147587970e-01
    4472,   8.5000000000e-02,   2.4147587970e-01
    4473,   9.0000000000e-02,   2.4147587970e-01
    4474,   9.5000000000e-02,   2.4147587970e-01
    4475,   1.0000000000e-01,   2.4147587970e-01
    4476,   1.0500000000e-01,   2.4147587970e-01
    4477,   1.1000000000e-01,   2.4147587970e-01
    4478,   1.1500000000e-01,   2.4147587970e-01
    4479,   1.2250000000e-01,   2.4147587970e-01
    4480,   1.3375000000e-01,   2.4147587970e-01
    4481,   1.5062500000e-01,   2.4147587970e-01
    4482,   1.7562500000e-01,   2.4147587970e-01
    4483,   2.0057692310e-01,   2.4147587970e-01
    4484,   2.2552884620e-01,   2.4147587970e-01
    4485,   2.5048076930e-01,   2.4147587970e-01
    4486,   2.7543269240e-01,   2.4147587970e-01
    4487,   3.0038461550e-01,   2.4147587970e-01
    4488,   3.2533653860e-01,   2.4147587970e-01
    4489,   3.5028846170e-01,   2.4147587970e-01
    4490,   3.7524038480e-01,   2.4147587970e-01
    4491,   4.0019230790e-01,   2.4147587970e-01
    4492,   4.2514423100e-01,   2.4147587970e-01
    4493,   4.5009615410e-01,   2.4147587970e-01
    4494,   4.7504807720e-01,   2.4147587970e-01
    4495,   5.0000000000e-01,   2.4147587970e-01
    4496,  -5.0000000000e-01,   2.6497807240e-01
    4497,  -4.7597656250e-01,   2.6497807240e-01
    4498,  -4.5195312500e-01,   2.6497807240e-01
    4499,  -4.2792968750e-01,   2.6497807240e-01
    4500,  -4.0390625000e-01,   2.6497807240e-01
    4501,  -3.7988281250e-01,   2.6497807240e-01
    4502,  -3.5585937500e-01,   2.6497807240e-01
    4503,  -3.3183593750e-01,   2.6497807240e-01
    4504,  -3.0781250000e-01,   2.6497807240e-01
    4505,  -2.8378906250e-01,   2.6497807240e-01
    4506,  -2.5976562500e-01,   2.6497807240e-01
    4507,  -2.3574218750e-01,   2.6497807240e-01
    4508,  -2.1171875000e-01,   2.6497807240e-01
    4509,  -1.8769531250e-01,   2.6497807240e-01
    4510,  -1.6367187500e-01,   2.6497807240e-01
    4511,  -1.3964843750e-01,   2.6497807240e-01
    4512,  -1.1562500000e-01,   2.6497807240e-01
    4513,  -9.0625000000e-02,   2.6497807240e-01
    4514,  -7.3750000000e-02,   2.6497807240e-01
    4515,  -6.2500000000e-02,   2.6497807240e-01
    4516,  -5.5000000000e-02,   2.6497807240e-01
    4517,  -5.0000000000e-02,   2.6497807240e-01
    4518,  -4.5000000000e-02,   2.6497807240e-01
    4519,  -4.0000000000e-02,   2.6497807240e-01
    4520,  -3.5000000000e-02,   2.6497807240e-01
    4521,  -3.0000000000e-02,   2.6497807240e-01
    4522,  -2.5000000000e-02,   2.6497807240e-01
    4523,  -2.0000000000e-02,   2.6497807240e-01
    4524,  -1.5000000000e-02,   2.6497807240e-01
    4525,  -1.0000000000e-02,   2.6497807240e-01
    4526,  -5.0000000000e-03,   2.6497807240e-01
    4527,   0.0000000000e+00,   2.6497807240e-01
    4528,   5.0000000000e-03,   2.6497807240e-01
    4529,   1.0000000000e-02,   2.6497807240e-01
    4530,   1.5000000000e-02,   2.6497807240e-01
    4531,   2.0000000000e-02,   2.6497807240e-01
    4532,   2.5000000000e-02,   2.6497807240e-01
    4533,   3.0000000000e-02,   2.6497807240e-01
    4534,   3.5000000000e-02,   2.6497807240e-01
    4535,   4.0000000000e-02,   2.6497807240e-01
    4536,   4.5000000000e-02,   2.6497807240e-01
    4537,   5.0000000000e-02,   2.6497807240e-01
    4538,   5.5000000000e-02,   2.6497807240e-01
    4539,   6.0000000000e-02,   2.6497807240e-01
    4540,   6.5000000000e-02,   2.6497807240e-01
    4541,   7.0000000000e-02,   2.6497807240e-01
    4542,   7.5000000000e-02,   2.6497807240e-01
    4543,   8.0000000000e-02,   2.6497807240e-01
    4544,   8.5000000000e-02,   2.6497807240e-01
    4545,   9.0000000000e-02,   2.6497807240e-01
    4546,   9.5000000000e-02,   2.6497807240e-01
    4547,   1.0000000000e-01,   2.6497807240e-01
    4548,   1.0500000000e-01,   2.6497807240e-01
    4549,   1.1000000000e-01,   2.6497807240e-01
    4550,   1.1500000000e-01,   2.6497807240e-01
    4551,   1.2250000000e-01,   2.6497807240e-01
    4552,   1.3375000000e-01,   2.6497807240e-01
    4553,   1.5062500000e-01,   2.6497807240e-01
    4554,   1.7562500000e-01,   2.6497807240e-01
    4555,   2.0057692310e-01,   2.6497807240e-01
    4556,   2.2552884620e-01,   2.6497807240e-01
    4557,   2.5048076930e-01,   2.6497807240e-01
    4558,   2.7543269240e-01,   2.6497807240e-01
    4559,   3.0038461550e-01,   2.6497807240e-01
    4560,   3.2533653860e-01,   2.6497807240e-01
    4561,   3.5028846170e-01,   2.6497807240e-01
    4562,   3.7524038480e-01,   2.6497807240e-01
    4563,   4.0019230790e-01,   2.6497807240e-01
    4564,   4.2514423100e-01,   2.6497807240e-01
    4565,   4.5009615410e-01,   2.6497807240e-01
    4566,   4.7504807720e-01,   2.6497807240e-01
    4567,   5.0000000000e-01,   2.6497807240e-01
    4568,  -5.0000000000e-01,   2.8848026510e-01
    4569,  -4.7597656250e-01,   2.8848026510e-01
    4570,  -4.5195312500e-01,   2.8848026510e-01
    4571,  -4.2792968750e-01,   2.8848026510e-01
    4572,  -4.0390625000e-01,   2.8848026510e-01
    4573,  -3.7988281250e-01,   2.8848026510e-01
    4574,  -3.5585937500e-01,   2.8848026510e-01
    4575,  -3.3183593750e-01,   2.8848026510e-01
    4576,  -3.0781250000e-01,   2.8848026510e-01
    4577,  -2.8378906250e-01,   2.8848026510e-01
    4578,  -2.5976562500e-01,   2.8848026510e-01
    4579,  -2.3574218750e-01,   2.8848026510e-01
    4580,  -2.1171875000e-01,   2.8848026510e-01
    4581,  -1.8769531250e-01,   2.8848026510e-01
    4582,  -1.6367187500e-01,   2.8848026510e-01
    4583,  -1.3964843750e-01,   2.8848026510e-01
    4584,  -1.1562500000e-01,   2.8848026510e-01
    4585,  -9.0625000000e-02,   2.8848026510e-01
    4586,  -7.3750000000e-02,   2.8848026510e-01
    4587,  -6.2500000000e-02,   2.8848026510e-01
    4588,  -5.5000000000e-02,   2.8848026510e-01
    4589,  -5.0000000000e-02,   2.8848026510e-01
    4590,  -4.5000000000e-02,   2.8848026510e-01
    4591,  -4.0000000000e-02,   2.8848026510e-01
    4592,  -3.5000000000e-02,   2.8848026510e-01
    4593,  -3.0000000000e-02,   2.8848026510e-01
    4594,  -2.5000000000e-02,   2.8848026510e-01
    4595,  -2.0000000000e-02,   2.8848026510e-01
    4596,  -1.5000000000e-02,   2.8848026510e-01
    4597,  -1.0000000000e-02,   2.8848026510e-01
    4598,  -5.0000000000e-03,   2.8848026510e-01
    4599,   0.0000000000e+00,   2.8848026510e-01
    4600,   5.0000000000e-03,   2.8848026510e-01
    4601,   1.0000000000e-02,   2.8848026510e-01
    4602,   1.5000000000e-02,   2.8848026510e-01
    4603,   2.0000000000e-02,   2.8848026510e-01
    4604,   2.5000000000e-02,   2.8848026510e-01
    4605,   3.0000000000e-02,   2.8848026510e-01
    4606,   3.5000000000e-02,   2.8848026510e-01
    4607,   4.0000000000e-02,   2.8848026510e-01
    4608,   4.5000000000e-02,   2.8848026510e-01
    4609,   5.0000000000e-02,   2.8848026510e-01
    4610,   5.5000000000e-02,   2.8848026510e-01
    4611,   6.0000000000e-02,   2.8848026510e-01
    4612,   6.5000000000e-02,   2.8848026510e-01
    4613,   7.0000000000e-02,   2.8848026510e-01
    4614,   7.5000000000e-02,   2.8848026510e-01
    4615,   8.0000000000e-02,   2.8848026510e-01
    4616,   8.5000000000e-02,   2.8848026510e-01
    4617,   9.0000000000e-02,   2.8848026510e-01
    4618,   9.5000000000e-02,   2.8848026510e-01
    4619,   1.0000000000e-01,   2.8848026510e-01
    4620,   1.0500000000e-01,   2.8848026510e-01
    4621,   1.1000000000e-01,   2.8848026510e-01
    4622,   1.1500000000e-01,   2.8848026510e-01
    4623,   1.2250000000e-01,   2.8848026510e-01
    4624,   1.3375000000e-01,   2.8848026510e-01
    4625,   1.5062500000e-01,   2.8848026510e-01
    4626,   1.7562500000e-01,   2.8848026510e-01
    4627,   2.0057692310e-01,   2.8848026510e-01
    4628,   2.2552884620e-01,   2.8848026510e-01
    4629,   2.5048076930e-01,   2.8848026510e-01
    4630,   2.7543269240e-01,   2.8848026510e-01
    4631,   3.0038461550e-01,   2.8848026510e-01
    4632,   3.2533653860e-01,   2.8848026510e-01
    4633,   3.5028846170e-01,   2.8848026510e-01
    4634,   3.7524038480e-01,   2.8848026510e-01
    4635,   4.0019230790e-01,   2.8848026510e-01
    4636,   4.2514423100e-01,   2.8848026510e-01
    4637,   4.5009615410e-01,   2.8848026510e-01
    4638,   4.7504807720e-01,   2.8848026510e-01
    4639,   5.0000000000e-01,   2.8848026510e-01
    4640,  -5.0000000000e-01,   3.1198245780e-01
    4641,  -4.7597656250e-01,   3.1198245780e-01
    4642,  -4.5195312500e-01,   3.1198245780e-01
    4643,  -4.2792968750e-01,   3.1198245780e-01
    4644,  -4.0390625000e-01,   3.1198245780e-01
    4645,  -3.7988281250e-01,   3.1198245780e-01
    4646,  -3.5585937500e-01,   3.1198245780e-01
    4647,  -3.3183593750e-01,   3.1198245780e-01
    4648,  -3.0781250000e-01,   3.1198245780e-01
    4649,  -2.8378906250e-01,   3.1198245780e-01
    4650,  -2.5976562500e-01,   3.1198245780e-01
    4651,  -2.3574218750e-01,   3.1198245780e-01
    4652,  -2.1171875000e-01,   3.1198245780e-01
    4653,  -1.8769531250e-01,   3.1198245780e-01
    4654,  -1.6367187500e-01,   3.1198245780e-01
    4655,  -1.3964843750e-01,   3.1198245780e-01
    4656,  -1.1562500000e-01,   3.1198245780e-01
    4657,  -9.0625000000e-02,   3.1198245780e-01
    4658,  -7.3750000000e-02,   3.1198245780e-01
    4659,  -6.2500000000e-02,   3.1198245780e-01
    4660,  -5.5000000000e-02,   3.1198245780e-01
    4661,  -5.0000000000e-02,   3.1198245780e-01
    4662,  -4.5000000000e-02,   3.1198245780e-01
    4663,  -4.0000000000e-02,   3.1198245780e-01
    4664,  -3.5000000000e-02,   3.1198245780e-01
    4665,  -3.0000000000e-02,   3.1198245780e-01
    4666,  -2.5000000000e-02,   3.1198245780e-01
    4667,  -2.0000000000e-02,   3.1198245780e-01
    4668,  -1.5000000000e-02,   3.1198245780e-01
    4669,  -1.0000000000e-02,   3.1198245780e-01
    4670,  -5.0000000000e-03,   3.1198245780e-01
    4671,   0.0000000000e+00,   3.1198245780e-01
    4672,   5.0000000000e-03,   3.1198245780e-01
    4673,   1.0000000000e-02,   3.1198245780e-01
    4674,   1.5000000000e-02,   3.1198245780e-01
    4675,   2.0000000000e-02,   3.1198245780e-01
    4676,   2.5000000000e-02,   3.1198245780e-01
    4677,   3.0000000000e-02,   3.1198245780e-01
    4678,   3.5000000000e-02,   3.1198245780e-01
    4679,   4.0000000000e-02,   3.1198245780e-01
    4680,   4.5000000000e-02,   3.1198245780e-01
    4681,   5.0000000000e-02,   3.1198245780e-01
    4682,   5.5000000000e-02,   3.1198245780e-01
    4683,   6.0000000000e-02,   3.1198245780e-01
    4684,   6.5000000000e-02,   3.1198245780e-01
    4685,   7.0000000000e-02,   3.1198245780e-01
    4686,   7.5000000000e-02,   3.1198245780e-01
    4687,   8.0000000000e-02,   3.1198245780e-01
    4688,   8.5000000000e-02,   3.1198245780e-01
    4689,   9.0000000000e-02,   3.1198245780e-01
    4690,   9.5000000000e-02,   3.1198245780e-01
    4691,   1.0000000000e-01,   3.1198245780e-01
    4692,   1.0500000000e-01,   3.1198245780e-01
    4693,   1.1000000000e-01,   3.1198245780e-01
    4694,   1.1500000000e-01,   3.1198245780e-01
    4695,   1.2250000000e-01,   3.1198245780e-01
    4696,   1.3375000000e-01,   3.1198245780e-01
    4697,   1.5062500000e-01,   3.1198245780e-01
    4698,   1.7562500000e-01,   3.1198245780e-01
    4699,   2.0057692310e-01,   3.1198245780e-01
    4700,   2.2552884620e-01,   3.1198245780e-01
    4701,   2.5048076930e-01,   3.1198245780e-01
    4702,   2.7543269240e-01,   3.1198245780e-01
    4703,   3.0038461550e-01,   3.1198245780e-01
    4704,   3.2533653860e-01,   3.1198245780e-01
    4705,   3.5028846170e-01,   3.1198245780e-01
    4706,   3.7524038480e-01,   3.1198245780e-01
    4707,   4.0019230790e-01,   3.1198245780e-01
    4708,   4.2514423100e-01,   3.1198245780e-01
    4709,   4.5009615410e-01,   3.1198245780e-01
    4710,   4.7504807720e-01,   3.1198245780e-01
    4711,   5.0000000000e-01,   3.1198245780e-01
    4712,  -5.0000000000e-01,   3.3548465050e-01
    4713,  -4.7597656250e-01,   3.3548465050e-01
    4714,  -4.5195312500e-01,   3.3548465050e-01
    4715,  -4.2792968750e-01,   3.3548465050e-01
    4716,  -4.0390625000e-01,   3.3548465050e-01
    4717,  -3.7988281250e-01,   3.3548465050e-01
    4718,  -3.5585937500e-01,   3.3548465050e-01
    4719,  -3.3183593750e-01,   3.3548465050e-01
    4720,  -3.0781250000e-01,   3.3548465050e-01
    4721,  -2.8378906250e-01,   3.3548465050e-01
    4722,  -2.5976562500e-01,   3.3548465050e-01
    4723,  -2.3574218750e-01,   3.3548465050e-01
    4724,  -2.1171875000e-01,   3.3548465050e-01
    4725,  -1.8769531250e-01,   3.3548465050e-01
    4726,  -1.6367187500e-01,   3.3548465050e-01
    4727,  -1.3964843750e-01,   3.3548465050e-01
    4728,  -1.1562500000e-01,   3.3548465050e-01
    4729,  -9.0625000000e-02,   3.3548465050e-01
    4730,  -7.3750000000e-02,   3.3548465050e-01
    4731,  -6.2500000000e-02,   3.3548465050e-01
    4732,  -5.5000000000e-02,   3.3548465050e-01
    4733,  -5.0000000000e-02,   3.3548465050e-01
    4734,  -4.5000000000e-02,   3.3548465050e-01
    4735,  -4.0000000000e-02,   3.3548465050e-01
    4736,  -3.5000000000e-02,   3.3548465050e-01
    4737,  -3.0000000000e-02,   3.3548465050e-01
    4738,  -2.5000000000e-02,   3.3548465050e-01
    4739,  -2.0000000000e-02,   3.3548465050e-01
    4740,  -1.5000000000e-02,   3.3548465050e-01
    4741,  -1.0000000000e-02,   3.3548465050e-01
    4742,  -5.0000000000e-03,   3.3548465050e-01
    4743,   0.0000000000e+00,   3.3548465050e-01
    4744,   5.0000000000e-03,   3.3548465050e-01
    4745,   1.0000000000e-02,   3.3548465050e-01
    4746,   1.5000000000e-02,   3.3548465050e-01
    4747,   2.0000000000e-02,   3.3548465050e-01
    4748,   2.5000000000e-02,   3.3548465050e-01
    4749,   3.0000000000e-02,   3.3548465050e-01
    4750,   3.5000000000e-02,   3.3548465050e-01
    4751,   4.0000000000e-02,   3.3548465050e-01
    4752,   4.5000000000e-02,   3.3548465050e-01
    4753,   5.0000000000e-02,   3.3548465050e-01
    4754,   5.5000000000e-02,   3.3548465050e-01
    4755,   6.0000000000e-02,   3.3548465050e-01
    4756,   6.5000000000e-02,   3.3548465050e-01
    4757,   7.0000000000e-02,   3.3548465050e-01
    4758,   7.5000000000e-02,   3.3548465050e-01
    4759,   8.0000000000e-02,   3.3548465050e-01
    4760,   8.5000000000e-02,   3.3548465050e-01
    4761,   9.0000000000e-02,   3.3548465050e-01
    4762,   9.5000000000e-02,   3.3548465050e-01
    4763,   1.0000000000e-01,   3.3548465050e-01
    4764,   1.0500000000e-01,   3.3548465050e-01
    4765,   1.1000000000e-01,   3.3548465050e-01
    4766,   1.1500000000e-01,   3.3548465050e-01
    4767,   1.2250000000e-01,   3.3548465050e-01
    4768,   1.3375000000e-01,   3.3548465050e-01
    4769,   1.5062500000e-01,   3.3548465050e-01
    4770,   1.7562500000e-01,   3.3548465050e-01
    4771,   2.0057692310e-01,   3.3548465050e-01
    4772,   2.2552884620e-01,   3.3548465050e-01
    4773,   2.5048076930e-01,   3.3548465050e-01
    4774,   2.7543269240e-01,   3.3548465050e-01
    4775,   3.0038461550e-01,   3.3548465050e-01
    4776,   3.2533653860e-01,   3.3548465050e-01
    4777,   3.5028846170e-01,   3.3548465050e-01
    4778,   3.7524038480e-01,   3.3548465050e-01
    4779,   4.0019230790e-01,   3.3548465050e-01
    4780,   4.2514423100e-01,   3.3548465050e-01
    4781,   4.5009615410e-01,   3.3548465050e-01
    4782,   4.7504807720e-01,   3.3548465050e-01
    4783,   5.0000000000e-01,   3.3548465050e-01
    4784,  -5.0000000000e-01,   3.5898684320e-01
    4785,  -4.7597656250e-01,   3.5898684320e-01
    4786,  -4.5195312500e-01,   3.5898684320e-01
    4787,  -4.2792968750e-01,   3.5898684320e-01
    4788,  -4.0390625000e-01,   3.5898684320e-01
    4789,  -3.7988281250e-01,   3.5898684320e-01
    4790,  -3.5585937500e-01,   3.5898684320e-01
    4791,  -3.3183593750e-01,   3.5898684320e-01
    4792,  -3.0781250000e-01,   3.5898684320e-01
    4793,  -2.8378906250e-01,   3.5898684320e-01
    4794,  -2.5976562500e-01,   3.5898684320e-01
    4795,  -2.3574218750e-01,   3.5898684320e-01
    4796,  -2.1171875000e-01,   3.5898684320e-01
    4797,  -1.8769531250e-01,   3.5898684320e-01
    4798,  -1.6367187500e-01,   3.5898684320e-01
    4799,  -1.3964843750e-01,   3.5898684320e-01
    4800,  -1.1562500000e-01,   3.5898684320e-01
    4801,  -9.0625000000e-02,   3.5898684320e-01
    4802,  -7.3750000000e-02,   3.5898684320e-01
    4803,  -6.2500000000e-02,   3.5898684320e-01
    4804,  -5.5000000000e-02,   3.5898684320e-01
    4805,  -5.0000000000e-02,   3.5898684320e-01
    4806,  -4.5000000000e-02,   3.5898684320e-01
    4807,  -4.0000000000e-02,   3.5898684320e-01
    4808,  -3.5000000000e-02,   3.5898684320e-01
    4809,  -3.0000000000e-02,   3.5898684320e-01
    4810,  -2.5000000000e-02,   3.5898684320e-01
    4811,  -2.0000000000e-02,   3.5898684320e-01
    4812,  -1.5000000000e-02,   3.5898684320e-01
    4813,  -1.0000000000e-02,   3.5898684320e-01
    4814,  -5.0000000000e-03,   3.5898684320e-01
    4815,   0.0000000000e+00,   3.5898684320e-01
    4816,   5.0000000000e-03,   3.5898684320e-01
    4817,   1.0000000000e-02,   3.5898684320e-01
    4818,   1.5000000000e-02,   3.5898684320e-01
    4819,   2.0000000000e-02,   3.5898684320e-01
    4820,   2.5000000000e-02,   3.5898684320e-01
    4821,   3.0000000000e-02,   3.5898684320e-01
    4822,   3.5000000000e-02,   3.5898684320e-01
    4823,   4.0000000000e-02,   3.5898684320e-01
    4824,   4.5000000000e-02,   3.5898684320e-01
    4825,   5.0000000000e-02,   3.5898684320e-01
    4826,   5.5000000000e-02,   3.5898684320e-01
    4827,   6.0000000000e-02,   3.5898684320e-01
    4828,   6.5000000000e-02,   3.5898684320e-01
    4829,   7.0000000000e-02,   3.5898684320e-01
    4830,   7.5000000000e-02,   3.5898684320e-01
    4831,   8.0000000000e-02,   3.5898684320e-01
    4832,   8.5000000000e-02,   3.5898684320e-01
    4833,   9.0000000000e-02,   3.5898684320e-01
    4834,   9.5000000000e-02,   3.5898684320e-01
    4835,   1.0000000000e-01,   3.5898684320e-01
    4836,   1.0500000000e-01,   3.5898684320e-01
    4837,   1.1000000000e-01,   3.5898684320e-01
    4838,   1.1500000000e-01,   3.5898684320e-01
    4839,   1.2250000000e-01,   3.5898684320e-01
    4840,   1.3375000000e-01,   3.5898684320e-01
    4841,   1.5062500000e-01,   3.5898684320e-01
    4842,   1.7562500000e-01,   3.5898684320e-01
    4843,   2.0057692310e-01,   3.5898684320e-01
    4844,   2.2552884620e-01,   3.5898684320e-01
    4845,   2.5048076930e-01,   3.5898684320e-01
    4846,   2.7543269240e-01,   3.5898684320e-01
    4847,   3.0038461550e-01,   3.5898684320e-01
    4848,   3.2533653860e-01,   3.5898684320e-01
    4849,   3.5028846170e-01,   3.5898684320e-01
    4850,   3.7524038480e-01,   3.5898684320e-01
    4851,   4.0019230790e-01,   3.5898684320e-01
    4852,   4.2514423100e-01,   3.5898684320e-01
    4853,   4.5009615410e-01,   3.5898684320e-01
    4854,   4.7504807720e-01,   3.5898684320e-01
    4855,   5.0000000000e-01,   3.5898684320e-01
    4856,  -5.0000000000e-01,   3.8248903590e-01
    4857,  -4.7597656250e-01,   3.8248903590e-01
    4858,  -4.5195312500e-01,   3.8248903590e-01
    4859,  -4.2792968750e-01,   3.8248903590e-01
    4860,  -4.0390625000e-01,   3.8248903590e-01
    4861,  -3.7988281250e-01,   3.8248903590e-01
    4862,  -3.5585937500e-01,   3.8248903590e-01
    4863,  -3.3183593750e-01,   3.8248903590e-01
    4864,  -3.0781250000e-01,   3.8248903590e-01
    4865,  -2.8378906250e-01,   3.8248903590e-01
    4866,  -2.5976562500e-01,   3.8248903590e-01
    4867,  -2.3574218750e-01,   3.8248903590e-01
    4868,  -2.1171875000e-01,   3.8248903590e-01
    4869,  -1.8769531250e-01,   3.8248903590e-01
    4870,  -1.6367187500e-01,   3.8248903590e-01
    4871,  -1.3964843750e-01,   3.8248903590e-01
    4872,  -1.1562500000e-01,   3.8248903590e-01
    4873,  -9.0625000000e-02,   3.8248903590e-01
    4874,  -7.3750000000e-02,   3.8248903590e-01
    4875,  -6.2500000000e-02,   3.8248903590e-01
    4876,  -5.5000000000e-02,   3.8248903590e-01
    4877,  -5.0000000000e-02,   3.8248903590e-01
    4878,  -4.5000000000e-02,   3.8248903590e-01
    4879,  -4.0000000000e-02,   3.8248903590e-01
    4880,  -3.5000000000e-02,   3.8248903590e-01
    4881,  -3.0000000000e-02,   3.8248903590e-01
    4882,  -2.5000000000e-02,   3.8248903590e-01
    4883,  -2.0000000000e-02,   3.8248903590e-01
    4884,  -1.5000000000e-02,   3.8248903590e-01
    4885,  -1.0000000000e-02,   3.8248903590e-01
    4886,  -5.0000000000e-03,   3.8248903590e-01
    4887,   0.0000000000e+00,   3.8248903590e-01
    4888,   5.0000000000e-03,   3.8248903590e-01
    4889,   1.0000000000e-02,   3.8248903590e-01
    4890,   1.5000000000e-02,   3.8248903590e-01
    4891,   2.0000000000e-02,   3.8248903590e-01
    4892,   2.5000000000e-02,   3.8248903590e-01
    4893,   3.0000000000e-02,   3.8248903590e-01
    4894,   3.5000000000e-02,   3.8248903590e-01
    4895,   4.0000000000e-02,   3.8248903590e-01
    4896,   4.5000000000e-02,   3.8248903590e-01
    4897,   5.0000000000e-02,   3.8248903590e-01
    4898,   5.5000000000e-02,   3.8248903590e-01
    4899,   6.0000000000e-02,   3.8248903590e-01
    4900,   6.5000000000e-02,   3.8248903590e-01
    4901,   7.0000000000e-02,   3.8248903590e-01
    4902,   7.5000000000e-02,   3.8248903590e-01
    4903,   8.0000000000e-02,   3.8248903590e-01
    4904,   8.5000000000e-02,   3.8248903590e-01
    4905,   9.0000000000e-02,   3.8248903590e-01
    4906,   9.5000000000e-02,   3.8248903590e-01
    4907,   1.0000000000e-01,   3.8248903590e-01
    4908,   1.0500000000e-01,   3.8248903590e-01
    4909,   1.1000000000e-01,   3.8248903590e-01
    4910,   1.1500000000e-01,   3.8248903590e-01
    4911,   1.2250000000e-01,   3.8248903590e-01
    4912,   1.3375000000e-01,   3.8248903590e-01
    4913,   1.5062500000e-01,   3.8248903590e-01
    4914,   1.7562500000e-01,   3.8248903590e-01
    4915,   2.0057692310e-01,   3.8248903590e-01
    4916,   2.2552884620e-01,   3.8248903590e-01
    4917,   2.5048076930e-01,   3.8248903590e-01
    4918,   2.7543269240e-01,   3.8248903590e-01
    4919,   3.0038461550e-01,   3.8248903590e-01
    4920,   3.2533653860e-01,   3.8248903590e-01
    4921,   3.5028846170e-01,   3.8248903590e-01
    4922,   3.7524038480e-01,   3.8248903590e-01
    4923,   4.0019230790e-01,   3.8248903590e-01
    4924,   4.2514423100e-01,   3.8248903590e-01
    4925,   4.5009615410e-01,   3.8248903590e-01
    4926,   4.7504807720e-01,   3.8248903590e-01
    4927,   5.0000000000e-01,   3.8248903590e-01
    4928,  -5.0000000000e-01,   4.0599122860e-01
    4929,  -4.7597656250e-01,   4.0599122860e-01
    4930,  -4.5195312500e-01,   4.0599122860e-01
    4931,  -4.2792968750e-01,   4.0599122860e-01
    4932,  -4.0390625000e-01,   4.0599122860e-01
    4933,  -3.7988281250e-01,   4.0599122860e-01
    4934,  -3.5585937500e-01,   4.0599122860e-01
    4935,  -3.3183593750e-01,   4.0599122860e-01
    4936,  -3.0781250000e-01,   4.0599122860e-01
    4937,  -2.8378906250e-01,   4.0599122860e-01
    4938,  -2.5976562500e-01,   4.0599122860e-01
    4939,  -2.3574218750e-01,   4.0599122860e-01
    4940,  -2.1171875000e-01,   4.0599122860e-01
    4941,  -1.8769531250e-01,   4.0599122860e-01
    4942,  -1.6367187500e-01,   4.0599122860e-01
    4943,  -1.3964843750e-01,   4.0599122860e-01
    4944,  -1.1562500000e-01,   4.0599122860e-01
    4945,  -9.0625000000e-02,   4.0599122860e-01
    4946,  -7.3750000000e-02,   4.0599122860e-01
    4947,  -6.2500000000e-02,   4.0599122860e-01
    4948,  -5.5000000000e-02,   4.0599122860e-01
    4949,  -5.0000000000e-02,   4.0599122860e-01
    4950,  -4.5000000000e-02,   4.0599122860e-01
    4951,  -4.0000000000e-02,   4.0599122860e-01
    4952,  -3.5000000000e-02,   4.0599122860e-01
    4953,  -3.0000000000e-02,   4.0599122860e-01
    4954,  -2.5000000000e-02,   4.0599122860e-01
    4955,  -2.0000000000e-02,   4.0599122860e-01
    4956,  -1.5000000000e-02,   4.0599122860e-01
    4957,  -1.0000000000e-02,   4.0599122860e-01
    4958,  -5.0000000000e-03,   4.0599122860e-01
    4959,   0.0000000000e+00,   4.0599122860e-01
    4960,   5.0000000000e-03,   4.0599122860e-01
    4961,   1.0000000000e-02,   4.0599122860e-01
    4962,   1.5000000000e-02,   4.0599122860e-01
    4963,   2.0000000000e-02,   4.0599122860e-01
    4964,   2.5000000000e-02,   4.0599122860e-01
    4965,   3.0000000000e-02,   4.0599122860e-01
    4966,   3.5000000000e-02,   4.0599122860e-01
    4967,   4.0000000000e-02,   4.0599122860e-01
    4968,   4.5000000000e-02,   4.0599122860e-01
    4969,   5.0000000000e-02,   4.0599122860e-01
    4970,   5.5000000000e-02,   4.0599122860e-01
    4971,   6.0000000000e-02,   4.0599122860e-01
    4972,   6.5000000000e-02,   4.0599122860e-01
    4973,   7.0000000000e-02,   4.0599122860e-01
    4974,   7.5000000000e-02,   4.0599122860e-01
    4975,   8.0000000000e-02,   4.0599122860e-01
    4976,   8.5000000000e-02,   4.0599122860e-01
    4977,   9.0000000000e-02,   4.0599122860e-01
    4978,   9.5000000000e-02,   4.0599122860e-01
    4979,   1.0000000000e-01,   4.0599122860e-01
    4980,   1.0500000000e-01,   4.0599122860e-01
    4981,   1.1000000000e-01,   4.0599122860e-01
    4982,   1.1500000000e-01,   4.0599122860e-01
    4983,   1.2250000000e-01,   4.0599122860e-01
    4984,   1.3375000000e-01,   4.0599122860e-01
    4985,   1.5062500000e-01,   4.0599122860e-01
    4986,   1.7562500000e-01,   4.0599122860e-01
    4987,   2.0057692310e-01,   4.0599122860e-01
    4988,   2.2552884620e-01,   4.0599122860e-01
    4989,   2.5048076930e-01,   4.0599122860e-01
    4990,   2.7543269240e-01,   4.0599122860e-01
    4991,   3.0038461550e-01,   4.0599122860e-01
    4992,   3.2533653860e-01,   4.0599122860e-01
    4993,   3.5028846170e-01,   4.0599122860e-01
    4994,   3.7524038480e-01,   4.0599122860e-01
    4995,   4.0019230790e-01,   4.0599122860e-01
    4996,   4.2514423100e-01,   4.0599122860e-01
    4997,   4.5009615410e-01,   4.0599122860e-01
    4998,   4.7504807720e-01,   4.0599122860e-01
    4999,   5.0000000000e-01,   4.0599122860e-01
    5000,  -5.0000000000e-01,   4.2949342130e-01
    5001,  -4.7597656250e-01,   4.2949342130e-01
    5002,  -4.5195312500e-01,   4.2949342130e-01
    5003,  -4.2792968750e-01,   4.2949342130e-01
    5004,  -4.0390625000e-01,   4.2949342130e-01
    5005,  -3.7988281250e-01,   4.2949342130e-01
    5006,  -3.5585937500e-01,   4.2949342130e-01
    5007,  -3.3183593750e-01,   4.2949342130e-01
    5008,  -3.0781250000e-01,   4.2949342130e-01
    5009,  -2.8378906250e-01,   4.2949342130e-01
    5010,  -2.5976562500e-01,   4.2949342130e-01
    5011,  -2.3574218750e-01,   4.2949342130e-01
    5012,  -2.1171875000e-01,   4.2949342130e-01
    5013,  -1.8769531250e-01,   4.2949342130e-01
    5014,  -1.6367187500e-01,   4.2949342130e-01
    5015,  -1.3964843750e-01,   4.2949342130e-01
    5016,  -1.1562500000e-01,   4.2949342130e-01
    5017,  -9.0625000000e-02,   4.2949342130e-01
    5018,  -7.3750000000e-02,   4.2949342130e-01
    5019,  -6.2500000000e-02,   4.2949342130e-01
    5020,  -5.5000000000e-02,   4.2949342130e-01
    5021,  -5.0000000000e-02,   4.2949342130e-01
    5022,  -4.5000000000e-02,   4.2949342130e-01
    5023,  -4.0000000000e-02,   4.2949342130e-01
    5024,  -3.5000000000e-02,   4.2949342130e-01
    5025,  -3.0000000000e-02,   4.2949342130e-01
    5026,  -2.5000000000e-02,   4.2949342130e-01
    5027,  -2.0000000000e-02,   4.2949342130e-01
    5028,  -1.5000000000e-02,   4.2949342130e-01
    5029,  -1.0000000000e-02,   4.2949342130e-01
    5030,  -5.0000000000e-03,   4.2949342130e-01
    5031,   0.0000000000e+00,   4.2949342130e-01
    5032,   5.0000000000e-03,   4.2949342130e-01
    5033,   1.0000000000e-02,   4.2949342130e-01
    5034,   1.5000000000e-02,   4.2949342130e-01
    5035,   2.0000000000e-02,   4.2949342130e-01
    5036,   2.5000000000e-02,   4.2949342130e-01
    5037,   3.0000000000e-02,   4.2949342130e-01
    5038,   3.5000000000e-02,   4.2949342130e-01
    5039,   4.0000000000e-02,   4.2949342130e-01
    5040,   4.5000000000e-02,   4.2949342130e-01
    5041,   5.0000000000e-02,   4.2949342130e-01
    5042,   5.5000000000e-02,   4.2949342130e-01
    5043,   6.0000000000e-02,   4.2949342130e-01
    5044,   6.5000000000e-02,   4.2949342130e-01
    5045,   7.0000000000e-02,   4.2949342130e-01
    5046,   7.5000000000e-02,   4.2949342130e-01
    5047,   8.0000000000e-02,   4.2949342130e-01
    5048,   8.5000000000e-02,   4.2949342130e-01
    5049,   9.0000000000e-02,   4.2949342130e-01
    5050,   9.5000000000e-02,   4.2949342130e-01
    5051,   1.0000000000e-01,   4.2949342130e-01
    5052,   1.0500000000e-01,   4.2949342130e-01
    5053,   1.1000000000e-01,   4.2949342130e-01
    5054,   1.1500000000e-01,   4.2949342130e-01
    5055,   1.2250000000e-01,   4.2949342130e-01
    5056,   1.3375000000e-01,   4.2949342130e-01
    5057,   1.5062500000e-01,   4.2949342130e-01
    5058,   1.7562500000e-01,   4.2949342130e-01
    5059,   2.0057692310e-01,   4.2949342130e-01
    5060,   2.2552884620e-01,   4.2949342130e-01
    5061,   2.5048076930e-01,   4.2949342130e-01
    5062,   2.7543269240e-01,   4.2949342130e-01
    5063,   3.0038461550e-01,   4.2949342130e-01
    5064,   3.2533653860e-01,   4.2949342130e-01
    5065,   3.5028846170e-01,   4.2949342130e-01
    5066,   3.7524038480e-01,   4.2949342130e-01
    5067,   4.0019230790e-01,   4.2949342130e-01
    5068,   4.2514423100e-01,   4.2949342130e-01
    5069,   4.5009615410e-01,   4.2949342130e-01
    5070,   4.7504807720e-01,   4.2949342130e-01
    5071,   5.0000000000e-01,   4.2949342130e-01
    5072,  -5.0000000000e-01,   4.5299561400e-01
    5073,  -4.7597656250e-01,   4.5299561400e-01
    5074,  -4.5195312500e-01,   4.5299561400e-01
    5075,  -4.2792968750e-01,   4.5299561400e-01
    5076,  -4.0390625000e-01,   4.5299561400e-01
    5077,  -3.7988281250e-01,   4.5299561400e-01
    5078,  -3.5585937500e-01,   4.5299561400e-01
    5079,  -3.3183593750e-01,   4.5299561400e-01
    5080,  -3.0781250000e-01,   4.5299561400e-01
    5081,  -2.8378906250e-01,   4.5299561400e-01
    5082,  -2.5976562500e-01,   4.5299561400e-01
    5083,  -2.3574218750e-01,   4.5299561400e-01
    5084,  -2.1171875000e-01,   4.5299561400e-01
    5085,  -1.8769531250e-01,   4.5299561400e-01
    5086,  -1.6367187500e-01,   4.5299561400e-01
    5087,  -1.3964843750e-01,   4.5299561400e-01
    5088,  -1.1562500000e-01,   4.5299561400e-01
    5089,  -9.0625000000e-02,   4.5299561400e-01
    5090,  -7.3750000000e-02,   4.5299561400e-01
    5091,  -6.2500000000e-02,   4.5299561400e-01
    5092,  -5.5000000000e-02,   4.5299561400e-01
    5093,  -5.0000000000e-02,   4.5299561400e-01
    5094,  -4.5000000000e-02,   4.5299561400e-01
    5095,  -4.0000000000e-02,   4.5299561400e-01
    5096,  -3.5000000000e-02,   4.5299561400e-01
    5097,  -3.0000000000e-02,   4.5299561400e-01
    5098,  -2.5000000000e-02,   4.5299561400e-01
    5099,  -2.0000000000e-02,   4.5299561400e-01
    5100,  -1.5000000000e-02,   4.5299561400e-01
    5101,  -1.0000000000e-02,   4.5299561400e-01
    5102,  -5.0000000000e-03,   4.5299561400e-01
    5103,   0.0000000000e+00,   4.5299561400e-01
    5104,   5.0000000000e-03,   4.5299561400e-01
    5105,   1.0000000000e-02,   4.5299561400e-01
    5106,   1.5000000000e-02,   4.5299561400e-01
    5107,   2.0000000000e-02,   4.5299561400e-01
    5108,   2.5000000000e-02,   4.5299561400e-01
    5109,   3.0000000000e-02,   4.5299561400e-01
    5110,   3.5000000000e-02,   4.5299561400e-01
    5111,   4.0000000000e-02,   4.5299561400e-01
    5112,   4.5000000000e-02,   4.5299561400e-01
    5113,   5.0000000000e-02,   4.5299561400e-01
    5114,   5.5000000000e-02,   4.5299561400e-01
    5115,   6.0000000000e-02,   4.5299561400e-01
    5116,   6.5000000000e-02,   4.5299561400e-01
    5117,   7.0000000000e-02,   4.5299561400e-01
    5118,   7.5000000000e-02,   4.5299561400e-01
    5119,   8.0000000000e-02,   4.5299561400e-01
    5120,   8.5000000000e-02,   4.5299561400e-01
    5121,   9.0000000000e-02,   4.5299561400e-01
    5122,   9.5000000000e-02,   4.5299561400e-01
    5123,   1.0000000000e-01,   4.5299561400e-01
    5124,   1.0500000000e-01,   4.5299561400e-01
    5125,   1.1000000000e-01,   4.5299561400e-01
    5126,   1.1500000000e-01,   4.5299561400e-01
    5127,   1.2250000000e-01,   4.5299561400e-01
    5128,   1.3375000000e-01,   4.5299561400e-01
    5129,   1.5062500000e-01,   4.5299561400e-01
    5130,   1.7562500000e-01,   4.5299561400e-01
    5131,   2.0057692310e-01,   4.5299561400e-01
    5132,   2.2552884620e-01,   4.5299561400e-01
    5133,   2.5048076930e-01,   4.5299561400e-01
    5134,   2.7543269240e-01,   4.5299561400e-01
    5135,   3.0038461550e-01,   4.5299561400e-01
    5136,   3.2533653860e-01,   4.5299561400e-01
    5137,   3.5028846170e-01,   4.5299561400e-01
    5138,   3.7524038480e-01,   4.5299561400e-01
    5139,   4.0019230790e-01,   4.5299561400e-01
    5140,   4.2514423100e-01,   4.5299561400e-01
    5141,   4.5009615410e-01,   4.5299561400e-01
    5142,   4.7504807720e-01,   4.5299561400e-01
    5143,   5.0000000000e-01,   4.5299561400e-01
    5144,  -5.0000000000e-01,   4.7649780670e-01
    5145,  -4.7597656250e-01,   4.7649780670e-01
    5146,  -4.5195312500e-01,   4.7649780670e-01
    5147,  -4.2792968750e-01,   4.7649780670e-01
    5148,  -4.0390625000e-01,   4.7649780670e-01
    5149,  -3.7988281250e-01,   4.7649780670e-01
    5150,  -3.5585937500e-01,   4.7649780670e-01
    5151,  -3.3183593750e-01,   4.7649780670e-01
    5152,  -3.0781250000e-01,   4.7649780670e-01
    5153,  -2.8378906250e-01,   4.7649780670e-01
    5154,  -2.5976562500e-01,   4.7649780670e-01
    5155,  -2.3574218750e-01,   4.7649780670e-01
    5156,  -2.1171875000e-01,   4.7649780670e-01
    5157,  -1.8769531250e-01,   4.7649780670e-01
    5158,  -1.6367187500e-01,   4.7649780670e-01
    5159,  -1.3964843750e-01,   4.7649780670e-01
    5160,  -1.1562500000e-01,   4.7649780670e-01
    5161,  -9.0625000000e-02,   4.7649780670e-01
    5162,  -7.3750000000e-02,   4.7649780670e-01
    5163,  -6.2500000000e-02,   4.7649780670e-01
    5164,  -5.5000000000e-02,   4.7649780670e-01
    5165,  -5.0000000000e-02,   4.7649780670e-01
    5166,  -4.5000000000e-02,   4.7649780670e-01
    5167,  -4.0000000000e-02,   4.7649780670e-01
    5168,  -3.5000000000e-02,   4.7649780670e-01
    5169,  -3.0000000000e-02,   4.7649780670e-01
    5170,  -2.5000000000e-02,   4.7649780670e-01
    5171,  -2.0000000000e-02,   4.7649780670e-01
    5172,  -1.5000000000e-02,   4.7649780670e-01
    5173,  -1.0000000000e-02,   4.7649780670e-01
    5174,  -5.0000000000e-03,   4.7649780670e-01
    5175,   0.0000000000e+00,   4.7649780670e-01
    5176,   5.0000000000e-03,   4.7649780670e-01
    5177,   1.0000000000e-02,   4.7649780670e-01
    5178,   1.5000000000e-02,   4.7649780670e-01
    5179,   2.0000000000e-02,   4.7649780670e-01
    5180,   2.5000000000e-02,   4.7649780670e-01
    5181,   3.0000000000e-02,   4.7649780670e-01
    5182,   3.5000000000e-02,   4.7649780670e-01
    5183,   4.0000000000e-02,   4.7649780670e-01
    5184,   4.5000000000e-02,   4.7649780670e-01
    5185,   5.0000000000e-02,   4.7649780670e-01
    5186,   5.5000000000e-02,   4.7649780670e-01
    5187,   6.0000000000e-02,   4.7649780670e-01
    5188,   6.5000000000e-02,   4.7649780670e-01
    5189,   7.0000000000e-02,   4.7649780670e-01
    5190,   7.5000000000e-02,   4.7649780670e-01
    5191,   8.0000000000e-02,   4.7649780670e-01
    5192,   8.5000000000e-02,   4.7649780670e-01
    5193,   9.0000000000e-02,   4.7649780670e-01
    5194,   9.5000000000e-02,   4.7649780670e-01
    5195,   1.0000000000e-01,   4.7649780670e-01
    5196,   1.0500000000e-01,   4.7649780670e-01
    5197,   1.1000000000e-01,   4.7649780670e-01
    5198,   1.1500000000e-01,   4.7649780670e-01
    5199,   1.2250000000e-01,   4.7649780670e-01
    5200,   1.3375000000e-01,   4.7649780670e-01
    5201,   1.5062500000e-01,   4.7649780670e-01
    5202,   1.7562500000e-01,   4.7649780670e-01
    5203,   2.0057692310e-01,   4.7649780670e-01
    5204,   2.2552884620e-01,   4.7649780670e-01
    5205,   2.5048076930e-01,   4.7649780670e-01
    5206,   2.7543269240e-01,   4.7649780670e-01
    5207,   3.0038461550e-01,   4.7649780670e-01
    5208,   3.2533653860e-01,   4.7649780670e-01
    5209,   3.5028846170e-01,   4.7649780670e-01
    5210,   3.7524038480e-01,   4.7649780670e-01
    5211,   4.0019230790e-01,   4.7649780670e-01
    5212,   4.2514423100e-01,   4.7649780670e-01
    5213,   4.5009615410e-01,   4.7649780670e-01
    5214,   4.7504807720e-01,   4.7649780670e-01
    5215,   5.0000000000e-01,   4.7649780670e-01
    5216,  -5.0000000000e-01,   5.0000000000e-01
    5217,  -4.7597656250e-01,   5.0000000000e-01
    5218,  -4.5195312500e-01,   5.0000000000e-01
    5219,  -4.2792968750e-01,   5.0000000000e-01
    5220,  -4.0390625000e-01,   5.0000000000e-01
    5221,  -3.7988281250e-01,   5.0000000000e-01
    5222,  -3.5585937500e-01,   5.0000000000e-01
    5223,  -3.3183593750e-01,   5.0000000000e-01
    5224,  -3.0781250000e-01,   5.0000000000e-01
    5225,  -2.8378906250e-01,   5.0000000000e-01
    5226,  -2.5976562500e-01,   5.0000000000e-01
    5227,  -2.3574218750e-01,   5.0000000000e-01
    5228,  -2.1171875000e-01,   5.0000000000e-01
    5229,  -1.8769531250e-01,   5.0000000000e-01
    5230,  -1.6367187500e-01,   5.0000000000e-01
    5231,  -1.3964843750e-01,   5.0000000000e-01
    5232,  -1.1562500000e-01,   5.0000000000e-01
    5233,  -9.0625000000e-02,   5.0000000000e-01
    5234,  -7.3750000000e-02,   5.0000000000e-01
    5235,  -6.2500000000e-02,   5.0000000000e-01
    5236,  -5.5000000000e-02,   5.0000000000e-01
    5237,  -5.0000000000e-02,   5.0000000000e-01
    5238,  -4.5000000000e-02,   5.0000000000e-01
    5239,  -4.0000000000e-02,   5.0000000000e-01
    5240,  -3.5000000000e-02,   5.0000000000e-01
    5241,  -3.0000000000e-02,   5.0000000000e-01
    5242,  -2.5000000000e-02,   5.0000000000e-01
    5243,  -2.0000000000e-02,   5.0000000000e-01
    5244,  -1.5000000000e-02,   5.0000000000e-01
    5245,  -1.0000000000e-02,   5.0000000000e-01
    5246,  -5.0000000000e-03,   5.0000000000e-01
    5247,   0.0000000000e+00,   5.0000000000e-01
    5248,   5.0000000000e-03,   5.0000000000e-01
    5249,   1.0000000000e-02,   5.0000000000e-01
    5250,   1.5000000000e-02,   5.0000000000e-01
    5251,   2.0000000000e-02,   5.0000000000e-01
    5252,   2.5000000000e-02,   5.0000000000e-01
    5253,   3.0000000000e-02,   5.0000000000e-01
    5254,   3.5000000000e-02,   5.0000000000e-01
    5255,   4.0000000000e-02,   5.0000000000e-01
    5256,   4.5000000000e-02,   5.0000000000e-01
    5257,   5.0000000000e-02,   5.0000000000e-01
    5258,   5.5000000000e-02,   5.0000000000e-01
    5259,   6.0000000000e-02,   5.0000000000e-01
    5260,   6.5000000000e-02,   5.0000000000e-01
    5261,   7.0000000000e-02,   5.0000000000e-01
    5262,   7.5000000000e-02,   5.0000000000e-01
    5263,   8.0000000000e-02,   5.0000000000e-01
    5264,   8.5000000000e-02,   5.0000000000e-01
    5265,   9.0000000000e-02,   5.0000000000e-01
    5266,   9.5000000000e-02,   5.0000000000e-01
    5267,   1.0000000000e-01,   5.0000000000e-01
    5268,   1.0500000000e-01,   5.0000000000e-01
    5269,   1.1000000000e-01,   5.0000000000e-01
    5270,   1.1500000000e-01,   5.0000000000e-01
    5271,   1.2250000000e-01,   5.0000000000e-01
    5272,   1.3375000000e-01,   5.0000000000e-01
    5273,   1.5062500000e-01,   5.0000000000e-01
    5274,   1.7562500000e-01,   5.0000000000e-01
    5275,   2.0057692310e-01,   5.0000000000e-01
    5276,   2.2552884620e-01,   5.0000000000e-01
    5277,   2.5048076930e-01,   5.0000000000e-01
    5278,   2.7543269240e-01,   5.0000000000e-01
    5279,   3.0038461550e-01,   5.0000000000e-01
    5280,   3.2533653860e-01,   5.0000000000e-01
    5281,   3.5028846170e-01,   5.0000000000e-01
    5282,   3.7524038480e-01,   5.0000000000e-01
    5283,   4.0019230790e-01,   5.0000000000e-01
    5284,   4.2514423100e-01,   5.0000000000e-01
    5285,   4.5009615410e-01,   5.0000000000e-01
    5286,   4.7504807720e-01,   5.0000000000e-01
    5287,   5.0000000000e-01,   5.0000000000e-01
   99999,   5.0000000000e-01,   5.0000000000e-01
   99999,   0.0000000000e+00,   6.0000000000e-01,   0.0000000000e+00
** Layer 1: Phase Elements (1 .. 5112)
*Element, type=U1, elset=PHASE_QUAD
   10225,       1,       2,      74,      73
   10226,       2,       3,      75,      74
   10227,       3,       4,      76,      75
   10228,       4,       5,      77,      76
   10229,       5,       6,      78,      77
   10230,       6,       7,      79,      78
   10231,       7,       8,      80,      79
   10232,       8,       9,      81,      80
   10233,       9,      10,      82,      81
   10234,      10,      11,      83,      82
   10235,      11,      12,      84,      83
   10236,      12,      13,      85,      84
   10237,      13,      14,      86,      85
   10238,      14,      15,      87,      86
   10239,      15,      16,      88,      87
   10240,      16,      17,      89,      88
   10241,      17,      18,      90,      89
   10242,      18,      19,      91,      90
   10243,      19,      20,      92,      91
   10244,      20,      21,      93,      92
   10245,      21,      22,      94,      93
   10246,      22,      23,      95,      94
   10247,      23,      24,      96,      95
   10248,      24,      25,      97,      96
   10249,      25,      26,      98,      97
   10250,      26,      27,      99,      98
   10251,      27,      28,     100,      99
   10252,      28,      29,     101,     100
   10253,      29,      30,     102,     101
   10254,      30,      31,     103,     102
   10255,      31,      32,     104,     103
   10256,      32,      33,     105,     104
   10257,      33,      34,     106,     105
   10258,      34,      35,     107,     106
   10259,      35,      36,     108,     107
   10260,      36,      37,     109,     108
   10261,      37,      38,     110,     109
   10262,      38,      39,     111,     110
   10263,      39,      40,     112,     111
   10264,      40,      41,     113,     112
   10265,      41,      42,     114,     113
   10266,      42,      43,     115,     114
   10267,      43,      44,     116,     115
   10268,      44,      45,     117,     116
   10269,      45,      46,     118,     117
   10270,      46,      47,     119,     118
   10271,      47,      48,     120,     119
   10272,      48,      49,     121,     120
   10273,      49,      50,     122,     121
   10274,      50,      51,     123,     122
   10275,      51,      52,     124,     123
   10276,      52,      53,     125,     124
   10277,      53,      54,     126,     125
   10278,      54,      55,     127,     126
   10279,      55,      56,     128,     127
   10280,      56,      57,     129,     128
   10281,      57,      58,     130,     129
   10282,      58,      59,     131,     130
   10283,      59,      60,     132,     131
   10284,      60,      61,     133,     132
   10285,      61,      62,     134,     133
   10286,      62,      63,     135,     134
   10287,      63,      64,     136,     135
   10288,      64,      65,     137,     136
   10289,      65,      66,     138,     137
   10290,      66,      67,     139,     138
   10291,      67,      68,     140,     139
   10292,      68,      69,     141,     140
   10293,      69,      70,     142,     141
   10294,      70,      71,     143,     142
   10295,      71,      72,     144,     143
   10296,      73,      74,     146,     145
   10297,      74,      75,     147,     146
   10298,      75,      76,     148,     147
   10299,      76,      77,     149,     148
   10300,      77,      78,     150,     149
   10301,      78,      79,     151,     150
   10302,      79,      80,     152,     151
   10303,      80,      81,     153,     152
   10304,      81,      82,     154,     153
   10305,      82,      83,     155,     154
   10306,      83,      84,     156,     155
   10307,      84,      85,     157,     156
   10308,      85,      86,     158,     157
   10309,      86,      87,     159,     158
   10310,      87,      88,     160,     159
   10311,      88,      89,     161,     160
   10312,      89,      90,     162,     161
   10313,      90,      91,     163,     162
   10314,      91,      92,     164,     163
   10315,      92,      93,     165,     164
   10316,      93,      94,     166,     165
   10317,      94,      95,     167,     166
   10318,      95,      96,     168,     167
   10319,      96,      97,     169,     168
   10320,      97,      98,     170,     169
   10321,      98,      99,     171,     170
   10322,      99,     100,     172,     171
   10323,     100,     101,     173,     172
   10324,     101,     102,     174,     173
   10325,     102,     103,     175,     174
   10326,     103,     104,     176,     175
   10327,     104,     105,     177,     176
   10328,     105,     106,     178,     177
   10329,     106,     107,     179,     178
   10330,     107,     108,     180,     179
   10331,     108,     109,     181,     180
   10332,     109,     110,     182,     181
   10333,     110,     111,     183,     182
   10334,     111,     112,     184,     183
   10335,     112,     113,     185,     184
   10336,     113,     114,     186,     185
   10337,     114,     115,     187,     186
   10338,     115,     116,     188,     187
   10339,     116,     117,     189,     188
   10340,     117,     118,     190,     189
   10341,     118,     119,     191,     190
   10342,     119,     120,     192,     191
   10343,     120,     121,     193,     192
   10344,     121,     122,     194,     193
   10345,     122,     123,     195,     194
   10346,     123,     124,     196,     195
   10347,     124,     125,     197,     196
   10348,     125,     126,     198,     197
   10349,     126,     127,     199,     198
   10350,     127,     128,     200,     199
   10351,     128,     129,     201,     200
   10352,     129,     130,     202,     201
   10353,     130,     131,     203,     202
   10354,     131,     132,     204,     203
   10355,     132,     133,     205,     204
   10356,     133,     134,     206,     205
   10357,     134,     135,     207,     206
   10358,     135,     136,     208,     207
   10359,     136,     137,     209,     208
   10360,     137,     138,     210,     209
   10361,     138,     139,     211,     210
   10362,     139,     140,     212,     211
   10363,     140,     141,     213,     212
   10364,     141,     142,     214,     213
   10365,     142,     143,     215,     214
   10366,     143,     144,     216,     215
   10367,     145,     146,     218,     217
   10368,     146,     147,     219,     218
   10369,     147,     148,     220,     219
   10370,     148,     149,     221,     220
   10371,     149,     150,     222,     221
   10372,     150,     151,     223,     222
   10373,     151,     152,     224,     223
   10374,     152,     153,     225,     224
   10375,     153,     154,     226,     225
   10376,     154,     155,     227,     226
   10377,     155,     156,     228,     227
   10378,     156,     157,     229,     228
   10379,     157,     158,     230,     229
   10380,     158,     159,     231,     230
   10381,     159,     160,     232,     231
   10382,     160,     161,     233,     232
   10383,     161,     162,     234,     233
   10384,     162,     163,     235,     234
   10385,     163,     164,     236,     235
   10386,     164,     165,     237,     236
   10387,     165,     166,     238,     237
   10388,     166,     167,     239,     238
   10389,     167,     168,     240,     239
   10390,     168,     169,     241,     240
   10391,     169,     170,     242,     241
   10392,     170,     171,     243,     242
   10393,     171,     172,     244,     243
   10394,     172,     173,     245,     244
   10395,     173,     174,     246,     245
   10396,     174,     175,     247,     246
   10397,     175,     176,     248,     247
   10398,     176,     177,     249,     248
   10399,     177,     178,     250,     249
   10400,     178,     179,     251,     250
   10401,     179,     180,     252,     251
   10402,     180,     181,     253,     252
   10403,     181,     182,     254,     253
   10404,     182,     183,     255,     254
   10405,     183,     184,     256,     255
   10406,     184,     185,     257,     256
   10407,     185,     186,     258,     257
   10408,     186,     187,     259,     258
   10409,     187,     188,     260,     259
   10410,     188,     189,     261,     260
   10411,     189,     190,     262,     261
   10412,     190,     191,     263,     262
   10413,     191,     192,     264,     263
   10414,     192,     193,     265,     264
   10415,     193,     194,     266,     265
   10416,     194,     195,     267,     266
   10417,     195,     196,     268,     267
   10418,     196,     197,     269,     268
   10419,     197,     198,     270,     269
   10420,     198,     199,     271,     270
   10421,     199,     200,     272,     271
   10422,     200,     201,     273,     272
   10423,     201,     202,     274,     273
   10424,     202,     203,     275,     274
   10425,     203,     204,     276,     275
   10426,     204,     205,     277,     276
   10427,     205,     206,     278,     277
   10428,     206,     207,     279,     278
   10429,     207,     208,     280,     279
   10430,     208,     209,     281,     280
   10431,     209,     210,     282,     281
   10432,     210,     211,     283,     282
   10433,     211,     212,     284,     283
   10434,     212,     213,     285,     284
   10435,     213,     214,     286,     285
   10436,     214,     215,     287,     286
   10437,     215,     216,     288,     287
   10438,     217,     218,     290,     289
   10439,     218,     219,     291,     290
   10440,     219,     220,     292,     291
   10441,     220,     221,     293,     292
   10442,     221,     222,     294,     293
   10443,     222,     223,     295,     294
   10444,     223,     224,     296,     295
   10445,     224,     225,     297,     296
   10446,     225,     226,     298,     297
   10447,     226,     227,     299,     298
   10448,     227,     228,     300,     299
   10449,     228,     229,     301,     300
   10450,     229,     230,     302,     301
   10451,     230,     231,     303,     302
   10452,     231,     232,     304,     303
   10453,     232,     233,     305,     304
   10454,     233,     234,     306,     305
   10455,     234,     235,     307,     306
   10456,     235,     236,     308,     307
   10457,     236,     237,     309,     308
   10458,     237,     238,     310,     309
   10459,     238,     239,     311,     310
   10460,     239,     240,     312,     311
   10461,     240,     241,     313,     312
   10462,     241,     242,     314,     313
   10463,     242,     243,     315,     314
   10464,     243,     244,     316,     315
   10465,     244,     245,     317,     316
   10466,     245,     246,     318,     317
   10467,     246,     247,     319,     318
   10468,     247,     248,     320,     319
   10469,     248,     249,     321,     320
   10470,     249,     250,     322,     321
   10471,     250,     251,     323,     322
   10472,     251,     252,     324,     323
   10473,     252,     253,     325,     324
   10474,     253,     254,     326,     325
   10475,     254,     255,     327,     326
   10476,     255,     256,     328,     327
   10477,     256,     257,     329,     328
   10478,     257,     258,     330,     329
   10479,     258,     259,     331,     330
   10480,     259,     260,     332,     331
   10481,     260,     261,     333,     332
   10482,     261,     262,     334,     333
   10483,     262,     263,     335,     334
   10484,     263,     264,     336,     335
   10485,     264,     265,     337,     336
   10486,     265,     266,     338,     337
   10487,     266,     267,     339,     338
   10488,     267,     268,     340,     339
   10489,     268,     269,     341,     340
   10490,     269,     270,     342,     341
   10491,     270,     271,     343,     342
   10492,     271,     272,     344,     343
   10493,     272,     273,     345,     344
   10494,     273,     274,     346,     345
   10495,     274,     275,     347,     346
   10496,     275,     276,     348,     347
   10497,     276,     277,     349,     348
   10498,     277,     278,     350,     349
   10499,     278,     279,     351,     350
   10500,     279,     280,     352,     351
   10501,     280,     281,     353,     352
   10502,     281,     282,     354,     353
   10503,     282,     283,     355,     354
   10504,     283,     284,     356,     355
   10505,     284,     285,     357,     356
   10506,     285,     286,     358,     357
   10507,     286,     287,     359,     358
   10508,     287,     288,     360,     359
   10509,     289,     290,     362,     361
   10510,     290,     291,     363,     362
   10511,     291,     292,     364,     363
   10512,     292,     293,     365,     364
   10513,     293,     294,     366,     365
   10514,     294,     295,     367,     366
   10515,     295,     296,     368,     367
   10516,     296,     297,     369,     368
   10517,     297,     298,     370,     369
   10518,     298,     299,     371,     370
   10519,     299,     300,     372,     371
   10520,     300,     301,     373,     372
   10521,     301,     302,     374,     373
   10522,     302,     303,     375,     374
   10523,     303,     304,     376,     375
   10524,     304,     305,     377,     376
   10525,     305,     306,     378,     377
   10526,     306,     307,     379,     378
   10527,     307,     308,     380,     379
   10528,     308,     309,     381,     380
   10529,     309,     310,     382,     381
   10530,     310,     311,     383,     382
   10531,     311,     312,     384,     383
   10532,     312,     313,     385,     384
   10533,     313,     314,     386,     385
   10534,     314,     315,     387,     386
   10535,     315,     316,     388,     387
   10536,     316,     317,     389,     388
   10537,     317,     318,     390,     389
   10538,     318,     319,     391,     390
   10539,     319,     320,     392,     391
   10540,     320,     321,     393,     392
   10541,     321,     322,     394,     393
   10542,     322,     323,     395,     394
   10543,     323,     324,     396,     395
   10544,     324,     325,     397,     396
   10545,     325,     326,     398,     397
   10546,     326,     327,     399,     398
   10547,     327,     328,     400,     399
   10548,     328,     329,     401,     400
   10549,     329,     330,     402,     401
   10550,     330,     331,     403,     402
   10551,     331,     332,     404,     403
   10552,     332,     333,     405,     404
   10553,     333,     334,     406,     405
   10554,     334,     335,     407,     406
   10555,     335,     336,     408,     407
   10556,     336,     337,     409,     408
   10557,     337,     338,     410,     409
   10558,     338,     339,     411,     410
   10559,     339,     340,     412,     411
   10560,     340,     341,     413,     412
   10561,     341,     342,     414,     413
   10562,     342,     343,     415,     414
   10563,     343,     344,     416,     415
   10564,     344,     345,     417,     416
   10565,     345,     346,     418,     417
   10566,     346,     347,     419,     418
   10567,     347,     348,     420,     419
   10568,     348,     349,     421,     420
   10569,     349,     350,     422,     421
   10570,     350,     351,     423,     422
   10571,     351,     352,     424,     423
   10572,     352,     353,     425,     424
   10573,     353,     354,     426,     425
   10574,     354,     355,     427,     426
   10575,     355,     356,     428,     427
   10576,     356,     357,     429,     428
   10577,     357,     358,     430,     429
   10578,     358,     359,     431,     430
   10579,     359,     360,     432,     431
   10580,     361,     362,     434,     433
   10581,     362,     363,     435,     434
   10582,     363,     364,     436,     435
   10583,     364,     365,     437,     436
   10584,     365,     366,     438,     437
   10585,     366,     367,     439,     438
   10586,     367,     368,     440,     439
   10587,     368,     369,     441,     440
   10588,     369,     370,     442,     441
   10589,     370,     371,     443,     442
   10590,     371,     372,     444,     443
   10591,     372,     373,     445,     444
   10592,     373,     374,     446,     445
   10593,     374,     375,     447,     446
   10594,     375,     376,     448,     447
   10595,     376,     377,     449,     448
   10596,     377,     378,     450,     449
   10597,     378,     379,     451,     450
   10598,     379,     380,     452,     451
   10599,     380,     381,     453,     452
   10600,     381,     382,     454,     453
   10601,     382,     383,     455,     454
   10602,     383,     384,     456,     455
   10603,     384,     385,     457,     456
   10604,     385,     386,     458,     457
   10605,     386,     387,     459,     458
   10606,     387,     388,     460,     459
   10607,     388,     389,     461,     460
   10608,     389,     390,     462,     461
   10609,     390,     391,     463,     462
   10610,     391,     392,     464,     463
   10611,     392,     393,     465,     464
   10612,     393,     394,     466,     465
   10613,     394,     395,     467,     466
   10614,     395,     396,     468,     467
   10615,     396,     397,     469,     468
   10616,     397,     398,     470,     469
   10617,     398,     399,     471,     470
   10618,     399,     400,     472,     471
   10619,     400,     401,     473,     472
   10620,     401,     402,     474,     473
   10621,     402,     403,     475,     474
   10622,     403,     404,     476,     475
   10623,     404,     405,     477,     476
   10624,     405,     406,     478,     477
   10625,     406,     407,     479,     478
   10626,     407,     408,     480,     479
   10627,     408,     409,     481,     480
   10628,     409,     410,     482,     481
   10629,     410,     411,     483,     482
   10630,     411,     412,     484,     483
   10631,     412,     413,     485,     484
   10632,     413,     414,     486,     485
   10633,     414,     415,     487,     486
   10634,     415,     416,     488,     487
   10635,     416,     417,     489,     488
   10636,     417,     418,     490,     489
   10637,     418,     419,     491,     490
   10638,     419,     420,     492,     491
   10639,     420,     421,     493,     492
   10640,     421,     422,     494,     493
   10641,     422,     423,     495,     494
   10642,     423,     424,     496,     495
   10643,     424,     425,     497,     496
   10644,     425,     426,     498,     497
   10645,     426,     427,     499,     498
   10646,     427,     428,     500,     499
   10647,     428,     429,     501,     500
   10648,     429,     430,     502,     501
   10649,     430,     431,     503,     502
   10650,     431,     432,     504,     503
   10651,     433,     434,     506,     505
   10652,     434,     435,     507,     506
   10653,     435,     436,     508,     507
   10654,     436,     437,     509,     508
   10655,     437,     438,     510,     509
   10656,     438,     439,     511,     510
   10657,     439,     440,     512,     511
   10658,     440,     441,     513,     512
   10659,     441,     442,     514,     513
   10660,     442,     443,     515,     514
   10661,     443,     444,     516,     515
   10662,     444,     445,     517,     516
   10663,     445,     446,     518,     517
   10664,     446,     447,     519,     518
   10665,     447,     448,     520,     519
   10666,     448,     449,     521,     520
   10667,     449,     450,     522,     521
   10668,     450,     451,     523,     522
   10669,     451,     452,     524,     523
   10670,     452,     453,     525,     524
   10671,     453,     454,     526,     525
   10672,     454,     455,     527,     526
   10673,     455,     456,     528,     527
   10674,     456,     457,     529,     528
   10675,     457,     458,     530,     529
   10676,     458,     459,     531,     530
   10677,     459,     460,     532,     531
   10678,     460,     461,     533,     532
   10679,     461,     462,     534,     533
   10680,     462,     463,     535,     534
   10681,     463,     464,     536,     535
   10682,     464,     465,     537,     536
   10683,     465,     466,     538,     537
   10684,     466,     467,     539,     538
   10685,     467,     468,     540,     539
   10686,     468,     469,     541,     540
   10687,     469,     470,     542,     541
   10688,     470,     471,     543,     542
   10689,     471,     472,     544,     543
   10690,     472,     473,     545,     544
   10691,     473,     474,     546,     545
   10692,     474,     475,     547,     546
   10693,     475,     476,     548,     547
   10694,     476,     477,     549,     548
   10695,     477,     478,     550,     549
   10696,     478,     479,     551,     550
   10697,     479,     480,     552,     551
   10698,     480,     481,     553,     552
   10699,     481,     482,     554,     553
   10700,     482,     483,     555,     554
   10701,     483,     484,     556,     555
   10702,     484,     485,     557,     556
   10703,     485,     486,     558,     557
   10704,     486,     487,     559,     558
   10705,     487,     488,     560,     559
   10706,     488,     489,     561,     560
   10707,     489,     490,     562,     561
   10708,     490,     491,     563,     562
   10709,     491,     492,     564,     563
   10710,     492,     493,     565,     564
   10711,     493,     494,     566,     565
   10712,     494,     495,     567,     566
   10713,     495,     496,     568,     567
   10714,     496,     497,     569,     568
   10715,     497,     498,     570,     569
   10716,     498,     499,     571,     570
   10717,     499,     500,     572,     571
   10718,     500,     501,     573,     572
   10719,     501,     502,     574,     573
   10720,     502,     503,     575,     574
   10721,     503,     504,     576,     575
   10722,     505,     506,     578,     577
   10723,     506,     507,     579,     578
   10724,     507,     508,     580,     579
   10725,     508,     509,     581,     580
   10726,     509,     510,     582,     581
   10727,     510,     511,     583,     582
   10728,     511,     512,     584,     583
   10729,     512,     513,     585,     584
   10730,     513,     514,     586,     585
   10731,     514,     515,     587,     586
   10732,     515,     516,     588,     587
   10733,     516,     517,     589,     588
   10734,     517,     518,     590,     589
   10735,     518,     519,     591,     590
   10736,     519,     520,     592,     591
   10737,     520,     521,     593,     592
   10738,     521,     522,     594,     593
   10739,     522,     523,     595,     594
   10740,     523,     524,     596,     595
   10741,     524,     525,     597,     596
   10742,     525,     526,     598,     597
   10743,     526,     527,     599,     598
   10744,     527,     528,     600,     599
   10745,     528,     529,     601,     600
   10746,     529,     530,     602,     601
   10747,     530,     531,     603,     602
   10748,     531,     532,     604,     603
   10749,     532,     533,     605,     604
   10750,     533,     534,     606,     605
   10751,     534,     535,     607,     606
   10752,     535,     536,     608,     607
   10753,     536,     537,     609,     608
   10754,     537,     538,     610,     609
   10755,     538,     539,     611,     610
   10756,     539,     540,     612,     611
   10757,     540,     541,     613,     612
   10758,     541,     542,     614,     613
   10759,     542,     543,     615,     614
   10760,     543,     544,     616,     615
   10761,     544,     545,     617,     616
   10762,     545,     546,     618,     617
   10763,     546,     547,     619,     618
   10764,     547,     548,     620,     619
   10765,     548,     549,     621,     620
   10766,     549,     550,     622,     621
   10767,     550,     551,     623,     622
   10768,     551,     552,     624,     623
   10769,     552,     553,     625,     624
   10770,     553,     554,     626,     625
   10771,     554,     555,     627,     626
   10772,     555,     556,     628,     627
   10773,     556,     557,     629,     628
   10774,     557,     558,     630,     629
   10775,     558,     559,     631,     630
   10776,     559,     560,     632,     631
   10777,     560,     561,     633,     632
   10778,     561,     562,     634,     633
   10779,     562,     563,     635,     634
   10780,     563,     564,     636,     635
   10781,     564,     565,     637,     636
   10782,     565,     566,     638,     637
   10783,     566,     567,     639,     638
   10784,     567,     568,     640,     639
   10785,     568,     569,     641,     640
   10786,     569,     570,     642,     641
   10787,     570,     571,     643,     642
   10788,     571,     572,     644,     643
   10789,     572,     573,     645,     644
   10790,     573,     574,     646,     645
   10791,     574,     575,     647,     646
   10792,     575,     576,     648,     647
   10793,     577,     578,     650,     649
   10794,     578,     579,     651,     650
   10795,     579,     580,     652,     651
   10796,     580,     581,     653,     652
   10797,     581,     582,     654,     653
   10798,     582,     583,     655,     654
   10799,     583,     584,     656,     655
   10800,     584,     585,     657,     656
   10801,     585,     586,     658,     657
   10802,     586,     587,     659,     658
   10803,     587,     588,     660,     659
   10804,     588,     589,     661,     660
   10805,     589,     590,     662,     661
   10806,     590,     591,     663,     662
   10807,     591,     592,     664,     663
   10808,     592,     593,     665,     664
   10809,     593,     594,     666,     665
   10810,     594,     595,     667,     666
   10811,     595,     596,     668,     667
   10812,     596,     597,     669,     668
   10813,     597,     598,     670,     669
   10814,     598,     599,     671,     670
   10815,     599,     600,     672,     671
   10816,     600,     601,     673,     672
   10817,     601,     602,     674,     673
   10818,     602,     603,     675,     674
   10819,     603,     604,     676,     675
   10820,     604,     605,     677,     676
   10821,     605,     606,     678,     677
   10822,     606,     607,     679,     678
   10823,     607,     608,     680,     679
   10824,     608,     609,     681,     680
   10825,     609,     610,     682,     681
   10826,     610,     611,     683,     682
   10827,     611,     612,     684,     683
   10828,     612,     613,     685,     684
   10829,     613,     614,     686,     685
   10830,     614,     615,     687,     686
   10831,     615,     616,     688,     687
   10832,     616,     617,     689,     688
   10833,     617,     618,     690,     689
   10834,     618,     619,     691,     690
   10835,     619,     620,     692,     691
   10836,     620,     621,     693,     692
   10837,     621,     622,     694,     693
   10838,     622,     623,     695,     694
   10839,     623,     624,     696,     695
   10840,     624,     625,     697,     696
   10841,     625,     626,     698,     697
   10842,     626,     627,     699,     698
   10843,     627,     628,     700,     699
   10844,     628,     629,     701,     700
   10845,     629,     630,     702,     701
   10846,     630,     631,     703,     702
   10847,     631,     632,     704,     703
   10848,     632,     633,     705,     704
   10849,     633,     634,     706,     705
   10850,     634,     635,     707,     706
   10851,     635,     636,     708,     707
   10852,     636,     637,     709,     708
   10853,     637,     638,     710,     709
   10854,     638,     639,     711,     710
   10855,     639,     640,     712,     711
   10856,     640,     641,     713,     712
   10857,     641,     642,     714,     713
   10858,     642,     643,     715,     714
   10859,     643,     644,     716,     715
   10860,     644,     645,     717,     716
   10861,     645,     646,     718,     717
   10862,     646,     647,     719,     718
   10863,     647,     648,     720,     719
   10864,     649,     650,     722,     721
   10865,     650,     651,     723,     722
   10866,     651,     652,     724,     723
   10867,     652,     653,     725,     724
   10868,     653,     654,     726,     725
   10869,     654,     655,     727,     726
   10870,     655,     656,     728,     727
   10871,     656,     657,     729,     728
   10872,     657,     658,     730,     729
   10873,     658,     659,     731,     730
   10874,     659,     660,     732,     731
   10875,     660,     661,     733,     732
   10876,     661,     662,     734,     733
   10877,     662,     663,     735,     734
   10878,     663,     664,     736,     735
   10879,     664,     665,     737,     736
   10880,     665,     666,     738,     737
   10881,     666,     667,     739,     738
   10882,     667,     668,     740,     739
   10883,     668,     669,     741,     740
   10884,     669,     670,     742,     741
   10885,     670,     671,     743,     742
   10886,     671,     672,     744,     743
   10887,     672,     673,     745,     744
   10888,     673,     674,     746,     745
   10889,     674,     675,     747,     746
   10890,     675,     676,     748,     747
   10891,     676,     677,     749,     748
   10892,     677,     678,     750,     749
   10893,     678,     679,     751,     750
   10894,     679,     680,     752,     751
   10895,     680,     681,     753,     752
   10896,     681,     682,     754,     753
   10897,     682,     683,     755,     754
   10898,     683,     684,     756,     755
   10899,     684,     685,     757,     756
   10900,     685,     686,     758,     757
   10901,     686,     687,     759,     758
   10902,     687,     688,     760,     759
   10903,     688,     689,     761,     760
   10904,     689,     690,     762,     761
   10905,     690,     691,     763,     762
   10906,     691,     692,     764,     763
   10907,     692,     693,     765,     764
   10908,     693,     694,     766,     765
   10909,     694,     695,     767,     766
   10910,     695,     696,     768,     767
   10911,     696,     697,     769,     768
   10912,     697,     698,     770,     769
   10913,     698,     699,     771,     770
   10914,     699,     700,     772,     771
   10915,     700,     701,     773,     772
   10916,     701,     702,     774,     773
   10917,     702,     703,     775,     774
   10918,     703,     704,     776,     775
   10919,     704,     705,     777,     776
   10920,     705,     706,     778,     777
   10921,     706,     707,     779,     778
   10922,     707,     708,     780,     779
   10923,     708,     709,     781,     780
   10924,     709,     710,     782,     781
   10925,     710,     711,     783,     782
   10926,     711,     712,     784,     783
   10927,     712,     713,     785,     784
   10928,     713,     714,     786,     785
   10929,     714,     715,     787,     786
   10930,     715,     716,     788,     787
   10931,     716,     717,     789,     788
   10932,     717,     718,     790,     789
   10933,     718,     719,     791,     790
   10934,     719,     720,     792,     791
   10935,     721,     722,     794,     793
   10936,     722,     723,     795,     794
   10937,     723,     724,     796,     795
   10938,     724,     725,     797,     796
   10939,     725,     726,     798,     797
   10940,     726,     727,     799,     798
   10941,     727,     728,     800,     799
   10942,     728,     729,     801,     800
   10943,     729,     730,     802,     801
   10944,     730,     731,     803,     802
   10945,     731,     732,     804,     803
   10946,     732,     733,     805,     804
   10947,     733,     734,     806,     805
   10948,     734,     735,     807,     806
   10949,     735,     736,     808,     807
   10950,     736,     737,     809,     808
   10951,     737,     738,     810,     809
   10952,     738,     739,     811,     810
   10953,     739,     740,     812,     811
   10954,     740,     741,     813,     812
   10955,     741,     742,     814,     813
   10956,     742,     743,     815,     814
   10957,     743,     744,     816,     815
   10958,     744,     745,     817,     816
   10959,     745,     746,     818,     817
   10960,     746,     747,     819,     818
   10961,     747,     748,     820,     819
   10962,     748,     749,     821,     820
   10963,     749,     750,     822,     821
   10964,     750,     751,     823,     822
   10965,     751,     752,     824,     823
   10966,     752,     753,     825,     824
   10967,     753,     754,     826,     825
   10968,     754,     755,     827,     826
   10969,     755,     756,     828,     827
   10970,     756,     757,     829,     828
   10971,     757,     758,     830,     829
   10972,     758,     759,     831,     830
   10973,     759,     760,     832,     831
   10974,     760,     761,     833,     832
   10975,     761,     762,     834,     833
   10976,     762,     763,     835,     834
   10977,     763,     764,     836,     835
   10978,     764,     765,     837,     836
   10979,     765,     766,     838,     837
   10980,     766,     767,     839,     838
   10981,     767,     768,     840,     839
   10982,     768,     769,     841,     840
   10983,     769,     770,     842,     841
   10984,     770,     771,     843,     842
   10985,     771,     772,     844,     843
   10986,     772,     773,     845,     844
   10987,     773,     774,     846,     845
   10988,     774,     775,     847,     846
   10989,     775,     776,     848,     847
   10990,     776,     777,     849,     848
   10991,     777,     778,     850,     849
   10992,     778,     779,     851,     850
   10993,     779,     780,     852,     851
   10994,     780,     781,     853,     852
   10995,     781,     782,     854,     853
   10996,     782,     783,     855,     854
   10997,     783,     784,     856,     855
   10998,     784,     785,     857,     856
   10999,     785,     786,     858,     857
   11000,     786,     787,     859,     858
   11001,     787,     788,     860,     859
   11002,     788,     789,     861,     860
   11003,     789,     790,     862,     861
   11004,     790,     791,     863,     862
   11005,     791,     792,     864,     863
   11006,     793,     794,     866,     865
   11007,     794,     795,     867,     866
   11008,     795,     796,     868,     867
   11009,     796,     797,     869,     868
   11010,     797,     798,     870,     869
   11011,     798,     799,     871,     870
   11012,     799,     800,     872,     871
   11013,     800,     801,     873,     872
   11014,     801,     802,     874,     873
   11015,     802,     803,     875,     874
   11016,     803,     804,     876,     875
   11017,     804,     805,     877,     876
   11018,     805,     806,     878,     877
   11019,     806,     807,     879,     878
   11020,     807,     808,     880,     879
   11021,     808,     809,     881,     880
   11022,     809,     810,     882,     881
   11023,     810,     811,     883,     882
   11024,     811,     812,     884,     883
   11025,     812,     813,     885,     884
   11026,     813,     814,     886,     885
   11027,     814,     815,     887,     886
   11028,     815,     816,     888,     887
   11029,     816,     817,     889,     888
   11030,     817,     818,     890,     889
   11031,     818,     819,     891,     890
   11032,     819,     820,     892,     891
   11033,     820,     821,     893,     892
   11034,     821,     822,     894,     893
   11035,     822,     823,     895,     894
   11036,     823,     824,     896,     895
   11037,     824,     825,     897,     896
   11038,     825,     826,     898,     897
   11039,     826,     827,     899,     898
   11040,     827,     828,     900,     899
   11041,     828,     829,     901,     900
   11042,     829,     830,     902,     901
   11043,     830,     831,     903,     902
   11044,     831,     832,     904,     903
   11045,     832,     833,     905,     904
   11046,     833,     834,     906,     905
   11047,     834,     835,     907,     906
   11048,     835,     836,     908,     907
   11049,     836,     837,     909,     908
   11050,     837,     838,     910,     909
   11051,     838,     839,     911,     910
   11052,     839,     840,     912,     911
   11053,     840,     841,     913,     912
   11054,     841,     842,     914,     913
   11055,     842,     843,     915,     914
   11056,     843,     844,     916,     915
   11057,     844,     845,     917,     916
   11058,     845,     846,     918,     917
   11059,     846,     847,     919,     918
   11060,     847,     848,     920,     919
   11061,     848,     849,     921,     920
   11062,     849,     850,     922,     921
   11063,     850,     851,     923,     922
   11064,     851,     852,     924,     923
   11065,     852,     853,     925,     924
   11066,     853,     854,     926,     925
   11067,     854,     855,     927,     926
   11068,     855,     856,     928,     927
   11069,     856,     857,     929,     928
   11070,     857,     858,     930,     929
   11071,     858,     859,     931,     930
   11072,     859,     860,     932,     931
   11073,     860,     861,     933,     932
   11074,     861,     862,     934,     933
   11075,     862,     863,     935,     934
   11076,     863,     864,     936,     935
   11077,     865,     866,     938,     937
   11078,     866,     867,     939,     938
   11079,     867,     868,     940,     939
   11080,     868,     869,     941,     940
   11081,     869,     870,     942,     941
   11082,     870,     871,     943,     942
   11083,     871,     872,     944,     943
   11084,     872,     873,     945,     944
   11085,     873,     874,     946,     945
   11086,     874,     875,     947,     946
   11087,     875,     876,     948,     947
   11088,     876,     877,     949,     948
   11089,     877,     878,     950,     949
   11090,     878,     879,     951,     950
   11091,     879,     880,     952,     951
   11092,     880,     881,     953,     952
   11093,     881,     882,     954,     953
   11094,     882,     883,     955,     954
   11095,     883,     884,     956,     955
   11096,     884,     885,     957,     956
   11097,     885,     886,     958,     957
   11098,     886,     887,     959,     958
   11099,     887,     888,     960,     959
   11100,     888,     889,     961,     960
   11101,     889,     890,     962,     961
   11102,     890,     891,     963,     962
   11103,     891,     892,     964,     963
   11104,     892,     893,     965,     964
   11105,     893,     894,     966,     965
   11106,     894,     895,     967,     966
   11107,     895,     896,     968,     967
   11108,     896,     897,     969,     968
   11109,     897,     898,     970,     969
   11110,     898,     899,     971,     970
   11111,     899,     900,     972,     971
   11112,     900,     901,     973,     972
   11113,     901,     902,     974,     973
   11114,     902,     903,     975,     974
   11115,     903,     904,     976,     975
   11116,     904,     905,     977,     976
   11117,     905,     906,     978,     977
   11118,     906,     907,     979,     978
   11119,     907,     908,     980,     979
   11120,     908,     909,     981,     980
   11121,     909,     910,     982,     981
   11122,     910,     911,     983,     982
   11123,     911,     912,     984,     983
   11124,     912,     913,     985,     984
   11125,     913,     914,     986,     985
   11126,     914,     915,     987,     986
   11127,     915,     916,     988,     987
   11128,     916,     917,     989,     988
   11129,     917,     918,     990,     989
   11130,     918,     919,     991,     990
   11131,     919,     920,     992,     991
   11132,     920,     921,     993,     992
   11133,     921,     922,     994,     993
   11134,     922,     923,     995,     994
   11135,     923,     924,     996,     995
   11136,     924,     925,     997,     996
   11137,     925,     926,     998,     997
   11138,     926,     927,     999,     998
   11139,     927,     928,    1000,     999
   11140,     928,     929,    1001,    1000
   11141,     929,     930,    1002,    1001
   11142,     930,     931,    1003,    1002
   11143,     931,     932,    1004,    1003
   11144,     932,     933,    1005,    1004
   11145,     933,     934,    1006,    1005
   11146,     934,     935,    1007,    1006
   11147,     935,     936,    1008,    1007
   11148,     937,     938,    1010,    1009
   11149,     938,     939,    1011,    1010
   11150,     939,     940,    1012,    1011
   11151,     940,     941,    1013,    1012
   11152,     941,     942,    1014,    1013
   11153,     942,     943,    1015,    1014
   11154,     943,     944,    1016,    1015
   11155,     944,     945,    1017,    1016
   11156,     945,     946,    1018,    1017
   11157,     946,     947,    1019,    1018
   11158,     947,     948,    1020,    1019
   11159,     948,     949,    1021,    1020
   11160,     949,     950,    1022,    1021
   11161,     950,     951,    1023,    1022
   11162,     951,     952,    1024,    1023
   11163,     952,     953,    1025,    1024
   11164,     953,     954,    1026,    1025
   11165,     954,     955,    1027,    1026
   11166,     955,     956,    1028,    1027
   11167,     956,     957,    1029,    1028
   11168,     957,     958,    1030,    1029
   11169,     958,     959,    1031,    1030
   11170,     959,     960,    1032,    1031
   11171,     960,     961,    1033,    1032
   11172,     961,     962,    1034,    1033
   11173,     962,     963,    1035,    1034
   11174,     963,     964,    1036,    1035
   11175,     964,     965,    1037,    1036
   11176,     965,     966,    1038,    1037
   11177,     966,     967,    1039,    1038
   11178,     967,     968,    1040,    1039
   11179,     968,     969,    1041,    1040
   11180,     969,     970,    1042,    1041
   11181,     970,     971,    1043,    1042
   11182,     971,     972,    1044,    1043
   11183,     972,     973,    1045,    1044
   11184,     973,     974,    1046,    1045
   11185,     974,     975,    1047,    1046
   11186,     975,     976,    1048,    1047
   11187,     976,     977,    1049,    1048
   11188,     977,     978,    1050,    1049
   11189,     978,     979,    1051,    1050
   11190,     979,     980,    1052,    1051
   11191,     980,     981,    1053,    1052
   11192,     981,     982,    1054,    1053
   11193,     982,     983,    1055,    1054
   11194,     983,     984,    1056,    1055
   11195,     984,     985,    1057,    1056
   11196,     985,     986,    1058,    1057
   11197,     986,     987,    1059,    1058
   11198,     987,     988,    1060,    1059
   11199,     988,     989,    1061,    1060
   11200,     989,     990,    1062,    1061
   11201,     990,     991,    1063,    1062
   11202,     991,     992,    1064,    1063
   11203,     992,     993,    1065,    1064
   11204,     993,     994,    1066,    1065
   11205,     994,     995,    1067,    1066
   11206,     995,     996,    1068,    1067
   11207,     996,     997,    1069,    1068
   11208,     997,     998,    1070,    1069
   11209,     998,     999,    1071,    1070
   11210,     999,    1000,    1072,    1071
   11211,    1000,    1001,    1073,    1072
   11212,    1001,    1002,    1074,    1073
   11213,    1002,    1003,    1075,    1074
   11214,    1003,    1004,    1076,    1075
   11215,    1004,    1005,    1077,    1076
   11216,    1005,    1006,    1078,    1077
   11217,    1006,    1007,    1079,    1078
   11218,    1007,    1008,    1080,    1079
   11219,    1009,    1010,    1082,    1081
   11220,    1010,    1011,    1083,    1082
   11221,    1011,    1012,    1084,    1083
   11222,    1012,    1013,    1085,    1084
   11223,    1013,    1014,    1086,    1085
   11224,    1014,    1015,    1087,    1086
   11225,    1015,    1016,    1088,    1087
   11226,    1016,    1017,    1089,    1088
   11227,    1017,    1018,    1090,    1089
   11228,    1018,    1019,    1091,    1090
   11229,    1019,    1020,    1092,    1091
   11230,    1020,    1021,    1093,    1092
   11231,    1021,    1022,    1094,    1093
   11232,    1022,    1023,    1095,    1094
   11233,    1023,    1024,    1096,    1095
   11234,    1024,    1025,    1097,    1096
   11235,    1025,    1026,    1098,    1097
   11236,    1026,    1027,    1099,    1098
   11237,    1027,    1028,    1100,    1099
   11238,    1028,    1029,    1101,    1100
   11239,    1029,    1030,    1102,    1101
   11240,    1030,    1031,    1103,    1102
   11241,    1031,    1032,    1104,    1103
   11242,    1032,    1033,    1105,    1104
   11243,    1033,    1034,    1106,    1105
   11244,    1034,    1035,    1107,    1106
   11245,    1035,    1036,    1108,    1107
   11246,    1036,    1037,    1109,    1108
   11247,    1037,    1038,    1110,    1109
   11248,    1038,    1039,    1111,    1110
   11249,    1039,    1040,    1112,    1111
   11250,    1040,    1041,    1113,    1112
   11251,    1041,    1042,    1114,    1113
   11252,    1042,    1043,    1115,    1114
   11253,    1043,    1044,    1116,    1115
   11254,    1044,    1045,    1117,    1116
   11255,    1045,    1046,    1118,    1117
   11256,    1046,    1047,    1119,    1118
   11257,    1047,    1048,    1120,    1119
   11258,    1048,    1049,    1121,    1120
   11259,    1049,    1050,    1122,    1121
   11260,    1050,    1051,    1123,    1122
   11261,    1051,    1052,    1124,    1123
   11262,    1052,    1053,    1125,    1124
   11263,    1053,    1054,    1126,    1125
   11264,    1054,    1055,    1127,    1126
   11265,    1055,    1056,    1128,    1127
   11266,    1056,    1057,    1129,    1128
   11267,    1057,    1058,    1130,    1129
   11268,    1058,    1059,    1131,    1130
   11269,    1059,    1060,    1132,    1131
   11270,    1060,    1061,    1133,    1132
   11271,    1061,    1062,    1134,    1133
   11272,    1062,    1063,    1135,    1134
   11273,    1063,    1064,    1136,    1135
   11274,    1064,    1065,    1137,    1136
   11275,    1065,    1066,    1138,    1137
   11276,    1066,    1067,    1139,    1138
   11277,    1067,    1068,    1140,    1139
   11278,    1068,    1069,    1141,    1140
   11279,    1069,    1070,    1142,    1141
   11280,    1070,    1071,    1143,    1142
   11281,    1071,    1072,    1144,    1143
   11282,    1072,    1073,    1145,    1144
   11283,    1073,    1074,    1146,    1145
   11284,    1074,    1075,    1147,    1146
   11285,    1075,    1076,    1148,    1147
   11286,    1076,    1077,    1149,    1148
   11287,    1077,    1078,    1150,    1149
   11288,    1078,    1079,    1151,    1150
   11289,    1079,    1080,    1152,    1151
   11290,    1081,    1082,    1154,    1153
   11291,    1082,    1083,    1155,    1154
   11292,    1083,    1084,    1156,    1155
   11293,    1084,    1085,    1157,    1156
   11294,    1085,    1086,    1158,    1157
   11295,    1086,    1087,    1159,    1158
   11296,    1087,    1088,    1160,    1159
   11297,    1088,    1089,    1161,    1160
   11298,    1089,    1090,    1162,    1161
   11299,    1090,    1091,    1163,    1162
   11300,    1091,    1092,    1164,    1163
   11301,    1092,    1093,    1165,    1164
   11302,    1093,    1094,    1166,    1165
   11303,    1094,    1095,    1167,    1166
   11304,    1095,    1096,    1168,    1167
   11305,    1096,    1097,    1169,    1168
   11306,    1097,    1098,    1170,    1169
   11307,    1098,    1099,    1171,    1170
   11308,    1099,    1100,    1172,    1171
   11309,    1100,    1101,    1173,    1172
   11310,    1101,    1102,    1174,    1173
   11311,    1102,    1103,    1175,    1174
   11312,    1103,    1104,    1176,    1175
   11313,    1104,    1105,    1177,    1176
   11314,    1105,    1106,    1178,    1177
   11315,    1106,    1107,    1179,    1178
   11316,    1107,    1108,    1180,    1179
   11317,    1108,    1109,    1181,    1180
   11318,    1109,    1110,    1182,    1181
   11319,    1110,    1111,    1183,    1182
   11320,    1111,    1112,    1184,    1183
   11321,    1112,    1113,    1185,    1184
   11322,    1113,    1114,    1186,    1185
   11323,    1114,    1115,    1187,    1186
   11324,    1115,    1116,    1188,    1187
   11325,    1116,    1117,    1189,    1188
   11326,    1117,    1118,    1190,    1189
   11327,    1118,    1119,    1191,    1190
   11328,    1119,    1120,    1192,    1191
   11329,    1120,    1121,    1193,    1192
   11330,    1121,    1122,    1194,    1193
   11331,    1122,    1123,    1195,    1194
   11332,    1123,    1124,    1196,    1195
   11333,    1124,    1125,    1197,    1196
   11334,    1125,    1126,    1198,    1197
   11335,    1126,    1127,    1199,    1198
   11336,    1127,    1128,    1200,    1199
   11337,    1128,    1129,    1201,    1200
   11338,    1129,    1130,    1202,    1201
   11339,    1130,    1131,    1203,    1202
   11340,    1131,    1132,    1204,    1203
   11341,    1132,    1133,    1205,    1204
   11342,    1133,    1134,    1206,    1205
   11343,    1134,    1135,    1207,    1206
   11344,    1135,    1136,    1208,    1207
   11345,    1136,    1137,    1209,    1208
   11346,    1137,    1138,    1210,    1209
   11347,    1138,    1139,    1211,    1210
   11348,    1139,    1140,    1212,    1211
   11349,    1140,    1141,    1213,    1212
   11350,    1141,    1142,    1214,    1213
   11351,    1142,    1143,    1215,    1214
   11352,    1143,    1144,    1216,    1215
   11353,    1144,    1145,    1217,    1216
   11354,    1145,    1146,    1218,    1217
   11355,    1146,    1147,    1219,    1218
   11356,    1147,    1148,    1220,    1219
   11357,    1148,    1149,    1221,    1220
   11358,    1149,    1150,    1222,    1221
   11359,    1150,    1151,    1223,    1222
   11360,    1151,    1152,    1224,    1223
   11361,    1153,    1154,    1226,    1225
   11362,    1154,    1155,    1227,    1226
   11363,    1155,    1156,    1228,    1227
   11364,    1156,    1157,    1229,    1228
   11365,    1157,    1158,    1230,    1229
   11366,    1158,    1159,    1231,    1230
   11367,    1159,    1160,    1232,    1231
   11368,    1160,    1161,    1233,    1232
   11369,    1161,    1162,    1234,    1233
   11370,    1162,    1163,    1235,    1234
   11371,    1163,    1164,    1236,    1235
   11372,    1164,    1165,    1237,    1236
   11373,    1165,    1166,    1238,    1237
   11374,    1166,    1167,    1239,    1238
   11375,    1167,    1168,    1240,    1239
   11376,    1168,    1169,    1241,    1240
   11377,    1169,    1170,    1242,    1241
   11378,    1170,    1171,    1243,    1242
   11379,    1171,    1172,    1244,    1243
   11380,    1172,    1173,    1245,    1244
   11381,    1173,    1174,    1246,    1245
   11382,    1174,    1175,    1247,    1246
   11383,    1175,    1176,    1248,    1247
   11384,    1176,    1177,    1249,    1248
   11385,    1177,    1178,    1250,    1249
   11386,    1178,    1179,    1251,    1250
   11387,    1179,    1180,    1252,    1251
   11388,    1180,    1181,    1253,    1252
   11389,    1181,    1182,    1254,    1253
   11390,    1182,    1183,    1255,    1254
   11391,    1183,    1184,    1256,    1255
   11392,    1184,    1185,    1257,    1256
   11393,    1185,    1186,    1258,    1257
   11394,    1186,    1187,    1259,    1258
   11395,    1187,    1188,    1260,    1259
   11396,    1188,    1189,    1261,    1260
   11397,    1189,    1190,    1262,    1261
   11398,    1190,    1191,    1263,    1262
   11399,    1191,    1192,    1264,    1263
   11400,    1192,    1193,    1265,    1264
   11401,    1193,    1194,    1266,    1265
   11402,    1194,    1195,    1267,    1266
   11403,    1195,    1196,    1268,    1267
   11404,    1196,    1197,    1269,    1268
   11405,    1197,    1198,    1270,    1269
   11406,    1198,    1199,    1271,    1270
   11407,    1199,    1200,    1272,    1271
   11408,    1200,    1201,    1273,    1272
   11409,    1201,    1202,    1274,    1273
   11410,    1202,    1203,    1275,    1274
   11411,    1203,    1204,    1276,    1275
   11412,    1204,    1205,    1277,    1276
   11413,    1205,    1206,    1278,    1277
   11414,    1206,    1207,    1279,    1278
   11415,    1207,    1208,    1280,    1279
   11416,    1208,    1209,    1281,    1280
   11417,    1209,    1210,    1282,    1281
   11418,    1210,    1211,    1283,    1282
   11419,    1211,    1212,    1284,    1283
   11420,    1212,    1213,    1285,    1284
   11421,    1213,    1214,    1286,    1285
   11422,    1214,    1215,    1287,    1286
   11423,    1215,    1216,    1288,    1287
   11424,    1216,    1217,    1289,    1288
   11425,    1217,    1218,    1290,    1289
   11426,    1218,    1219,    1291,    1290
   11427,    1219,    1220,    1292,    1291
   11428,    1220,    1221,    1293,    1292
   11429,    1221,    1222,    1294,    1293
   11430,    1222,    1223,    1295,    1294
   11431,    1223,    1224,    1296,    1295
   11432,    1225,    1226,    1298,    1297
   11433,    1226,    1227,    1299,    1298
   11434,    1227,    1228,    1300,    1299
   11435,    1228,    1229,    1301,    1300
   11436,    1229,    1230,    1302,    1301
   11437,    1230,    1231,    1303,    1302
   11438,    1231,    1232,    1304,    1303
   11439,    1232,    1233,    1305,    1304
   11440,    1233,    1234,    1306,    1305
   11441,    1234,    1235,    1307,    1306
   11442,    1235,    1236,    1308,    1307
   11443,    1236,    1237,    1309,    1308
   11444,    1237,    1238,    1310,    1309
   11445,    1238,    1239,    1311,    1310
   11446,    1239,    1240,    1312,    1311
   11447,    1240,    1241,    1313,    1312
   11448,    1241,    1242,    1314,    1313
   11449,    1242,    1243,    1315,    1314
   11450,    1243,    1244,    1316,    1315
   11451,    1244,    1245,    1317,    1316
   11452,    1245,    1246,    1318,    1317
   11453,    1246,    1247,    1319,    1318
   11454,    1247,    1248,    1320,    1319
   11455,    1248,    1249,    1321,    1320
   11456,    1249,    1250,    1322,    1321
   11457,    1250,    1251,    1323,    1322
   11458,    1251,    1252,    1324,    1323
   11459,    1252,    1253,    1325,    1324
   11460,    1253,    1254,    1326,    1325
   11461,    1254,    1255,    1327,    1326
   11462,    1255,    1256,    1328,    1327
   11463,    1256,    1257,    1329,    1328
   11464,    1257,    1258,    1330,    1329
   11465,    1258,    1259,    1331,    1330
   11466,    1259,    1260,    1332,    1331
   11467,    1260,    1261,    1333,    1332
   11468,    1261,    1262,    1334,    1333
   11469,    1262,    1263,    1335,    1334
   11470,    1263,    1264,    1336,    1335
   11471,    1264,    1265,    1337,    1336
   11472,    1265,    1266,    1338,    1337
   11473,    1266,    1267,    1339,    1338
   11474,    1267,    1268,    1340,    1339
   11475,    1268,    1269,    1341,    1340
   11476,    1269,    1270,    1342,    1341
   11477,    1270,    1271,    1343,    1342
   11478,    1271,    1272,    1344,    1343
   11479,    1272,    1273,    1345,    1344
   11480,    1273,    1274,    1346,    1345
   11481,    1274,    1275,    1347,    1346
   11482,    1275,    1276,    1348,    1347
   11483,    1276,    1277,    1349,    1348
   11484,    1277,    1278,    1350,    1349
   11485,    1278,    1279,    1351,    1350
   11486,    1279,    1280,    1352,    1351
   11487,    1280,    1281,    1353,    1352
   11488,    1281,    1282,    1354,    1353
   11489,    1282,    1283,    1355,    1354
   11490,    1283,    1284,    1356,    1355
   11491,    1284,    1285,    1357,    1356
   11492,    1285,    1286,    1358,    1357
   11493,    1286,    1287,    1359,    1358
   11494,    1287,    1288,    1360,    1359
   11495,    1288,    1289,    1361,    1360
   11496,    1289,    1290,    1362,    1361
   11497,    1290,    1291,    1363,    1362
   11498,    1291,    1292,    1364,    1363
   11499,    1292,    1293,    1365,    1364
   11500,    1293,    1294,    1366,    1365
   11501,    1294,    1295,    1367,    1366
   11502,    1295,    1296,    1368,    1367
   11503,    1297,    1298,    1370,    1369
   11504,    1298,    1299,    1371,    1370
   11505,    1299,    1300,    1372,    1371
   11506,    1300,    1301,    1373,    1372
   11507,    1301,    1302,    1374,    1373
   11508,    1302,    1303,    1375,    1374
   11509,    1303,    1304,    1376,    1375
   11510,    1304,    1305,    1377,    1376
   11511,    1305,    1306,    1378,    1377
   11512,    1306,    1307,    1379,    1378
   11513,    1307,    1308,    1380,    1379
   11514,    1308,    1309,    1381,    1380
   11515,    1309,    1310,    1382,    1381
   11516,    1310,    1311,    1383,    1382
   11517,    1311,    1312,    1384,    1383
   11518,    1312,    1313,    1385,    1384
   11519,    1313,    1314,    1386,    1385
   11520,    1314,    1315,    1387,    1386
   11521,    1315,    1316,    1388,    1387
   11522,    1316,    1317,    1389,    1388
   11523,    1317,    1318,    1390,    1389
   11524,    1318,    1319,    1391,    1390
   11525,    1319,    1320,    1392,    1391
   11526,    1320,    1321,    1393,    1392
   11527,    1321,    1322,    1394,    1393
   11528,    1322,    1323,    1395,    1394
   11529,    1323,    1324,    1396,    1395
   11530,    1324,    1325,    1397,    1396
   11531,    1325,    1326,    1398,    1397
   11532,    1326,    1327,    1399,    1398
   11533,    1327,    1328,    1400,    1399
   11534,    1328,    1329,    1401,    1400
   11535,    1329,    1330,    1402,    1401
   11536,    1330,    1331,    1403,    1402
   11537,    1331,    1332,    1404,    1403
   11538,    1332,    1333,    1405,    1404
   11539,    1333,    1334,    1406,    1405
   11540,    1334,    1335,    1407,    1406
   11541,    1335,    1336,    1408,    1407
   11542,    1336,    1337,    1409,    1408
   11543,    1337,    1338,    1410,    1409
   11544,    1338,    1339,    1411,    1410
   11545,    1339,    1340,    1412,    1411
   11546,    1340,    1341,    1413,    1412
   11547,    1341,    1342,    1414,    1413
   11548,    1342,    1343,    1415,    1414
   11549,    1343,    1344,    1416,    1415
   11550,    1344,    1345,    1417,    1416
   11551,    1345,    1346,    1418,    1417
   11552,    1346,    1347,    1419,    1418
   11553,    1347,    1348,    1420,    1419
   11554,    1348,    1349,    1421,    1420
   11555,    1349,    1350,    1422,    1421
   11556,    1350,    1351,    1423,    1422
   11557,    1351,    1352,    1424,    1423
   11558,    1352,    1353,    1425,    1424
   11559,    1353,    1354,    1426,    1425
   11560,    1354,    1355,    1427,    1426
   11561,    1355,    1356,    1428,    1427
   11562,    1356,    1357,    1429,    1428
   11563,    1357,    1358,    1430,    1429
   11564,    1358,    1359,    1431,    1430
   11565,    1359,    1360,    1432,    1431
   11566,    1360,    1361,    1433,    1432
   11567,    1361,    1362,    1434,    1433
   11568,    1362,    1363,    1435,    1434
   11569,    1363,    1364,    1436,    1435
   11570,    1364,    1365,    1437,    1436
   11571,    1365,    1366,    1438,    1437
   11572,    1366,    1367,    1439,    1438
   11573,    1367,    1368,    1440,    1439
   11574,    1369,    1370,    1442,    1441
   11575,    1370,    1371,    1443,    1442
   11576,    1371,    1372,    1444,    1443
   11577,    1372,    1373,    1445,    1444
   11578,    1373,    1374,    1446,    1445
   11579,    1374,    1375,    1447,    1446
   11580,    1375,    1376,    1448,    1447
   11581,    1376,    1377,    1449,    1448
   11582,    1377,    1378,    1450,    1449
   11583,    1378,    1379,    1451,    1450
   11584,    1379,    1380,    1452,    1451
   11585,    1380,    1381,    1453,    1452
   11586,    1381,    1382,    1454,    1453
   11587,    1382,    1383,    1455,    1454
   11588,    1383,    1384,    1456,    1455
   11589,    1384,    1385,    1457,    1456
   11590,    1385,    1386,    1458,    1457
   11591,    1386,    1387,    1459,    1458
   11592,    1387,    1388,    1460,    1459
   11593,    1388,    1389,    1461,    1460
   11594,    1389,    1390,    1462,    1461
   11595,    1390,    1391,    1463,    1462
   11596,    1391,    1392,    1464,    1463
   11597,    1392,    1393,    1465,    1464
   11598,    1393,    1394,    1466,    1465
   11599,    1394,    1395,    1467,    1466
   11600,    1395,    1396,    1468,    1467
   11601,    1396,    1397,    1469,    1468
   11602,    1397,    1398,    1470,    1469
   11603,    1398,    1399,    1471,    1470
   11604,    1399,    1400,    1472,    1471
   11605,    1400,    1401,    1473,    1472
   11606,    1401,    1402,    1474,    1473
   11607,    1402,    1403,    1475,    1474
   11608,    1403,    1404,    1476,    1475
   11609,    1404,    1405,    1477,    1476
   11610,    1405,    1406,    1478,    1477
   11611,    1406,    1407,    1479,    1478
   11612,    1407,    1408,    1480,    1479
   11613,    1408,    1409,    1481,    1480
   11614,    1409,    1410,    1482,    1481
   11615,    1410,    1411,    1483,    1482
   11616,    1411,    1412,    1484,    1483
   11617,    1412,    1413,    1485,    1484
   11618,    1413,    1414,    1486,    1485
   11619,    1414,    1415,    1487,    1486
   11620,    1415,    1416,    1488,    1487
   11621,    1416,    1417,    1489,    1488
   11622,    1417,    1418,    1490,    1489
   11623,    1418,    1419,    1491,    1490
   11624,    1419,    1420,    1492,    1491
   11625,    1420,    1421,    1493,    1492
   11626,    1421,    1422,    1494,    1493
   11627,    1422,    1423,    1495,    1494
   11628,    1423,    1424,    1496,    1495
   11629,    1424,    1425,    1497,    1496
   11630,    1425,    1426,    1498,    1497
   11631,    1426,    1427,    1499,    1498
   11632,    1427,    1428,    1500,    1499
   11633,    1428,    1429,    1501,    1500
   11634,    1429,    1430,    1502,    1501
   11635,    1430,    1431,    1503,    1502
   11636,    1431,    1432,    1504,    1503
   11637,    1432,    1433,    1505,    1504
   11638,    1433,    1434,    1506,    1505
   11639,    1434,    1435,    1507,    1506
   11640,    1435,    1436,    1508,    1507
   11641,    1436,    1437,    1509,    1508
   11642,    1437,    1438,    1510,    1509
   11643,    1438,    1439,    1511,    1510
   11644,    1439,    1440,    1512,    1511
   11645,    1441,    1442,    1514,    1513
   11646,    1442,    1443,    1515,    1514
   11647,    1443,    1444,    1516,    1515
   11648,    1444,    1445,    1517,    1516
   11649,    1445,    1446,    1518,    1517
   11650,    1446,    1447,    1519,    1518
   11651,    1447,    1448,    1520,    1519
   11652,    1448,    1449,    1521,    1520
   11653,    1449,    1450,    1522,    1521
   11654,    1450,    1451,    1523,    1522
   11655,    1451,    1452,    1524,    1523
   11656,    1452,    1453,    1525,    1524
   11657,    1453,    1454,    1526,    1525
   11658,    1454,    1455,    1527,    1526
   11659,    1455,    1456,    1528,    1527
   11660,    1456,    1457,    1529,    1528
   11661,    1457,    1458,    1530,    1529
   11662,    1458,    1459,    1531,    1530
   11663,    1459,    1460,    1532,    1531
   11664,    1460,    1461,    1533,    1532
   11665,    1461,    1462,    1534,    1533
   11666,    1462,    1463,    1535,    1534
   11667,    1463,    1464,    1536,    1535
   11668,    1464,    1465,    1537,    1536
   11669,    1465,    1466,    1538,    1537
   11670,    1466,    1467,    1539,    1538
   11671,    1467,    1468,    1540,    1539
   11672,    1468,    1469,    1541,    1540
   11673,    1469,    1470,    1542,    1541
   11674,    1470,    1471,    1543,    1542
   11675,    1471,    1472,    1544,    1543
   11676,    1472,    1473,    1545,    1544
   11677,    1473,    1474,    1546,    1545
   11678,    1474,    1475,    1547,    1546
   11679,    1475,    1476,    1548,    1547
   11680,    1476,    1477,    1549,    1548
   11681,    1477,    1478,    1550,    1549
   11682,    1478,    1479,    1551,    1550
   11683,    1479,    1480,    1552,    1551
   11684,    1480,    1481,    1553,    1552
   11685,    1481,    1482,    1554,    1553
   11686,    1482,    1483,    1555,    1554
   11687,    1483,    1484,    1556,    1555
   11688,    1484,    1485,    1557,    1556
   11689,    1485,    1486,    1558,    1557
   11690,    1486,    1487,    1559,    1558
   11691,    1487,    1488,    1560,    1559
   11692,    1488,    1489,    1561,    1560
   11693,    1489,    1490,    1562,    1561
   11694,    1490,    1491,    1563,    1562
   11695,    1491,    1492,    1564,    1563
   11696,    1492,    1493,    1565,    1564
   11697,    1493,    1494,    1566,    1565
   11698,    1494,    1495,    1567,    1566
   11699,    1495,    1496,    1568,    1567
   11700,    1496,    1497,    1569,    1568
   11701,    1497,    1498,    1570,    1569
   11702,    1498,    1499,    1571,    1570
   11703,    1499,    1500,    1572,    1571
   11704,    1500,    1501,    1573,    1572
   11705,    1501,    1502,    1574,    1573
   11706,    1502,    1503,    1575,    1574
   11707,    1503,    1504,    1576,    1575
   11708,    1504,    1505,    1577,    1576
   11709,    1505,    1506,    1578,    1577
   11710,    1506,    1507,    1579,    1578
   11711,    1507,    1508,    1580,    1579
   11712,    1508,    1509,    1581,    1580
   11713,    1509,    1510,    1582,    1581
   11714,    1510,    1511,    1583,    1582
   11715,    1511,    1512,    1584,    1583
   11716,    1513,    1514,    1586,    1585
   11717,    1514,    1515,    1587,    1586
   11718,    1515,    1516,    1588,    1587
   11719,    1516,    1517,    1589,    1588
   11720,    1517,    1518,    1590,    1589
   11721,    1518,    1519,    1591,    1590
   11722,    1519,    1520,    1592,    1591
   11723,    1520,    1521,    1593,    1592
   11724,    1521,    1522,    1594,    1593
   11725,    1522,    1523,    1595,    1594
   11726,    1523,    1524,    1596,    1595
   11727,    1524,    1525,    1597,    1596
   11728,    1525,    1526,    1598,    1597
   11729,    1526,    1527,    1599,    1598
   11730,    1527,    1528,    1600,    1599
   11731,    1528,    1529,    1601,    1600
   11732,    1529,    1530,    1602,    1601
   11733,    1530,    1531,    1603,    1602
   11734,    1531,    1532,    1604,    1603
   11735,    1532,    1533,    1605,    1604
   11736,    1533,    1534,    1606,    1605
   11737,    1534,    1535,    1607,    1606
   11738,    1535,    1536,    1608,    1607
   11739,    1536,    1537,    1609,    1608
   11740,    1537,    1538,    1610,    1609
   11741,    1538,    1539,    1611,    1610
   11742,    1539,    1540,    1612,    1611
   11743,    1540,    1541,    1613,    1612
   11744,    1541,    1542,    1614,    1613
   11745,    1542,    1543,    1615,    1614
   11746,    1543,    1544,    1616,    1615
   11747,    1544,    1545,    1617,    1616
   11748,    1545,    1546,    1618,    1617
   11749,    1546,    1547,    1619,    1618
   11750,    1547,    1548,    1620,    1619
   11751,    1548,    1549,    1621,    1620
   11752,    1549,    1550,    1622,    1621
   11753,    1550,    1551,    1623,    1622
   11754,    1551,    1552,    1624,    1623
   11755,    1552,    1553,    1625,    1624
   11756,    1553,    1554,    1626,    1625
   11757,    1554,    1555,    1627,    1626
   11758,    1555,    1556,    1628,    1627
   11759,    1556,    1557,    1629,    1628
   11760,    1557,    1558,    1630,    1629
   11761,    1558,    1559,    1631,    1630
   11762,    1559,    1560,    1632,    1631
   11763,    1560,    1561,    1633,    1632
   11764,    1561,    1562,    1634,    1633
   11765,    1562,    1563,    1635,    1634
   11766,    1563,    1564,    1636,    1635
   11767,    1564,    1565,    1637,    1636
   11768,    1565,    1566,    1638,    1637
   11769,    1566,    1567,    1639,    1638
   11770,    1567,    1568,    1640,    1639
   11771,    1568,    1569,    1641,    1640
   11772,    1569,    1570,    1642,    1641
   11773,    1570,    1571,    1643,    1642
   11774,    1571,    1572,    1644,    1643
   11775,    1572,    1573,    1645,    1644
   11776,    1573,    1574,    1646,    1645
   11777,    1574,    1575,    1647,    1646
   11778,    1575,    1576,    1648,    1647
   11779,    1576,    1577,    1649,    1648
   11780,    1577,    1578,    1650,    1649
   11781,    1578,    1579,    1651,    1650
   11782,    1579,    1580,    1652,    1651
   11783,    1580,    1581,    1653,    1652
   11784,    1581,    1582,    1654,    1653
   11785,    1582,    1583,    1655,    1654
   11786,    1583,    1584,    1656,    1655
   11787,    1585,    1586,    1658,    1657
   11788,    1586,    1587,    1659,    1658
   11789,    1587,    1588,    1660,    1659
   11790,    1588,    1589,    1661,    1660
   11791,    1589,    1590,    1662,    1661
   11792,    1590,    1591,    1663,    1662
   11793,    1591,    1592,    1664,    1663
   11794,    1592,    1593,    1665,    1664
   11795,    1593,    1594,    1666,    1665
   11796,    1594,    1595,    1667,    1666
   11797,    1595,    1596,    1668,    1667
   11798,    1596,    1597,    1669,    1668
   11799,    1597,    1598,    1670,    1669
   11800,    1598,    1599,    1671,    1670
   11801,    1599,    1600,    1672,    1671
   11802,    1600,    1601,    1673,    1672
   11803,    1601,    1602,    1674,    1673
   11804,    1602,    1603,    1675,    1674
   11805,    1603,    1604,    1676,    1675
   11806,    1604,    1605,    1677,    1676
   11807,    1605,    1606,    1678,    1677
   11808,    1606,    1607,    1679,    1678
   11809,    1607,    1608,    1680,    1679
   11810,    1608,    1609,    1681,    1680
   11811,    1609,    1610,    1682,    1681
   11812,    1610,    1611,    1683,    1682
   11813,    1611,    1612,    1684,    1683
   11814,    1612,    1613,    1685,    1684
   11815,    1613,    1614,    1686,    1685
   11816,    1614,    1615,    1687,    1686
   11817,    1615,    1616,    1688,    1687
   11818,    1616,    1617,    1689,    1688
   11819,    1617,    1618,    1690,    1689
   11820,    1618,    1619,    1691,    1690
   11821,    1619,    1620,    1692,    1691
   11822,    1620,    1621,    1693,    1692
   11823,    1621,    1622,    1694,    1693
   11824,    1622,    1623,    1695,    1694
   11825,    1623,    1624,    1696,    1695
   11826,    1624,    1625,    1697,    1696
   11827,    1625,    1626,    1698,    1697
   11828,    1626,    1627,    1699,    1698
   11829,    1627,    1628,    1700,    1699
   11830,    1628,    1629,    1701,    1700
   11831,    1629,    1630,    1702,    1701
   11832,    1630,    1631,    1703,    1702
   11833,    1631,    1632,    1704,    1703
   11834,    1632,    1633,    1705,    1704
   11835,    1633,    1634,    1706,    1705
   11836,    1634,    1635,    1707,    1706
   11837,    1635,    1636,    1708,    1707
   11838,    1636,    1637,    1709,    1708
   11839,    1637,    1638,    1710,    1709
   11840,    1638,    1639,    1711,    1710
   11841,    1639,    1640,    1712,    1711
   11842,    1640,    1641,    1713,    1712
   11843,    1641,    1642,    1714,    1713
   11844,    1642,    1643,    1715,    1714
   11845,    1643,    1644,    1716,    1715
   11846,    1644,    1645,    1717,    1716
   11847,    1645,    1646,    1718,    1717
   11848,    1646,    1647,    1719,    1718
   11849,    1647,    1648,    1720,    1719
   11850,    1648,    1649,    1721,    1720
   11851,    1649,    1650,    1722,    1721
   11852,    1650,    1651,    1723,    1722
   11853,    1651,    1652,    1724,    1723
   11854,    1652,    1653,    1725,    1724
   11855,    1653,    1654,    1726,    1725
   11856,    1654,    1655,    1727,    1726
   11857,    1655,    1656,    1728,    1727
   11858,    1657,    1658,    1730,    1729
   11859,    1658,    1659,    1731,    1730
   11860,    1659,    1660,    1732,    1731
   11861,    1660,    1661,    1733,    1732
   11862,    1661,    1662,    1734,    1733
   11863,    1662,    1663,    1735,    1734
   11864,    1663,    1664,    1736,    1735
   11865,    1664,    1665,    1737,    1736
   11866,    1665,    1666,    1738,    1737
   11867,    1666,    1667,    1739,    1738
   11868,    1667,    1668,    1740,    1739
   11869,    1668,    1669,    1741,    1740
   11870,    1669,    1670,    1742,    1741
   11871,    1670,    1671,    1743,    1742
   11872,    1671,    1672,    1744,    1743
   11873,    1672,    1673,    1745,    1744
   11874,    1673,    1674,    1746,    1745
   11875,    1674,    1675,    1747,    1746
   11876,    1675,    1676,    1748,    1747
   11877,    1676,    1677,    1749,    1748
   11878,    1677,    1678,    1750,    1749
   11879,    1678,    1679,    1751,    1750
   11880,    1679,    1680,    1752,    1751
   11881,    1680,    1681,    1753,    1752
   11882,    1681,    1682,    1754,    1753
   11883,    1682,    1683,    1755,    1754
   11884,    1683,    1684,    1756,    1755
   11885,    1684,    1685,    1757,    1756
   11886,    1685,    1686,    1758,    1757
   11887,    1686,    1687,    1759,    1758
   11888,    1687,    1688,    1760,    1759
   11889,    1688,    1689,    1761,    1760
   11890,    1689,    1690,    1762,    1761
   11891,    1690,    1691,    1763,    1762
   11892,    1691,    1692,    1764,    1763
   11893,    1692,    1693,    1765,    1764
   11894,    1693,    1694,    1766,    1765
   11895,    1694,    1695,    1767,    1766
   11896,    1695,    1696,    1768,    1767
   11897,    1696,    1697,    1769,    1768
   11898,    1697,    1698,    1770,    1769
   11899,    1698,    1699,    1771,    1770
   11900,    1699,    1700,    1772,    1771
   11901,    1700,    1701,    1773,    1772
   11902,    1701,    1702,    1774,    1773
   11903,    1702,    1703,    1775,    1774
   11904,    1703,    1704,    1776,    1775
   11905,    1704,    1705,    1777,    1776
   11906,    1705,    1706,    1778,    1777
   11907,    1706,    1707,    1779,    1778
   11908,    1707,    1708,    1780,    1779
   11909,    1708,    1709,    1781,    1780
   11910,    1709,    1710,    1782,    1781
   11911,    1710,    1711,    1783,    1782
   11912,    1711,    1712,    1784,    1783
   11913,    1712,    1713,    1785,    1784
   11914,    1713,    1714,    1786,    1785
   11915,    1714,    1715,    1787,    1786
   11916,    1715,    1716,    1788,    1787
   11917,    1716,    1717,    1789,    1788
   11918,    1717,    1718,    1790,    1789
   11919,    1718,    1719,    1791,    1790
   11920,    1719,    1720,    1792,    1791
   11921,    1720,    1721,    1793,    1792
   11922,    1721,    1722,    1794,    1793
   11923,    1722,    1723,    1795,    1794
   11924,    1723,    1724,    1796,    1795
   11925,    1724,    1725,    1797,    1796
   11926,    1725,    1726,    1798,    1797
   11927,    1726,    1727,    1799,    1798
   11928,    1727,    1728,    1800,    1799
   11929,    1729,    1730,    1802,    1801
   11930,    1730,    1731,    1803,    1802
   11931,    1731,    1732,    1804,    1803
   11932,    1732,    1733,    1805,    1804
   11933,    1733,    1734,    1806,    1805
   11934,    1734,    1735,    1807,    1806
   11935,    1735,    1736,    1808,    1807
   11936,    1736,    1737,    1809,    1808
   11937,    1737,    1738,    1810,    1809
   11938,    1738,    1739,    1811,    1810
   11939,    1739,    1740,    1812,    1811
   11940,    1740,    1741,    1813,    1812
   11941,    1741,    1742,    1814,    1813
   11942,    1742,    1743,    1815,    1814
   11943,    1743,    1744,    1816,    1815
   11944,    1744,    1745,    1817,    1816
   11945,    1745,    1746,    1818,    1817
   11946,    1746,    1747,    1819,    1818
   11947,    1747,    1748,    1820,    1819
   11948,    1748,    1749,    1821,    1820
   11949,    1749,    1750,    1822,    1821
   11950,    1750,    1751,    1823,    1822
   11951,    1751,    1752,    1824,    1823
   11952,    1752,    1753,    1825,    1824
   11953,    1753,    1754,    1826,    1825
   11954,    1754,    1755,    1827,    1826
   11955,    1755,    1756,    1828,    1827
   11956,    1756,    1757,    1829,    1828
   11957,    1757,    1758,    1830,    1829
   11958,    1758,    1759,    1831,    1830
   11959,    1759,    1760,    1832,    1831
   11960,    1760,    1761,    1833,    1832
   11961,    1761,    1762,    1834,    1833
   11962,    1762,    1763,    1835,    1834
   11963,    1763,    1764,    1836,    1835
   11964,    1764,    1765,    1837,    1836
   11965,    1765,    1766,    1838,    1837
   11966,    1766,    1767,    1839,    1838
   11967,    1767,    1768,    1840,    1839
   11968,    1768,    1769,    1841,    1840
   11969,    1769,    1770,    1842,    1841
   11970,    1770,    1771,    1843,    1842
   11971,    1771,    1772,    1844,    1843
   11972,    1772,    1773,    1845,    1844
   11973,    1773,    1774,    1846,    1845
   11974,    1774,    1775,    1847,    1846
   11975,    1775,    1776,    1848,    1847
   11976,    1776,    1777,    1849,    1848
   11977,    1777,    1778,    1850,    1849
   11978,    1778,    1779,    1851,    1850
   11979,    1779,    1780,    1852,    1851
   11980,    1780,    1781,    1853,    1852
   11981,    1781,    1782,    1854,    1853
   11982,    1782,    1783,    1855,    1854
   11983,    1783,    1784,    1856,    1855
   11984,    1784,    1785,    1857,    1856
   11985,    1785,    1786,    1858,    1857
   11986,    1786,    1787,    1859,    1858
   11987,    1787,    1788,    1860,    1859
   11988,    1788,    1789,    1861,    1860
   11989,    1789,    1790,    1862,    1861
   11990,    1790,    1791,    1863,    1862
   11991,    1791,    1792,    1864,    1863
   11992,    1792,    1793,    1865,    1864
   11993,    1793,    1794,    1866,    1865
   11994,    1794,    1795,    1867,    1866
   11995,    1795,    1796,    1868,    1867
   11996,    1796,    1797,    1869,    1868
   11997,    1797,    1798,    1870,    1869
   11998,    1798,    1799,    1871,    1870
   11999,    1799,    1800,    1872,    1871
   12000,    1801,    1802,    1874,    1873
   12001,    1802,    1803,    1875,    1874
   12002,    1803,    1804,    1876,    1875
   12003,    1804,    1805,    1877,    1876
   12004,    1805,    1806,    1878,    1877
   12005,    1806,    1807,    1879,    1878
   12006,    1807,    1808,    1880,    1879
   12007,    1808,    1809,    1881,    1880
   12008,    1809,    1810,    1882,    1881
   12009,    1810,    1811,    1883,    1882
   12010,    1811,    1812,    1884,    1883
   12011,    1812,    1813,    1885,    1884
   12012,    1813,    1814,    1886,    1885
   12013,    1814,    1815,    1887,    1886
   12014,    1815,    1816,    1888,    1887
   12015,    1816,    1817,    1889,    1888
   12016,    1817,    1818,    1890,    1889
   12017,    1818,    1819,    1891,    1890
   12018,    1819,    1820,    1892,    1891
   12019,    1820,    1821,    1893,    1892
   12020,    1821,    1822,    1894,    1893
   12021,    1822,    1823,    1895,    1894
   12022,    1823,    1824,    1896,    1895
   12023,    1824,    1825,    1897,    1896
   12024,    1825,    1826,    1898,    1897
   12025,    1826,    1827,    1899,    1898
   12026,    1827,    1828,    1900,    1899
   12027,    1828,    1829,    1901,    1900
   12028,    1829,    1830,    1902,    1901
   12029,    1830,    1831,    1903,    1902
   12030,    1831,    1832,    1904,    1903
   12031,    1832,    1833,    1905,    1904
   12032,    1833,    1834,    1906,    1905
   12033,    1834,    1835,    1907,    1906
   12034,    1835,    1836,    1908,    1907
   12035,    1836,    1837,    1909,    1908
   12036,    1837,    1838,    1910,    1909
   12037,    1838,    1839,    1911,    1910
   12038,    1839,    1840,    1912,    1911
   12039,    1840,    1841,    1913,    1912
   12040,    1841,    1842,    1914,    1913
   12041,    1842,    1843,    1915,    1914
   12042,    1843,    1844,    1916,    1915
   12043,    1844,    1845,    1917,    1916
   12044,    1845,    1846,    1918,    1917
   12045,    1846,    1847,    1919,    1918
   12046,    1847,    1848,    1920,    1919
   12047,    1848,    1849,    1921,    1920
   12048,    1849,    1850,    1922,    1921
   12049,    1850,    1851,    1923,    1922
   12050,    1851,    1852,    1924,    1923
   12051,    1852,    1853,    1925,    1924
   12052,    1853,    1854,    1926,    1925
   12053,    1854,    1855,    1927,    1926
   12054,    1855,    1856,    1928,    1927
   12055,    1856,    1857,    1929,    1928
   12056,    1857,    1858,    1930,    1929
   12057,    1858,    1859,    1931,    1930
   12058,    1859,    1860,    1932,    1931
   12059,    1860,    1861,    1933,    1932
   12060,    1861,    1862,    1934,    1933
   12061,    1862,    1863,    1935,    1934
   12062,    1863,    1864,    1936,    1935
   12063,    1864,    1865,    1937,    1936
   12064,    1865,    1866,    1938,    1937
   12065,    1866,    1867,    1939,    1938
   12066,    1867,    1868,    1940,    1939
   12067,    1868,    1869,    1941,    1940
   12068,    1869,    1870,    1942,    1941
   12069,    1870,    1871,    1943,    1942
   12070,    1871,    1872,    1944,    1943
   12071,    1873,    1874,    1946,    1945
   12072,    1874,    1875,    1947,    1946
   12073,    1875,    1876,    1948,    1947
   12074,    1876,    1877,    1949,    1948
   12075,    1877,    1878,    1950,    1949
   12076,    1878,    1879,    1951,    1950
   12077,    1879,    1880,    1952,    1951
   12078,    1880,    1881,    1953,    1952
   12079,    1881,    1882,    1954,    1953
   12080,    1882,    1883,    1955,    1954
   12081,    1883,    1884,    1956,    1955
   12082,    1884,    1885,    1957,    1956
   12083,    1885,    1886,    1958,    1957
   12084,    1886,    1887,    1959,    1958
   12085,    1887,    1888,    1960,    1959
   12086,    1888,    1889,    1961,    1960
   12087,    1889,    1890,    1962,    1961
   12088,    1890,    1891,    1963,    1962
   12089,    1891,    1892,    1964,    1963
   12090,    1892,    1893,    1965,    1964
   12091,    1893,    1894,    1966,    1965
   12092,    1894,    1895,    1967,    1966
   12093,    1895,    1896,    1968,    1967
   12094,    1896,    1897,    1969,    1968
   12095,    1897,    1898,    1970,    1969
   12096,    1898,    1899,    1971,    1970
   12097,    1899,    1900,    1972,    1971
   12098,    1900,    1901,    1973,    1972
   12099,    1901,    1902,    1974,    1973
   12100,    1902,    1903,    1975,    1974
   12101,    1903,    1904,    1976,    1975
   12102,    1904,    1905,    1977,    1976
   12103,    1905,    1906,    1978,    1977
   12104,    1906,    1907,    1979,    1978
   12105,    1907,    1908,    1980,    1979
   12106,    1908,    1909,    1981,    1980
   12107,    1909,    1910,    1982,    1981
   12108,    1910,    1911,    1983,    1982
   12109,    1911,    1912,    1984,    1983
   12110,    1912,    1913,    1985,    1984
   12111,    1913,    1914,    1986,    1985
   12112,    1914,    1915,    1987,    1986
   12113,    1915,    1916,    1988,    1987
   12114,    1916,    1917,    1989,    1988
   12115,    1917,    1918,    1990,    1989
   12116,    1918,    1919,    1991,    1990
   12117,    1919,    1920,    1992,    1991
   12118,    1920,    1921,    1993,    1992
   12119,    1921,    1922,    1994,    1993
   12120,    1922,    1923,    1995,    1994
   12121,    1923,    1924,    1996,    1995
   12122,    1924,    1925,    1997,    1996
   12123,    1925,    1926,    1998,    1997
   12124,    1926,    1927,    1999,    1998
   12125,    1927,    1928,    2000,    1999
   12126,    1928,    1929,    2001,    2000
   12127,    1929,    1930,    2002,    2001
   12128,    1930,    1931,    2003,    2002
   12129,    1931,    1932,    2004,    2003
   12130,    1932,    1933,    2005,    2004
   12131,    1933,    1934,    2006,    2005
   12132,    1934,    1935,    2007,    2006
   12133,    1935,    1936,    2008,    2007
   12134,    1936,    1937,    2009,    2008
   12135,    1937,    1938,    2010,    2009
   12136,    1938,    1939,    2011,    2010
   12137,    1939,    1940,    2012,    2011
   12138,    1940,    1941,    2013,    2012
   12139,    1941,    1942,    2014,    2013
   12140,    1942,    1943,    2015,    2014
   12141,    1943,    1944,    2016,    2015
   12142,    1945,    1946,    2018,    2017
   12143,    1946,    1947,    2019,    2018
   12144,    1947,    1948,    2020,    2019
   12145,    1948,    1949,    2021,    2020
   12146,    1949,    1950,    2022,    2021
   12147,    1950,    1951,    2023,    2022
   12148,    1951,    1952,    2024,    2023
   12149,    1952,    1953,    2025,    2024
   12150,    1953,    1954,    2026,    2025
   12151,    1954,    1955,    2027,    2026
   12152,    1955,    1956,    2028,    2027
   12153,    1956,    1957,    2029,    2028
   12154,    1957,    1958,    2030,    2029
   12155,    1958,    1959,    2031,    2030
   12156,    1959,    1960,    2032,    2031
   12157,    1960,    1961,    2033,    2032
   12158,    1961,    1962,    2034,    2033
   12159,    1962,    1963,    2035,    2034
   12160,    1963,    1964,    2036,    2035
   12161,    1964,    1965,    2037,    2036
   12162,    1965,    1966,    2038,    2037
   12163,    1966,    1967,    2039,    2038
   12164,    1967,    1968,    2040,    2039
   12165,    1968,    1969,    2041,    2040
   12166,    1969,    1970,    2042,    2041
   12167,    1970,    1971,    2043,    2042
   12168,    1971,    1972,    2044,    2043
   12169,    1972,    1973,    2045,    2044
   12170,    1973,    1974,    2046,    2045
   12171,    1974,    1975,    2047,    2046
   12172,    1975,    1976,    2048,    2047
   12173,    1976,    1977,    2049,    2048
   12174,    1977,    1978,    2050,    2049
   12175,    1978,    1979,    2051,    2050
   12176,    1979,    1980,    2052,    2051
   12177,    1980,    1981,    2053,    2052
   12178,    1981,    1982,    2054,    2053
   12179,    1982,    1983,    2055,    2054
   12180,    1983,    1984,    2056,    2055
   12181,    1984,    1985,    2057,    2056
   12182,    1985,    1986,    2058,    2057
   12183,    1986,    1987,    2059,    2058
   12184,    1987,    1988,    2060,    2059
   12185,    1988,    1989,    2061,    2060
   12186,    1989,    1990,    2062,    2061
   12187,    1990,    1991,    2063,    2062
   12188,    1991,    1992,    2064,    2063
   12189,    1992,    1993,    2065,    2064
   12190,    1993,    1994,    2066,    2065
   12191,    1994,    1995,    2067,    2066
   12192,    1995,    1996,    2068,    2067
   12193,    1996,    1997,    2069,    2068
   12194,    1997,    1998,    2070,    2069
   12195,    1998,    1999,    2071,    2070
   12196,    1999,    2000,    2072,    2071
   12197,    2000,    2001,    2073,    2072
   12198,    2001,    2002,    2074,    2073
   12199,    2002,    2003,    2075,    2074
   12200,    2003,    2004,    2076,    2075
   12201,    2004,    2005,    2077,    2076
   12202,    2005,    2006,    2078,    2077
   12203,    2006,    2007,    2079,    2078
   12204,    2007,    2008,    2080,    2079
   12205,    2008,    2009,    2081,    2080
   12206,    2009,    2010,    2082,    2081
   12207,    2010,    2011,    2083,    2082
   12208,    2011,    2012,    2084,    2083
   12209,    2012,    2013,    2085,    2084
   12210,    2013,    2014,    2086,    2085
   12211,    2014,    2015,    2087,    2086
   12212,    2015,    2016,    2088,    2087
   12213,    2017,    2018,    2090,    2089
   12214,    2018,    2019,    2091,    2090
   12215,    2019,    2020,    2092,    2091
   12216,    2020,    2021,    2093,    2092
   12217,    2021,    2022,    2094,    2093
   12218,    2022,    2023,    2095,    2094
   12219,    2023,    2024,    2096,    2095
   12220,    2024,    2025,    2097,    2096
   12221,    2025,    2026,    2098,    2097
   12222,    2026,    2027,    2099,    2098
   12223,    2027,    2028,    2100,    2099
   12224,    2028,    2029,    2101,    2100
   12225,    2029,    2030,    2102,    2101
   12226,    2030,    2031,    2103,    2102
   12227,    2031,    2032,    2104,    2103
   12228,    2032,    2033,    2105,    2104
   12229,    2033,    2034,    2106,    2105
   12230,    2034,    2035,    2107,    2106
   12231,    2035,    2036,    2108,    2107
   12232,    2036,    2037,    2109,    2108
   12233,    2037,    2038,    2110,    2109
   12234,    2038,    2039,    2111,    2110
   12235,    2039,    2040,    2112,    2111
   12236,    2040,    2041,    2113,    2112
   12237,    2041,    2042,    2114,    2113
   12238,    2042,    2043,    2115,    2114
   12239,    2043,    2044,    2116,    2115
   12240,    2044,    2045,    2117,    2116
   12241,    2045,    2046,    2118,    2117
   12242,    2046,    2047,    2119,    2118
   12243,    2047,    2048,    2120,    2119
   12244,    2048,    2049,    2121,    2120
   12245,    2049,    2050,    2122,    2121
   12246,    2050,    2051,    2123,    2122
   12247,    2051,    2052,    2124,    2123
   12248,    2052,    2053,    2125,    2124
   12249,    2053,    2054,    2126,    2125
   12250,    2054,    2055,    2127,    2126
   12251,    2055,    2056,    2128,    2127
   12252,    2056,    2057,    2129,    2128
   12253,    2057,    2058,    2130,    2129
   12254,    2058,    2059,    2131,    2130
   12255,    2059,    2060,    2132,    2131
   12256,    2060,    2061,    2133,    2132
   12257,    2061,    2062,    2134,    2133
   12258,    2062,    2063,    2135,    2134
   12259,    2063,    2064,    2136,    2135
   12260,    2064,    2065,    2137,    2136
   12261,    2065,    2066,    2138,    2137
   12262,    2066,    2067,    2139,    2138
   12263,    2067,    2068,    2140,    2139
   12264,    2068,    2069,    2141,    2140
   12265,    2069,    2070,    2142,    2141
   12266,    2070,    2071,    2143,    2142
   12267,    2071,    2072,    2144,    2143
   12268,    2072,    2073,    2145,    2144
   12269,    2073,    2074,    2146,    2145
   12270,    2074,    2075,    2147,    2146
   12271,    2075,    2076,    2148,    2147
   12272,    2076,    2077,    2149,    2148
   12273,    2077,    2078,    2150,    2149
   12274,    2078,    2079,    2151,    2150
   12275,    2079,    2080,    2152,    2151
   12276,    2080,    2081,    2153,    2152
   12277,    2081,    2082,    2154,    2153
   12278,    2082,    2083,    2155,    2154
   12279,    2083,    2084,    2156,    2155
   12280,    2084,    2085,    2157,    2156
   12281,    2085,    2086,    2158,    2157
   12282,    2086,    2087,    2159,    2158
   12283,    2087,    2088,    2160,    2159
   12284,    2089,    2090,    2162,    2161
   12285,    2090,    2091,    2163,    2162
   12286,    2091,    2092,    2164,    2163
   12287,    2092,    2093,    2165,    2164
   12288,    2093,    2094,    2166,    2165
   12289,    2094,    2095,    2167,    2166
   12290,    2095,    2096,    2168,    2167
   12291,    2096,    2097,    2169,    2168
   12292,    2097,    2098,    2170,    2169
   12293,    2098,    2099,    2171,    2170
   12294,    2099,    2100,    2172,    2171
   12295,    2100,    2101,    2173,    2172
   12296,    2101,    2102,    2174,    2173
   12297,    2102,    2103,    2175,    2174
   12298,    2103,    2104,    2176,    2175
   12299,    2104,    2105,    2177,    2176
   12300,    2105,    2106,    2178,    2177
   12301,    2106,    2107,    2179,    2178
   12302,    2107,    2108,    2180,    2179
   12303,    2108,    2109,    2181,    2180
   12304,    2109,    2110,    2182,    2181
   12305,    2110,    2111,    2183,    2182
   12306,    2111,    2112,    2184,    2183
   12307,    2112,    2113,    2185,    2184
   12308,    2113,    2114,    2186,    2185
   12309,    2114,    2115,    2187,    2186
   12310,    2115,    2116,    2188,    2187
   12311,    2116,    2117,    2189,    2188
   12312,    2117,    2118,    2190,    2189
   12313,    2118,    2119,    2191,    2190
   12314,    2119,    2120,    2192,    2191
   12315,    2120,    2121,    2193,    2192
   12316,    2121,    2122,    2194,    2193
   12317,    2122,    2123,    2195,    2194
   12318,    2123,    2124,    2196,    2195
   12319,    2124,    2125,    2197,    2196
   12320,    2125,    2126,    2198,    2197
   12321,    2126,    2127,    2199,    2198
   12322,    2127,    2128,    2200,    2199
   12323,    2128,    2129,    2201,    2200
   12324,    2129,    2130,    2202,    2201
   12325,    2130,    2131,    2203,    2202
   12326,    2131,    2132,    2204,    2203
   12327,    2132,    2133,    2205,    2204
   12328,    2133,    2134,    2206,    2205
   12329,    2134,    2135,    2207,    2206
   12330,    2135,    2136,    2208,    2207
   12331,    2136,    2137,    2209,    2208
   12332,    2137,    2138,    2210,    2209
   12333,    2138,    2139,    2211,    2210
   12334,    2139,    2140,    2212,    2211
   12335,    2140,    2141,    2213,    2212
   12336,    2141,    2142,    2214,    2213
   12337,    2142,    2143,    2215,    2214
   12338,    2143,    2144,    2216,    2215
   12339,    2144,    2145,    2217,    2216
   12340,    2145,    2146,    2218,    2217
   12341,    2146,    2147,    2219,    2218
   12342,    2147,    2148,    2220,    2219
   12343,    2148,    2149,    2221,    2220
   12344,    2149,    2150,    2222,    2221
   12345,    2150,    2151,    2223,    2222
   12346,    2151,    2152,    2224,    2223
   12347,    2152,    2153,    2225,    2224
   12348,    2153,    2154,    2226,    2225
   12349,    2154,    2155,    2227,    2226
   12350,    2155,    2156,    2228,    2227
   12351,    2156,    2157,    2229,    2228
   12352,    2157,    2158,    2230,    2229
   12353,    2158,    2159,    2231,    2230
   12354,    2159,    2160,    2232,    2231
   12355,    2161,    2162,    2234,    2233
   12356,    2162,    2163,    2235,    2234
   12357,    2163,    2164,    2236,    2235
   12358,    2164,    2165,    2237,    2236
   12359,    2165,    2166,    2238,    2237
   12360,    2166,    2167,    2239,    2238
   12361,    2167,    2168,    2240,    2239
   12362,    2168,    2169,    2241,    2240
   12363,    2169,    2170,    2242,    2241
   12364,    2170,    2171,    2243,    2242
   12365,    2171,    2172,    2244,    2243
   12366,    2172,    2173,    2245,    2244
   12367,    2173,    2174,    2246,    2245
   12368,    2174,    2175,    2247,    2246
   12369,    2175,    2176,    2248,    2247
   12370,    2176,    2177,    2249,    2248
   12371,    2177,    2178,    2250,    2249
   12372,    2178,    2179,    2251,    2250
   12373,    2179,    2180,    2252,    2251
   12374,    2180,    2181,    2253,    2252
   12375,    2181,    2182,    2254,    2253
   12376,    2182,    2183,    2255,    2254
   12377,    2183,    2184,    2256,    2255
   12378,    2184,    2185,    2257,    2256
   12379,    2185,    2186,    2258,    2257
   12380,    2186,    2187,    2259,    2258
   12381,    2187,    2188,    2260,    2259
   12382,    2188,    2189,    2261,    2260
   12383,    2189,    2190,    2262,    2261
   12384,    2190,    2191,    2263,    2262
   12385,    2191,    2192,    2264,    2263
   12386,    2192,    2193,    2265,    2264
   12387,    2193,    2194,    2266,    2265
   12388,    2194,    2195,    2267,    2266
   12389,    2195,    2196,    2268,    2267
   12390,    2196,    2197,    2269,    2268
   12391,    2197,    2198,    2270,    2269
   12392,    2198,    2199,    2271,    2270
   12393,    2199,    2200,    2272,    2271
   12394,    2200,    2201,    2273,    2272
   12395,    2201,    2202,    2274,    2273
   12396,    2202,    2203,    2275,    2274
   12397,    2203,    2204,    2276,    2275
   12398,    2204,    2205,    2277,    2276
   12399,    2205,    2206,    2278,    2277
   12400,    2206,    2207,    2279,    2278
   12401,    2207,    2208,    2280,    2279
   12402,    2208,    2209,    2281,    2280
   12403,    2209,    2210,    2282,    2281
   12404,    2210,    2211,    2283,    2282
   12405,    2211,    2212,    2284,    2283
   12406,    2212,    2213,    2285,    2284
   12407,    2213,    2214,    2286,    2285
   12408,    2214,    2215,    2287,    2286
   12409,    2215,    2216,    2288,    2287
   12410,    2216,    2217,    2289,    2288
   12411,    2217,    2218,    2290,    2289
   12412,    2218,    2219,    2291,    2290
   12413,    2219,    2220,    2292,    2291
   12414,    2220,    2221,    2293,    2292
   12415,    2221,    2222,    2294,    2293
   12416,    2222,    2223,    2295,    2294
   12417,    2223,    2224,    2296,    2295
   12418,    2224,    2225,    2297,    2296
   12419,    2225,    2226,    2298,    2297
   12420,    2226,    2227,    2299,    2298
   12421,    2227,    2228,    2300,    2299
   12422,    2228,    2229,    2301,    2300
   12423,    2229,    2230,    2302,    2301
   12424,    2230,    2231,    2303,    2302
   12425,    2231,    2232,    2304,    2303
   12426,    2233,    2234,    2306,    2305
   12427,    2234,    2235,    2307,    2306
   12428,    2235,    2236,    2308,    2307
   12429,    2236,    2237,    2309,    2308
   12430,    2237,    2238,    2310,    2309
   12431,    2238,    2239,    2311,    2310
   12432,    2239,    2240,    2312,    2311
   12433,    2240,    2241,    2313,    2312
   12434,    2241,    2242,    2314,    2313
   12435,    2242,    2243,    2315,    2314
   12436,    2243,    2244,    2316,    2315
   12437,    2244,    2245,    2317,    2316
   12438,    2245,    2246,    2318,    2317
   12439,    2246,    2247,    2319,    2318
   12440,    2247,    2248,    2320,    2319
   12441,    2248,    2249,    2321,    2320
   12442,    2249,    2250,    2322,    2321
   12443,    2250,    2251,    2323,    2322
   12444,    2251,    2252,    2324,    2323
   12445,    2252,    2253,    2325,    2324
   12446,    2253,    2254,    2326,    2325
   12447,    2254,    2255,    2327,    2326
   12448,    2255,    2256,    2328,    2327
   12449,    2256,    2257,    2329,    2328
   12450,    2257,    2258,    2330,    2329
   12451,    2258,    2259,    2331,    2330
   12452,    2259,    2260,    2332,    2331
   12453,    2260,    2261,    2333,    2332
   12454,    2261,    2262,    2334,    2333
   12455,    2262,    2263,    2335,    2334
   12456,    2263,    2264,    2336,    2335
   12457,    2264,    2265,    2337,    2336
   12458,    2265,    2266,    2338,    2337
   12459,    2266,    2267,    2339,    2338
   12460,    2267,    2268,    2340,    2339
   12461,    2268,    2269,    2341,    2340
   12462,    2269,    2270,    2342,    2341
   12463,    2270,    2271,    2343,    2342
   12464,    2271,    2272,    2344,    2343
   12465,    2272,    2273,    2345,    2344
   12466,    2273,    2274,    2346,    2345
   12467,    2274,    2275,    2347,    2346
   12468,    2275,    2276,    2348,    2347
   12469,    2276,    2277,    2349,    2348
   12470,    2277,    2278,    2350,    2349
   12471,    2278,    2279,    2351,    2350
   12472,    2279,    2280,    2352,    2351
   12473,    2280,    2281,    2353,    2352
   12474,    2281,    2282,    2354,    2353
   12475,    2282,    2283,    2355,    2354
   12476,    2283,    2284,    2356,    2355
   12477,    2284,    2285,    2357,    2356
   12478,    2285,    2286,    2358,    2357
   12479,    2286,    2287,    2359,    2358
   12480,    2287,    2288,    2360,    2359
   12481,    2288,    2289,    2361,    2360
   12482,    2289,    2290,    2362,    2361
   12483,    2290,    2291,    2363,    2362
   12484,    2291,    2292,    2364,    2363
   12485,    2292,    2293,    2365,    2364
   12486,    2293,    2294,    2366,    2365
   12487,    2294,    2295,    2367,    2366
   12488,    2295,    2296,    2368,    2367
   12489,    2296,    2297,    2369,    2368
   12490,    2297,    2298,    2370,    2369
   12491,    2298,    2299,    2371,    2370
   12492,    2299,    2300,    2372,    2371
   12493,    2300,    2301,    2373,    2372
   12494,    2301,    2302,    2374,    2373
   12495,    2302,    2303,    2375,    2374
   12496,    2303,    2304,    2376,    2375
   12497,    2305,    2306,    2378,    2377
   12498,    2306,    2307,    2379,    2378
   12499,    2307,    2308,    2380,    2379
   12500,    2308,    2309,    2381,    2380
   12501,    2309,    2310,    2382,    2381
   12502,    2310,    2311,    2383,    2382
   12503,    2311,    2312,    2384,    2383
   12504,    2312,    2313,    2385,    2384
   12505,    2313,    2314,    2386,    2385
   12506,    2314,    2315,    2387,    2386
   12507,    2315,    2316,    2388,    2387
   12508,    2316,    2317,    2389,    2388
   12509,    2317,    2318,    2390,    2389
   12510,    2318,    2319,    2391,    2390
   12511,    2319,    2320,    2392,    2391
   12512,    2320,    2321,    2393,    2392
   12513,    2321,    2322,    2394,    2393
   12514,    2322,    2323,    2395,    2394
   12515,    2323,    2324,    2396,    2395
   12516,    2324,    2325,    2397,    2396
   12517,    2325,    2326,    2398,    2397
   12518,    2326,    2327,    2399,    2398
   12519,    2327,    2328,    2400,    2399
   12520,    2328,    2329,    2401,    2400
   12521,    2329,    2330,    2402,    2401
   12522,    2330,    2331,    2403,    2402
   12523,    2331,    2332,    2404,    2403
   12524,    2332,    2333,    2405,    2404
   12525,    2333,    2334,    2406,    2405
   12526,    2334,    2335,    2407,    2406
   12527,    2335,    2336,    2408,    2407
   12528,    2336,    2337,    2409,    2408
   12529,    2337,    2338,    2410,    2409
   12530,    2338,    2339,    2411,    2410
   12531,    2339,    2340,    2412,    2411
   12532,    2340,    2341,    2413,    2412
   12533,    2341,    2342,    2414,    2413
   12534,    2342,    2343,    2415,    2414
   12535,    2343,    2344,    2416,    2415
   12536,    2344,    2345,    2417,    2416
   12537,    2345,    2346,    2418,    2417
   12538,    2346,    2347,    2419,    2418
   12539,    2347,    2348,    2420,    2419
   12540,    2348,    2349,    2421,    2420
   12541,    2349,    2350,    2422,    2421
   12542,    2350,    2351,    2423,    2422
   12543,    2351,    2352,    2424,    2423
   12544,    2352,    2353,    2425,    2424
   12545,    2353,    2354,    2426,    2425
   12546,    2354,    2355,    2427,    2426
   12547,    2355,    2356,    2428,    2427
   12548,    2356,    2357,    2429,    2428
   12549,    2357,    2358,    2430,    2429
   12550,    2358,    2359,    2431,    2430
   12551,    2359,    2360,    2432,    2431
   12552,    2360,    2361,    2433,    2432
   12553,    2361,    2362,    2434,    2433
   12554,    2362,    2363,    2435,    2434
   12555,    2363,    2364,    2436,    2435
   12556,    2364,    2365,    2437,    2436
   12557,    2365,    2366,    2438,    2437
   12558,    2366,    2367,    2439,    2438
   12559,    2367,    2368,    2440,    2439
   12560,    2368,    2369,    2441,    2440
   12561,    2369,    2370,    2442,    2441
   12562,    2370,    2371,    2443,    2442
   12563,    2371,    2372,    2444,    2443
   12564,    2372,    2373,    2445,    2444
   12565,    2373,    2374,    2446,    2445
   12566,    2374,    2375,    2447,    2446
   12567,    2375,    2376,    2448,    2447
   12568,    2377,    2378,    2450,    2449
   12569,    2378,    2379,    2451,    2450
   12570,    2379,    2380,    2452,    2451
   12571,    2380,    2381,    2453,    2452
   12572,    2381,    2382,    2454,    2453
   12573,    2382,    2383,    2455,    2454
   12574,    2383,    2384,    2456,    2455
   12575,    2384,    2385,    2457,    2456
   12576,    2385,    2386,    2458,    2457
   12577,    2386,    2387,    2459,    2458
   12578,    2387,    2388,    2460,    2459
   12579,    2388,    2389,    2461,    2460
   12580,    2389,    2390,    2462,    2461
   12581,    2390,    2391,    2463,    2462
   12582,    2391,    2392,    2464,    2463
   12583,    2392,    2393,    2465,    2464
   12584,    2393,    2394,    2466,    2465
   12585,    2394,    2395,    2467,    2466
   12586,    2395,    2396,    2468,    2467
   12587,    2396,    2397,    2469,    2468
   12588,    2397,    2398,    2470,    2469
   12589,    2398,    2399,    2471,    2470
   12590,    2399,    2400,    2472,    2471
   12591,    2400,    2401,    2473,    2472
   12592,    2401,    2402,    2474,    2473
   12593,    2402,    2403,    2475,    2474
   12594,    2403,    2404,    2476,    2475
   12595,    2404,    2405,    2477,    2476
   12596,    2405,    2406,    2478,    2477
   12597,    2406,    2407,    2479,    2478
   12598,    2407,    2408,    2480,    2479
   12599,    2408,    2409,    2481,    2480
   12600,    2409,    2410,    2482,    2481
   12601,    2410,    2411,    2483,    2482
   12602,    2411,    2412,    2484,    2483
   12603,    2412,    2413,    2485,    2484
   12604,    2413,    2414,    2486,    2485
   12605,    2414,    2415,    2487,    2486
   12606,    2415,    2416,    2488,    2487
   12607,    2416,    2417,    2489,    2488
   12608,    2417,    2418,    2490,    2489
   12609,    2418,    2419,    2491,    2490
   12610,    2419,    2420,    2492,    2491
   12611,    2420,    2421,    2493,    2492
   12612,    2421,    2422,    2494,    2493
   12613,    2422,    2423,    2495,    2494
   12614,    2423,    2424,    2496,    2495
   12615,    2424,    2425,    2497,    2496
   12616,    2425,    2426,    2498,    2497
   12617,    2426,    2427,    2499,    2498
   12618,    2427,    2428,    2500,    2499
   12619,    2428,    2429,    2501,    2500
   12620,    2429,    2430,    2502,    2501
   12621,    2430,    2431,    2503,    2502
   12622,    2431,    2432,    2504,    2503
   12623,    2432,    2433,    2505,    2504
   12624,    2433,    2434,    2506,    2505
   12625,    2434,    2435,    2507,    2506
   12626,    2435,    2436,    2508,    2507
   12627,    2436,    2437,    2509,    2508
   12628,    2437,    2438,    2510,    2509
   12629,    2438,    2439,    2511,    2510
   12630,    2439,    2440,    2512,    2511
   12631,    2440,    2441,    2513,    2512
   12632,    2441,    2442,    2514,    2513
   12633,    2442,    2443,    2515,    2514
   12634,    2443,    2444,    2516,    2515
   12635,    2444,    2445,    2517,    2516
   12636,    2445,    2446,    2518,    2517
   12637,    2446,    2447,    2519,    2518
   12638,    2447,    2448,    2520,    2519
   12639,    2449,    2450,    2523,    2521
   12640,    2450,    2451,    2525,    2523
   12641,    2451,    2452,    2527,    2525
   12642,    2452,    2453,    2529,    2527
   12643,    2453,    2454,    2531,    2529
   12644,    2454,    2455,    2533,    2531
   12645,    2455,    2456,    2535,    2533
   12646,    2456,    2457,    2537,    2535
   12647,    2457,    2458,    2539,    2537
   12648,    2458,    2459,    2541,    2539
   12649,    2459,    2460,    2543,    2541
   12650,    2460,    2461,    2545,    2543
   12651,    2461,    2462,    2547,    2545
   12652,    2462,    2463,    2549,    2547
   12653,    2463,    2464,    2551,    2549
   12654,    2464,    2465,    2553,    2551
   12655,    2465,    2466,    2555,    2553
   12656,    2466,    2467,    2557,    2555
   12657,    2467,    2468,    2559,    2557
   12658,    2468,    2469,    2561,    2559
   12659,    2469,    2470,    2563,    2561
   12660,    2470,    2471,    2565,    2563
   12661,    2471,    2472,    2567,    2565
   12662,    2472,    2473,    2569,    2567
   12663,    2473,    2474,    2571,    2569
   12664,    2474,    2475,    2573,    2571
   12665,    2475,    2476,    2575,    2573
   12666,    2476,    2477,    2577,    2575
   12667,    2477,    2478,    2579,    2577
   12668,    2478,    2479,    2581,    2579
   12669,    2479,    2480,    2583,    2581
   12670,    2480,    2481,    2584,    2583
   12671,    2481,    2482,    2585,    2584
   12672,    2482,    2483,    2586,    2585
   12673,    2483,    2484,    2587,    2586
   12674,    2484,    2485,    2588,    2587
   12675,    2485,    2486,    2589,    2588
   12676,    2486,    2487,    2590,    2589
   12677,    2487,    2488,    2591,    2590
   12678,    2488,    2489,    2592,    2591
   12679,    2489,    2490,    2593,    2592
   12680,    2490,    2491,    2594,    2593
   12681,    2491,    2492,    2595,    2594
   12682,    2492,    2493,    2596,    2595
   12683,    2493,    2494,    2597,    2596
   12684,    2494,    2495,    2598,    2597
   12685,    2495,    2496,    2599,    2598
   12686,    2496,    2497,    2600,    2599
   12687,    2497,    2498,    2601,    2600
   12688,    2498,    2499,    2602,    2601
   12689,    2499,    2500,    2603,    2602
   12690,    2500,    2501,    2604,    2603
   12691,    2501,    2502,    2605,    2604
   12692,    2502,    2503,    2606,    2605
   12693,    2503,    2504,    2607,    2606
   12694,    2504,    2505,    2608,    2607
   12695,    2505,    2506,    2609,    2608
   12696,    2506,    2507,    2610,    2609
   12697,    2507,    2508,    2611,    2610
   12698,    2508,    2509,    2612,    2611
   12699,    2509,    2510,    2613,    2612
   12700,    2510,    2511,    2614,    2613
   12701,    2511,    2512,    2615,    2614
   12702,    2512,    2513,    2616,    2615
   12703,    2513,    2514,    2617,    2616
   12704,    2514,    2515,    2618,    2617
   12705,    2515,    2516,    2619,    2618
   12706,    2516,    2517,    2620,    2619
   12707,    2517,    2518,    2621,    2620
   12708,    2518,    2519,    2622,    2621
   12709,    2519,    2520,    2623,    2622
   12710,    2522,    2524,    2625,    2624
   12711,    2524,    2526,    2626,    2625
   12712,    2526,    2528,    2627,    2626
   12713,    2528,    2530,    2628,    2627
   12714,    2530,    2532,    2629,    2628
   12715,    2532,    2534,    2630,    2629
   12716,    2534,    2536,    2631,    2630
   12717,    2536,    2538,    2632,    2631
   12718,    2538,    2540,    2633,    2632
   12719,    2540,    2542,    2634,    2633
   12720,    2542,    2544,    2635,    2634
   12721,    2544,    2546,    2636,    2635
   12722,    2546,    2548,    2637,    2636
   12723,    2548,    2550,    2638,    2637
   12724,    2550,    2552,    2639,    2638
   12725,    2552,    2554,    2640,    2639
   12726,    2554,    2556,    2641,    2640
   12727,    2556,    2558,    2642,    2641
   12728,    2558,    2560,    2643,    2642
   12729,    2560,    2562,    2644,    2643
   12730,    2562,    2564,    2645,    2644
   12731,    2564,    2566,    2646,    2645
   12732,    2566,    2568,    2647,    2646
   12733,    2568,    2570,    2648,    2647
   12734,    2570,    2572,    2649,    2648
   12735,    2572,    2574,    2650,    2649
   12736,    2574,    2576,    2651,    2650
   12737,    2576,    2578,    2652,    2651
   12738,    2578,    2580,    2653,    2652
   12739,    2580,    2582,    2654,    2653
   12740,    2582,    2583,    2655,    2654
   12741,    2583,    2584,    2656,    2655
   12742,    2584,    2585,    2657,    2656
   12743,    2585,    2586,    2658,    2657
   12744,    2586,    2587,    2659,    2658
   12745,    2587,    2588,    2660,    2659
   12746,    2588,    2589,    2661,    2660
   12747,    2589,    2590,    2662,    2661
   12748,    2590,    2591,    2663,    2662
   12749,    2591,    2592,    2664,    2663
   12750,    2592,    2593,    2665,    2664
   12751,    2593,    2594,    2666,    2665
   12752,    2594,    2595,    2667,    2666
   12753,    2595,    2596,    2668,    2667
   12754,    2596,    2597,    2669,    2668
   12755,    2597,    2598,    2670,    2669
   12756,    2598,    2599,    2671,    2670
   12757,    2599,    2600,    2672,    2671
   12758,    2600,    2601,    2673,    2672
   12759,    2601,    2602,    2674,    2673
   12760,    2602,    2603,    2675,    2674
   12761,    2603,    2604,    2676,    2675
   12762,    2604,    2605,    2677,    2676
   12763,    2605,    2606,    2678,    2677
   12764,    2606,    2607,    2679,    2678
   12765,    2607,    2608,    2680,    2679
   12766,    2608,    2609,    2681,    2680
   12767,    2609,    2610,    2682,    2681
   12768,    2610,    2611,    2683,    2682
   12769,    2611,    2612,    2684,    2683
   12770,    2612,    2613,    2685,    2684
   12771,    2613,    2614,    2686,    2685
   12772,    2614,    2615,    2687,    2686
   12773,    2615,    2616,    2688,    2687
   12774,    2616,    2617,    2689,    2688
   12775,    2617,    2618,    2690,    2689
   12776,    2618,    2619,    2691,    2690
   12777,    2619,    2620,    2692,    2691
   12778,    2620,    2621,    2693,    2692
   12779,    2621,    2622,    2694,    2693
   12780,    2622,    2623,    2695,    2694
   12781,    2624,    2625,    2697,    2696
   12782,    2625,    2626,    2698,    2697
   12783,    2626,    2627,    2699,    2698
   12784,    2627,    2628,    2700,    2699
   12785,    2628,    2629,    2701,    2700
   12786,    2629,    2630,    2702,    2701
   12787,    2630,    2631,    2703,    2702
   12788,    2631,    2632,    2704,    2703
   12789,    2632,    2633,    2705,    2704
   12790,    2633,    2634,    2706,    2705
   12791,    2634,    2635,    2707,    2706
   12792,    2635,    2636,    2708,    2707
   12793,    2636,    2637,    2709,    2708
   12794,    2637,    2638,    2710,    2709
   12795,    2638,    2639,    2711,    2710
   12796,    2639,    2640,    2712,    2711
   12797,    2640,    2641,    2713,    2712
   12798,    2641,    2642,    2714,    2713
   12799,    2642,    2643,    2715,    2714
   12800,    2643,    2644,    2716,    2715
   12801,    2644,    2645,    2717,    2716
   12802,    2645,    2646,    2718,    2717
   12803,    2646,    2647,    2719,    2718
   12804,    2647,    2648,    2720,    2719
   12805,    2648,    2649,    2721,    2720
   12806,    2649,    2650,    2722,    2721
   12807,    2650,    2651,    2723,    2722
   12808,    2651,    2652,    2724,    2723
   12809,    2652,    2653,    2725,    2724
   12810,    2653,    2654,    2726,    2725
   12811,    2654,    2655,    2727,    2726
   12812,    2655,    2656,    2728,    2727
   12813,    2656,    2657,    2729,    2728
   12814,    2657,    2658,    2730,    2729
   12815,    2658,    2659,    2731,    2730
   12816,    2659,    2660,    2732,    2731
   12817,    2660,    2661,    2733,    2732
   12818,    2661,    2662,    2734,    2733
   12819,    2662,    2663,    2735,    2734
   12820,    2663,    2664,    2736,    2735
   12821,    2664,    2665,    2737,    2736
   12822,    2665,    2666,    2738,    2737
   12823,    2666,    2667,    2739,    2738
   12824,    2667,    2668,    2740,    2739
   12825,    2668,    2669,    2741,    2740
   12826,    2669,    2670,    2742,    2741
   12827,    2670,    2671,    2743,    2742
   12828,    2671,    2672,    2744,    2743
   12829,    2672,    2673,    2745,    2744
   12830,    2673,    2674,    2746,    2745
   12831,    2674,    2675,    2747,    2746
   12832,    2675,    2676,    2748,    2747
   12833,    2676,    2677,    2749,    2748
   12834,    2677,    2678,    2750,    2749
   12835,    2678,    2679,    2751,    2750
   12836,    2679,    2680,    2752,    2751
   12837,    2680,    2681,    2753,    2752
   12838,    2681,    2682,    2754,    2753
   12839,    2682,    2683,    2755,    2754
   12840,    2683,    2684,    2756,    2755
   12841,    2684,    2685,    2757,    2756
   12842,    2685,    2686,    2758,    2757
   12843,    2686,    2687,    2759,    2758
   12844,    2687,    2688,    2760,    2759
   12845,    2688,    2689,    2761,    2760
   12846,    2689,    2690,    2762,    2761
   12847,    2690,    2691,    2763,    2762
   12848,    2691,    2692,    2764,    2763
   12849,    2692,    2693,    2765,    2764
   12850,    2693,    2694,    2766,    2765
   12851,    2694,    2695,    2767,    2766
   12852,    2696,    2697,    2769,    2768
   12853,    2697,    2698,    2770,    2769
   12854,    2698,    2699,    2771,    2770
   12855,    2699,    2700,    2772,    2771
   12856,    2700,    2701,    2773,    2772
   12857,    2701,    2702,    2774,    2773
   12858,    2702,    2703,    2775,    2774
   12859,    2703,    2704,    2776,    2775
   12860,    2704,    2705,    2777,    2776
   12861,    2705,    2706,    2778,    2777
   12862,    2706,    2707,    2779,    2778
   12863,    2707,    2708,    2780,    2779
   12864,    2708,    2709,    2781,    2780
   12865,    2709,    2710,    2782,    2781
   12866,    2710,    2711,    2783,    2782
   12867,    2711,    2712,    2784,    2783
   12868,    2712,    2713,    2785,    2784
   12869,    2713,    2714,    2786,    2785
   12870,    2714,    2715,    2787,    2786
   12871,    2715,    2716,    2788,    2787
   12872,    2716,    2717,    2789,    2788
   12873,    2717,    2718,    2790,    2789
   12874,    2718,    2719,    2791,    2790
   12875,    2719,    2720,    2792,    2791
   12876,    2720,    2721,    2793,    2792
   12877,    2721,    2722,    2794,    2793
   12878,    2722,    2723,    2795,    2794
   12879,    2723,    2724,    2796,    2795
   12880,    2724,    2725,    2797,    2796
   12881,    2725,    2726,    2798,    2797
   12882,    2726,    2727,    2799,    2798
   12883,    2727,    2728,    2800,    2799
   12884,    2728,    2729,    2801,    2800
   12885,    2729,    2730,    2802,    2801
   12886,    2730,    2731,    2803,    2802
   12887,    2731,    2732,    2804,    2803
   12888,    2732,    2733,    2805,    2804
   12889,    2733,    2734,    2806,    2805
   12890,    2734,    2735,    2807,    2806
   12891,    2735,    2736,    2808,    2807
   12892,    2736,    2737,    2809,    2808
   12893,    2737,    2738,    2810,    2809
   12894,    2738,    2739,    2811,    2810
   12895,    2739,    2740,    2812,    2811
   12896,    2740,    2741,    2813,    2812
   12897,    2741,    2742,    2814,    2813
   12898,    2742,    2743,    2815,    2814
   12899,    2743,    2744,    2816,    2815
   12900,    2744,    2745,    2817,    2816
   12901,    2745,    2746,    2818,    2817
   12902,    2746,    2747,    2819,    2818
   12903,    2747,    2748,    2820,    2819
   12904,    2748,    2749,    2821,    2820
   12905,    2749,    2750,    2822,    2821
   12906,    2750,    2751,    2823,    2822
   12907,    2751,    2752,    2824,    2823
   12908,    2752,    2753,    2825,    2824
   12909,    2753,    2754,    2826,    2825
   12910,    2754,    2755,    2827,    2826
   12911,    2755,    2756,    2828,    2827
   12912,    2756,    2757,    2829,    2828
   12913,    2757,    2758,    2830,    2829
   12914,    2758,    2759,    2831,    2830
   12915,    2759,    2760,    2832,    2831
   12916,    2760,    2761,    2833,    2832
   12917,    2761,    2762,    2834,    2833
   12918,    2762,    2763,    2835,    2834
   12919,    2763,    2764,    2836,    2835
   12920,    2764,    2765,    2837,    2836
   12921,    2765,    2766,    2838,    2837
   12922,    2766,    2767,    2839,    2838
   12923,    2768,    2769,    2841,    2840
   12924,    2769,    2770,    2842,    2841
   12925,    2770,    2771,    2843,    2842
   12926,    2771,    2772,    2844,    2843
   12927,    2772,    2773,    2845,    2844
   12928,    2773,    2774,    2846,    2845
   12929,    2774,    2775,    2847,    2846
   12930,    2775,    2776,    2848,    2847
   12931,    2776,    2777,    2849,    2848
   12932,    2777,    2778,    2850,    2849
   12933,    2778,    2779,    2851,    2850
   12934,    2779,    2780,    2852,    2851
   12935,    2780,    2781,    2853,    2852
   12936,    2781,    2782,    2854,    2853
   12937,    2782,    2783,    2855,    2854
   12938,    2783,    2784,    2856,    2855
   12939,    2784,    2785,    2857,    2856
   12940,    2785,    2786,    2858,    2857
   12941,    2786,    2787,    2859,    2858
   12942,    2787,    2788,    2860,    2859
   12943,    2788,    2789,    2861,    2860
   12944,    2789,    2790,    2862,    2861
   12945,    2790,    2791,    2863,    2862
   12946,    2791,    2792,    2864,    2863
   12947,    2792,    2793,    2865,    2864
   12948,    2793,    2794,    2866,    2865
   12949,    2794,    2795,    2867,    2866
   12950,    2795,    2796,    2868,    2867
   12951,    2796,    2797,    2869,    2868
   12952,    2797,    2798,    2870,    2869
   12953,    2798,    2799,    2871,    2870
   12954,    2799,    2800,    2872,    2871
   12955,    2800,    2801,    2873,    2872
   12956,    2801,    2802,    2874,    2873
   12957,    2802,    2803,    2875,    2874
   12958,    2803,    2804,    2876,    2875
   12959,    2804,    2805,    2877,    2876
   12960,    2805,    2806,    2878,    2877
   12961,    2806,    2807,    2879,    2878
   12962,    2807,    2808,    2880,    2879
   12963,    2808,    2809,    2881,    2880
   12964,    2809,    2810,    2882,    2881
   12965,    2810,    2811,    2883,    2882
   12966,    2811,    2812,    2884,    2883
   12967,    2812,    2813,    2885,    2884
   12968,    2813,    2814,    2886,    2885
   12969,    2814,    2815,    2887,    2886
   12970,    2815,    2816,    2888,    2887
   12971,    2816,    2817,    2889,    2888
   12972,    2817,    2818,    2890,    2889
   12973,    2818,    2819,    2891,    2890
   12974,    2819,    2820,    2892,    2891
   12975,    2820,    2821,    2893,    2892
   12976,    2821,    2822,    2894,    2893
   12977,    2822,    2823,    2895,    2894
   12978,    2823,    2824,    2896,    2895
   12979,    2824,    2825,    2897,    2896
   12980,    2825,    2826,    2898,    2897
   12981,    2826,    2827,    2899,    2898
   12982,    2827,    2828,    2900,    2899
   12983,    2828,    2829,    2901,    2900
   12984,    2829,    2830,    2902,    2901
   12985,    2830,    2831,    2903,    2902
   12986,    2831,    2832,    2904,    2903
   12987,    2832,    2833,    2905,    2904
   12988,    2833,    2834,    2906,    2905
   12989,    2834,    2835,    2907,    2906
   12990,    2835,    2836,    2908,    2907
   12991,    2836,    2837,    2909,    2908
   12992,    2837,    2838,    2910,    2909
   12993,    2838,    2839,    2911,    2910
   12994,    2840,    2841,    2913,    2912
   12995,    2841,    2842,    2914,    2913
   12996,    2842,    2843,    2915,    2914
   12997,    2843,    2844,    2916,    2915
   12998,    2844,    2845,    2917,    2916
   12999,    2845,    2846,    2918,    2917
   13000,    2846,    2847,    2919,    2918
   13001,    2847,    2848,    2920,    2919
   13002,    2848,    2849,    2921,    2920
   13003,    2849,    2850,    2922,    2921
   13004,    2850,    2851,    2923,    2922
   13005,    2851,    2852,    2924,    2923
   13006,    2852,    2853,    2925,    2924
   13007,    2853,    2854,    2926,    2925
   13008,    2854,    2855,    2927,    2926
   13009,    2855,    2856,    2928,    2927
   13010,    2856,    2857,    2929,    2928
   13011,    2857,    2858,    2930,    2929
   13012,    2858,    2859,    2931,    2930
   13013,    2859,    2860,    2932,    2931
   13014,    2860,    2861,    2933,    2932
   13015,    2861,    2862,    2934,    2933
   13016,    2862,    2863,    2935,    2934
   13017,    2863,    2864,    2936,    2935
   13018,    2864,    2865,    2937,    2936
   13019,    2865,    2866,    2938,    2937
   13020,    2866,    2867,    2939,    2938
   13021,    2867,    2868,    2940,    2939
   13022,    2868,    2869,    2941,    2940
   13023,    2869,    2870,    2942,    2941
   13024,    2870,    2871,    2943,    2942
   13025,    2871,    2872,    2944,    2943
   13026,    2872,    2873,    2945,    2944
   13027,    2873,    2874,    2946,    2945
   13028,    2874,    2875,    2947,    2946
   13029,    2875,    2876,    2948,    2947
   13030,    2876,    2877,    2949,    2948
   13031,    2877,    2878,    2950,    2949
   13032,    2878,    2879,    2951,    2950
   13033,    2879,    2880,    2952,    2951
   13034,    2880,    2881,    2953,    2952
   13035,    2881,    2882,    2954,    2953
   13036,    2882,    2883,    2955,    2954
   13037,    2883,    2884,    2956,    2955
   13038,    2884,    2885,    2957,    2956
   13039,    2885,    2886,    2958,    2957
   13040,    2886,    2887,    2959,    2958
   13041,    2887,    2888,    2960,    2959
   13042,    2888,    2889,    2961,    2960
   13043,    2889,    2890,    2962,    2961
   13044,    2890,    2891,    2963,    2962
   13045,    2891,    2892,    2964,    2963
   13046,    2892,    2893,    2965,    2964
   13047,    2893,    2894,    2966,    2965
   13048,    2894,    2895,    2967,    2966
   13049,    2895,    2896,    2968,    2967
   13050,    2896,    2897,    2969,    2968
   13051,    2897,    2898,    2970,    2969
   13052,    2898,    2899,    2971,    2970
   13053,    2899,    2900,    2972,    2971
   13054,    2900,    2901,    2973,    2972
   13055,    2901,    2902,    2974,    2973
   13056,    2902,    2903,    2975,    2974
   13057,    2903,    2904,    2976,    2975
   13058,    2904,    2905,    2977,    2976
   13059,    2905,    2906,    2978,    2977
   13060,    2906,    2907,    2979,    2978
   13061,    2907,    2908,    2980,    2979
   13062,    2908,    2909,    2981,    2980
   13063,    2909,    2910,    2982,    2981
   13064,    2910,    2911,    2983,    2982
   13065,    2912,    2913,    2985,    2984
   13066,    2913,    2914,    2986,    2985
   13067,    2914,    2915,    2987,    2986
   13068,    2915,    2916,    2988,    2987
   13069,    2916,    2917,    2989,    2988
   13070,    2917,    2918,    2990,    2989
   13071,    2918,    2919,    2991,    2990
   13072,    2919,    2920,    2992,    2991
   13073,    2920,    2921,    2993,    2992
   13074,    2921,    2922,    2994,    2993
   13075,    2922,    2923,    2995,    2994
   13076,    2923,    2924,    2996,    2995
   13077,    2924,    2925,    2997,    2996
   13078,    2925,    2926,    2998,    2997
   13079,    2926,    2927,    2999,    2998
   13080,    2927,    2928,    3000,    2999
   13081,    2928,    2929,    3001,    3000
   13082,    2929,    2930,    3002,    3001
   13083,    2930,    2931,    3003,    3002
   13084,    2931,    2932,    3004,    3003
   13085,    2932,    2933,    3005,    3004
   13086,    2933,    2934,    3006,    3005
   13087,    2934,    2935,    3007,    3006
   13088,    2935,    2936,    3008,    3007
   13089,    2936,    2937,    3009,    3008
   13090,    2937,    2938,    3010,    3009
   13091,    2938,    2939,    3011,    3010
   13092,    2939,    2940,    3012,    3011
   13093,    2940,    2941,    3013,    3012
   13094,    2941,    2942,    3014,    3013
   13095,    2942,    2943,    3015,    3014
   13096,    2943,    2944,    3016,    3015
   13097,    2944,    2945,    3017,    3016
   13098,    2945,    2946,    3018,    3017
   13099,    2946,    2947,    3019,    3018
   13100,    2947,    2948,    3020,    3019
   13101,    2948,    2949,    3021,    3020
   13102,    2949,    2950,    3022,    3021
   13103,    2950,    2951,    3023,    3022
   13104,    2951,    2952,    3024,    3023
   13105,    2952,    2953,    3025,    3024
   13106,    2953,    2954,    3026,    3025
   13107,    2954,    2955,    3027,    3026
   13108,    2955,    2956,    3028,    3027
   13109,    2956,    2957,    3029,    3028
   13110,    2957,    2958,    3030,    3029
   13111,    2958,    2959,    3031,    3030
   13112,    2959,    2960,    3032,    3031
   13113,    2960,    2961,    3033,    3032
   13114,    2961,    2962,    3034,    3033
   13115,    2962,    2963,    3035,    3034
   13116,    2963,    2964,    3036,    3035
   13117,    2964,    2965,    3037,    3036
   13118,    2965,    2966,    3038,    3037
   13119,    2966,    2967,    3039,    3038
   13120,    2967,    2968,    3040,    3039
   13121,    2968,    2969,    3041,    3040
   13122,    2969,    2970,    3042,    3041
   13123,    2970,    2971,    3043,    3042
   13124,    2971,    2972,    3044,    3043
   13125,    2972,    2973,    3045,    3044
   13126,    2973,    2974,    3046,    3045
   13127,    2974,    2975,    3047,    3046
   13128,    2975,    2976,    3048,    3047
   13129,    2976,    2977,    3049,    3048
   13130,    2977,    2978,    3050,    3049
   13131,    2978,    2979,    3051,    3050
   13132,    2979,    2980,    3052,    3051
   13133,    2980,    2981,    3053,    3052
   13134,    2981,    2982,    3054,    3053
   13135,    2982,    2983,    3055,    3054
   13136,    2984,    2985,    3057,    3056
   13137,    2985,    2986,    3058,    3057
   13138,    2986,    2987,    3059,    3058
   13139,    2987,    2988,    3060,    3059
   13140,    2988,    2989,    3061,    3060
   13141,    2989,    2990,    3062,    3061
   13142,    2990,    2991,    3063,    3062
   13143,    2991,    2992,    3064,    3063
   13144,    2992,    2993,    3065,    3064
   13145,    2993,    2994,    3066,    3065
   13146,    2994,    2995,    3067,    3066
   13147,    2995,    2996,    3068,    3067
   13148,    2996,    2997,    3069,    3068
   13149,    2997,    2998,    3070,    3069
   13150,    2998,    2999,    3071,    3070
   13151,    2999,    3000,    3072,    3071
   13152,    3000,    3001,    3073,    3072
   13153,    3001,    3002,    3074,    3073
   13154,    3002,    3003,    3075,    3074
   13155,    3003,    3004,    3076,    3075
   13156,    3004,    3005,    3077,    3076
   13157,    3005,    3006,    3078,    3077
   13158,    3006,    3007,    3079,    3078
   13159,    3007,    3008,    3080,    3079
   13160,    3008,    3009,    3081,    3080
   13161,    3009,    3010,    3082,    3081
   13162,    3010,    3011,    3083,    3082
   13163,    3011,    3012,    3084,    3083
   13164,    3012,    3013,    3085,    3084
   13165,    3013,    3014,    3086,    3085
   13166,    3014,    3015,    3087,    3086
   13167,    3015,    3016,    3088,    3087
   13168,    3016,    3017,    3089,    3088
   13169,    3017,    3018,    3090,    3089
   13170,    3018,    3019,    3091,    3090
   13171,    3019,    3020,    3092,    3091
   13172,    3020,    3021,    3093,    3092
   13173,    3021,    3022,    3094,    3093
   13174,    3022,    3023,    3095,    3094
   13175,    3023,    3024,    3096,    3095
   13176,    3024,    3025,    3097,    3096
   13177,    3025,    3026,    3098,    3097
   13178,    3026,    3027,    3099,    3098
   13179,    3027,    3028,    3100,    3099
   13180,    3028,    3029,    3101,    3100
   13181,    3029,    3030,    3102,    3101
   13182,    3030,    3031,    3103,    3102
   13183,    3031,    3032,    3104,    3103
   13184,    3032,    3033,    3105,    3104
   13185,    3033,    3034,    3106,    3105
   13186,    3034,    3035,    3107,    3106
   13187,    3035,    3036,    3108,    3107
   13188,    3036,    3037,    3109,    3108
   13189,    3037,    3038,    3110,    3109
   13190,    3038,    3039,    3111,    3110
   13191,    3039,    3040,    3112,    3111
   13192,    3040,    3041,    3113,    3112
   13193,    3041,    3042,    3114,    3113
   13194,    3042,    3043,    3115,    3114
   13195,    3043,    3044,    3116,    3115
   13196,    3044,    3045,    3117,    3116
   13197,    3045,    3046,    3118,    3117
   13198,    3046,    3047,    3119,    3118
   13199,    3047,    3048,    3120,    3119
   13200,    3048,    3049,    3121,    3120
   13201,    3049,    3050,    3122,    3121
   13202,    3050,    3051,    3123,    3122
   13203,    3051,    3052,    3124,    3123
   13204,    3052,    3053,    3125,    3124
   13205,    3053,    3054,    3126,    3125
   13206,    3054,    3055,    3127,    3126
   13207,    3056,    3057,    3129,    3128
   13208,    3057,    3058,    3130,    3129
   13209,    3058,    3059,    3131,    3130
   13210,    3059,    3060,    3132,    3131
   13211,    3060,    3061,    3133,    3132
   13212,    3061,    3062,    3134,    3133
   13213,    3062,    3063,    3135,    3134
   13214,    3063,    3064,    3136,    3135
   13215,    3064,    3065,    3137,    3136
   13216,    3065,    3066,    3138,    3137
   13217,    3066,    3067,    3139,    3138
   13218,    3067,    3068,    3140,    3139
   13219,    3068,    3069,    3141,    3140
   13220,    3069,    3070,    3142,    3141
   13221,    3070,    3071,    3143,    3142
   13222,    3071,    3072,    3144,    3143
   13223,    3072,    3073,    3145,    3144
   13224,    3073,    3074,    3146,    3145
   13225,    3074,    3075,    3147,    3146
   13226,    3075,    3076,    3148,    3147
   13227,    3076,    3077,    3149,    3148
   13228,    3077,    3078,    3150,    3149
   13229,    3078,    3079,    3151,    3150
   13230,    3079,    3080,    3152,    3151
   13231,    3080,    3081,    3153,    3152
   13232,    3081,    3082,    3154,    3153
   13233,    3082,    3083,    3155,    3154
   13234,    3083,    3084,    3156,    3155
   13235,    3084,    3085,    3157,    3156
   13236,    3085,    3086,    3158,    3157
   13237,    3086,    3087,    3159,    3158
   13238,    3087,    3088,    3160,    3159
   13239,    3088,    3089,    3161,    3160
   13240,    3089,    3090,    3162,    3161
   13241,    3090,    3091,    3163,    3162
   13242,    3091,    3092,    3164,    3163
   13243,    3092,    3093,    3165,    3164
   13244,    3093,    3094,    3166,    3165
   13245,    3094,    3095,    3167,    3166
   13246,    3095,    3096,    3168,    3167
   13247,    3096,    3097,    3169,    3168
   13248,    3097,    3098,    3170,    3169
   13249,    3098,    3099,    3171,    3170
   13250,    3099,    3100,    3172,    3171
   13251,    3100,    3101,    3173,    3172
   13252,    3101,    3102,    3174,    3173
   13253,    3102,    3103,    3175,    3174
   13254,    3103,    3104,    3176,    3175
   13255,    3104,    3105,    3177,    3176
   13256,    3105,    3106,    3178,    3177
   13257,    3106,    3107,    3179,    3178
   13258,    3107,    3108,    3180,    3179
   13259,    3108,    3109,    3181,    3180
   13260,    3109,    3110,    3182,    3181
   13261,    3110,    3111,    3183,    3182
   13262,    3111,    3112,    3184,    3183
   13263,    3112,    3113,    3185,    3184
   13264,    3113,    3114,    3186,    3185
   13265,    3114,    3115,    3187,    3186
   13266,    3115,    3116,    3188,    3187
   13267,    3116,    3117,    3189,    3188
   13268,    3117,    3118,    3190,    3189
   13269,    3118,    3119,    3191,    3190
   13270,    3119,    3120,    3192,    3191
   13271,    3120,    3121,    3193,    3192
   13272,    3121,    3122,    3194,    3193
   13273,    3122,    3123,    3195,    3194
   13274,    3123,    3124,    3196,    3195
   13275,    3124,    3125,    3197,    3196
   13276,    3125,    3126,    3198,    3197
   13277,    3126,    3127,    3199,    3198
   13278,    3128,    3129,    3201,    3200
   13279,    3129,    3130,    3202,    3201
   13280,    3130,    3131,    3203,    3202
   13281,    3131,    3132,    3204,    3203
   13282,    3132,    3133,    3205,    3204
   13283,    3133,    3134,    3206,    3205
   13284,    3134,    3135,    3207,    3206
   13285,    3135,    3136,    3208,    3207
   13286,    3136,    3137,    3209,    3208
   13287,    3137,    3138,    3210,    3209
   13288,    3138,    3139,    3211,    3210
   13289,    3139,    3140,    3212,    3211
   13290,    3140,    3141,    3213,    3212
   13291,    3141,    3142,    3214,    3213
   13292,    3142,    3143,    3215,    3214
   13293,    3143,    3144,    3216,    3215
   13294,    3144,    3145,    3217,    3216
   13295,    3145,    3146,    3218,    3217
   13296,    3146,    3147,    3219,    3218
   13297,    3147,    3148,    3220,    3219
   13298,    3148,    3149,    3221,    3220
   13299,    3149,    3150,    3222,    3221
   13300,    3150,    3151,    3223,    3222
   13301,    3151,    3152,    3224,    3223
   13302,    3152,    3153,    3225,    3224
   13303,    3153,    3154,    3226,    3225
   13304,    3154,    3155,    3227,    3226
   13305,    3155,    3156,    3228,    3227
   13306,    3156,    3157,    3229,    3228
   13307,    3157,    3158,    3230,    3229
   13308,    3158,    3159,    3231,    3230
   13309,    3159,    3160,    3232,    3231
   13310,    3160,    3161,    3233,    3232
   13311,    3161,    3162,    3234,    3233
   13312,    3162,    3163,    3235,    3234
   13313,    3163,    3164,    3236,    3235
   13314,    3164,    3165,    3237,    3236
   13315,    3165,    3166,    3238,    3237
   13316,    3166,    3167,    3239,    3238
   13317,    3167,    3168,    3240,    3239
   13318,    3168,    3169,    3241,    3240
   13319,    3169,    3170,    3242,    3241
   13320,    3170,    3171,    3243,    3242
   13321,    3171,    3172,    3244,    3243
   13322,    3172,    3173,    3245,    3244
   13323,    3173,    3174,    3246,    3245
   13324,    3174,    3175,    3247,    3246
   13325,    3175,    3176,    3248,    3247
   13326,    3176,    3177,    3249,    3248
   13327,    3177,    3178,    3250,    3249
   13328,    3178,    3179,    3251,    3250
   13329,    3179,    3180,    3252,    3251
   13330,    3180,    3181,    3253,    3252
   13331,    3181,    3182,    3254,    3253
   13332,    3182,    3183,    3255,    3254
   13333,    3183,    3184,    3256,    3255
   13334,    3184,    3185,    3257,    3256
   13335,    3185,    3186,    3258,    3257
   13336,    3186,    3187,    3259,    3258
   13337,    3187,    3188,    3260,    3259
   13338,    3188,    3189,    3261,    3260
   13339,    3189,    3190,    3262,    3261
   13340,    3190,    3191,    3263,    3262
   13341,    3191,    3192,    3264,    3263
   13342,    3192,    3193,    3265,    3264
   13343,    3193,    3194,    3266,    3265
   13344,    3194,    3195,    3267,    3266
   13345,    3195,    3196,    3268,    3267
   13346,    3196,    3197,    3269,    3268
   13347,    3197,    3198,    3270,    3269
   13348,    3198,    3199,    3271,    3270
   13349,    3200,    3201,    3273,    3272
   13350,    3201,    3202,    3274,    3273
   13351,    3202,    3203,    3275,    3274
   13352,    3203,    3204,    3276,    3275
   13353,    3204,    3205,    3277,    3276
   13354,    3205,    3206,    3278,    3277
   13355,    3206,    3207,    3279,    3278
   13356,    3207,    3208,    3280,    3279
   13357,    3208,    3209,    3281,    3280
   13358,    3209,    3210,    3282,    3281
   13359,    3210,    3211,    3283,    3282
   13360,    3211,    3212,    3284,    3283
   13361,    3212,    3213,    3285,    3284
   13362,    3213,    3214,    3286,    3285
   13363,    3214,    3215,    3287,    3286
   13364,    3215,    3216,    3288,    3287
   13365,    3216,    3217,    3289,    3288
   13366,    3217,    3218,    3290,    3289
   13367,    3218,    3219,    3291,    3290
   13368,    3219,    3220,    3292,    3291
   13369,    3220,    3221,    3293,    3292
   13370,    3221,    3222,    3294,    3293
   13371,    3222,    3223,    3295,    3294
   13372,    3223,    3224,    3296,    3295
   13373,    3224,    3225,    3297,    3296
   13374,    3225,    3226,    3298,    3297
   13375,    3226,    3227,    3299,    3298
   13376,    3227,    3228,    3300,    3299
   13377,    3228,    3229,    3301,    3300
   13378,    3229,    3230,    3302,    3301
   13379,    3230,    3231,    3303,    3302
   13380,    3231,    3232,    3304,    3303
   13381,    3232,    3233,    3305,    3304
   13382,    3233,    3234,    3306,    3305
   13383,    3234,    3235,    3307,    3306
   13384,    3235,    3236,    3308,    3307
   13385,    3236,    3237,    3309,    3308
   13386,    3237,    3238,    3310,    3309
   13387,    3238,    3239,    3311,    3310
   13388,    3239,    3240,    3312,    3311
   13389,    3240,    3241,    3313,    3312
   13390,    3241,    3242,    3314,    3313
   13391,    3242,    3243,    3315,    3314
   13392,    3243,    3244,    3316,    3315
   13393,    3244,    3245,    3317,    3316
   13394,    3245,    3246,    3318,    3317
   13395,    3246,    3247,    3319,    3318
   13396,    3247,    3248,    3320,    3319
   13397,    3248,    3249,    3321,    3320
   13398,    3249,    3250,    3322,    3321
   13399,    3250,    3251,    3323,    3322
   13400,    3251,    3252,    3324,    3323
   13401,    3252,    3253,    3325,    3324
   13402,    3253,    3254,    3326,    3325
   13403,    3254,    3255,    3327,    3326
   13404,    3255,    3256,    3328,    3327
   13405,    3256,    3257,    3329,    3328
   13406,    3257,    3258,    3330,    3329
   13407,    3258,    3259,    3331,    3330
   13408,    3259,    3260,    3332,    3331
   13409,    3260,    3261,    3333,    3332
   13410,    3261,    3262,    3334,    3333
   13411,    3262,    3263,    3335,    3334
   13412,    3263,    3264,    3336,    3335
   13413,    3264,    3265,    3337,    3336
   13414,    3265,    3266,    3338,    3337
   13415,    3266,    3267,    3339,    3338
   13416,    3267,    3268,    3340,    3339
   13417,    3268,    3269,    3341,    3340
   13418,    3269,    3270,    3342,    3341
   13419,    3270,    3271,    3343,    3342
   13420,    3272,    3273,    3345,    3344
   13421,    3273,    3274,    3346,    3345
   13422,    3274,    3275,    3347,    3346
   13423,    3275,    3276,    3348,    3347
   13424,    3276,    3277,    3349,    3348
   13425,    3277,    3278,    3350,    3349
   13426,    3278,    3279,    3351,    3350
   13427,    3279,    3280,    3352,    3351
   13428,    3280,    3281,    3353,    3352
   13429,    3281,    3282,    3354,    3353
   13430,    3282,    3283,    3355,    3354
   13431,    3283,    3284,    3356,    3355
   13432,    3284,    3285,    3357,    3356
   13433,    3285,    3286,    3358,    3357
   13434,    3286,    3287,    3359,    3358
   13435,    3287,    3288,    3360,    3359
   13436,    3288,    3289,    3361,    3360
   13437,    3289,    3290,    3362,    3361
   13438,    3290,    3291,    3363,    3362
   13439,    3291,    3292,    3364,    3363
   13440,    3292,    3293,    3365,    3364
   13441,    3293,    3294,    3366,    3365
   13442,    3294,    3295,    3367,    3366
   13443,    3295,    3296,    3368,    3367
   13444,    3296,    3297,    3369,    3368
   13445,    3297,    3298,    3370,    3369
   13446,    3298,    3299,    3371,    3370
   13447,    3299,    3300,    3372,    3371
   13448,    3300,    3301,    3373,    3372
   13449,    3301,    3302,    3374,    3373
   13450,    3302,    3303,    3375,    3374
   13451,    3303,    3304,    3376,    3375
   13452,    3304,    3305,    3377,    3376
   13453,    3305,    3306,    3378,    3377
   13454,    3306,    3307,    3379,    3378
   13455,    3307,    3308,    3380,    3379
   13456,    3308,    3309,    3381,    3380
   13457,    3309,    3310,    3382,    3381
   13458,    3310,    3311,    3383,    3382
   13459,    3311,    3312,    3384,    3383
   13460,    3312,    3313,    3385,    3384
   13461,    3313,    3314,    3386,    3385
   13462,    3314,    3315,    3387,    3386
   13463,    3315,    3316,    3388,    3387
   13464,    3316,    3317,    3389,    3388
   13465,    3317,    3318,    3390,    3389
   13466,    3318,    3319,    3391,    3390
   13467,    3319,    3320,    3392,    3391
   13468,    3320,    3321,    3393,    3392
   13469,    3321,    3322,    3394,    3393
   13470,    3322,    3323,    3395,    3394
   13471,    3323,    3324,    3396,    3395
   13472,    3324,    3325,    3397,    3396
   13473,    3325,    3326,    3398,    3397
   13474,    3326,    3327,    3399,    3398
   13475,    3327,    3328,    3400,    3399
   13476,    3328,    3329,    3401,    3400
   13477,    3329,    3330,    3402,    3401
   13478,    3330,    3331,    3403,    3402
   13479,    3331,    3332,    3404,    3403
   13480,    3332,    3333,    3405,    3404
   13481,    3333,    3334,    3406,    3405
   13482,    3334,    3335,    3407,    3406
   13483,    3335,    3336,    3408,    3407
   13484,    3336,    3337,    3409,    3408
   13485,    3337,    3338,    3410,    3409
   13486,    3338,    3339,    3411,    3410
   13487,    3339,    3340,    3412,    3411
   13488,    3340,    3341,    3413,    3412
   13489,    3341,    3342,    3414,    3413
   13490,    3342,    3343,    3415,    3414
   13491,    3344,    3345,    3417,    3416
   13492,    3345,    3346,    3418,    3417
   13493,    3346,    3347,    3419,    3418
   13494,    3347,    3348,    3420,    3419
   13495,    3348,    3349,    3421,    3420
   13496,    3349,    3350,    3422,    3421
   13497,    3350,    3351,    3423,    3422
   13498,    3351,    3352,    3424,    3423
   13499,    3352,    3353,    3425,    3424
   13500,    3353,    3354,    3426,    3425
   13501,    3354,    3355,    3427,    3426
   13502,    3355,    3356,    3428,    3427
   13503,    3356,    3357,    3429,    3428
   13504,    3357,    3358,    3430,    3429
   13505,    3358,    3359,    3431,    3430
   13506,    3359,    3360,    3432,    3431
   13507,    3360,    3361,    3433,    3432
   13508,    3361,    3362,    3434,    3433
   13509,    3362,    3363,    3435,    3434
   13510,    3363,    3364,    3436,    3435
   13511,    3364,    3365,    3437,    3436
   13512,    3365,    3366,    3438,    3437
   13513,    3366,    3367,    3439,    3438
   13514,    3367,    3368,    3440,    3439
   13515,    3368,    3369,    3441,    3440
   13516,    3369,    3370,    3442,    3441
   13517,    3370,    3371,    3443,    3442
   13518,    3371,    3372,    3444,    3443
   13519,    3372,    3373,    3445,    3444
   13520,    3373,    3374,    3446,    3445
   13521,    3374,    3375,    3447,    3446
   13522,    3375,    3376,    3448,    3447
   13523,    3376,    3377,    3449,    3448
   13524,    3377,    3378,    3450,    3449
   13525,    3378,    3379,    3451,    3450
   13526,    3379,    3380,    3452,    3451
   13527,    3380,    3381,    3453,    3452
   13528,    3381,    3382,    3454,    3453
   13529,    3382,    3383,    3455,    3454
   13530,    3383,    3384,    3456,    3455
   13531,    3384,    3385,    3457,    3456
   13532,    3385,    3386,    3458,    3457
   13533,    3386,    3387,    3459,    3458
   13534,    3387,    3388,    3460,    3459
   13535,    3388,    3389,    3461,    3460
   13536,    3389,    3390,    3462,    3461
   13537,    3390,    3391,    3463,    3462
   13538,    3391,    3392,    3464,    3463
   13539,    3392,    3393,    3465,    3464
   13540,    3393,    3394,    3466,    3465
   13541,    3394,    3395,    3467,    3466
   13542,    3395,    3396,    3468,    3467
   13543,    3396,    3397,    3469,    3468
   13544,    3397,    3398,    3470,    3469
   13545,    3398,    3399,    3471,    3470
   13546,    3399,    3400,    3472,    3471
   13547,    3400,    3401,    3473,    3472
   13548,    3401,    3402,    3474,    3473
   13549,    3402,    3403,    3475,    3474
   13550,    3403,    3404,    3476,    3475
   13551,    3404,    3405,    3477,    3476
   13552,    3405,    3406,    3478,    3477
   13553,    3406,    3407,    3479,    3478
   13554,    3407,    3408,    3480,    3479
   13555,    3408,    3409,    3481,    3480
   13556,    3409,    3410,    3482,    3481
   13557,    3410,    3411,    3483,    3482
   13558,    3411,    3412,    3484,    3483
   13559,    3412,    3413,    3485,    3484
   13560,    3413,    3414,    3486,    3485
   13561,    3414,    3415,    3487,    3486
   13562,    3416,    3417,    3489,    3488
   13563,    3417,    3418,    3490,    3489
   13564,    3418,    3419,    3491,    3490
   13565,    3419,    3420,    3492,    3491
   13566,    3420,    3421,    3493,    3492
   13567,    3421,    3422,    3494,    3493
   13568,    3422,    3423,    3495,    3494
   13569,    3423,    3424,    3496,    3495
   13570,    3424,    3425,    3497,    3496
   13571,    3425,    3426,    3498,    3497
   13572,    3426,    3427,    3499,    3498
   13573,    3427,    3428,    3500,    3499
   13574,    3428,    3429,    3501,    3500
   13575,    3429,    3430,    3502,    3501
   13576,    3430,    3431,    3503,    3502
   13577,    3431,    3432,    3504,    3503
   13578,    3432,    3433,    3505,    3504
   13579,    3433,    3434,    3506,    3505
   13580,    3434,    3435,    3507,    3506
   13581,    3435,    3436,    3508,    3507
   13582,    3436,    3437,    3509,    3508
   13583,    3437,    3438,    3510,    3509
   13584,    3438,    3439,    3511,    3510
   13585,    3439,    3440,    3512,    3511
   13586,    3440,    3441,    3513,    3512
   13587,    3441,    3442,    3514,    3513
   13588,    3442,    3443,    3515,    3514
   13589,    3443,    3444,    3516,    3515
   13590,    3444,    3445,    3517,    3516
   13591,    3445,    3446,    3518,    3517
   13592,    3446,    3447,    3519,    3518
   13593,    3447,    3448,    3520,    3519
   13594,    3448,    3449,    3521,    3520
   13595,    3449,    3450,    3522,    3521
   13596,    3450,    3451,    3523,    3522
   13597,    3451,    3452,    3524,    3523
   13598,    3452,    3453,    3525,    3524
   13599,    3453,    3454,    3526,    3525
   13600,    3454,    3455,    3527,    3526
   13601,    3455,    3456,    3528,    3527
   13602,    3456,    3457,    3529,    3528
   13603,    3457,    3458,    3530,    3529
   13604,    3458,    3459,    3531,    3530
   13605,    3459,    3460,    3532,    3531
   13606,    3460,    3461,    3533,    3532
   13607,    3461,    3462,    3534,    3533
   13608,    3462,    3463,    3535,    3534
   13609,    3463,    3464,    3536,    3535
   13610,    3464,    3465,    3537,    3536
   13611,    3465,    3466,    3538,    3537
   13612,    3466,    3467,    3539,    3538
   13613,    3467,    3468,    3540,    3539
   13614,    3468,    3469,    3541,    3540
   13615,    3469,    3470,    3542,    3541
   13616,    3470,    3471,    3543,    3542
   13617,    3471,    3472,    3544,    3543
   13618,    3472,    3473,    3545,    3544
   13619,    3473,    3474,    3546,    3545
   13620,    3474,    3475,    3547,    3546
   13621,    3475,    3476,    3548,    3547
   13622,    3476,    3477,    3549,    3548
   13623,    3477,    3478,    3550,    3549
   13624,    3478,    3479,    3551,    3550
   13625,    3479,    3480,    3552,    3551
   13626,    3480,    3481,    3553,    3552
   13627,    3481,    3482,    3554,    3553
   13628,    3482,    3483,    3555,    3554
   13629,    3483,    3484,    3556,    3555
   13630,    3484,    3485,    3557,    3556
   13631,    3485,    3486,    3558,    3557
   13632,    3486,    3487,    3559,    3558
   13633,    3488,    3489,    3561,    3560
   13634,    3489,    3490,    3562,    3561
   13635,    3490,    3491,    3563,    3562
   13636,    3491,    3492,    3564,    3563
   13637,    3492,    3493,    3565,    3564
   13638,    3493,    3494,    3566,    3565
   13639,    3494,    3495,    3567,    3566
   13640,    3495,    3496,    3568,    3567
   13641,    3496,    3497,    3569,    3568
   13642,    3497,    3498,    3570,    3569
   13643,    3498,    3499,    3571,    3570
   13644,    3499,    3500,    3572,    3571
   13645,    3500,    3501,    3573,    3572
   13646,    3501,    3502,    3574,    3573
   13647,    3502,    3503,    3575,    3574
   13648,    3503,    3504,    3576,    3575
   13649,    3504,    3505,    3577,    3576
   13650,    3505,    3506,    3578,    3577
   13651,    3506,    3507,    3579,    3578
   13652,    3507,    3508,    3580,    3579
   13653,    3508,    3509,    3581,    3580
   13654,    3509,    3510,    3582,    3581
   13655,    3510,    3511,    3583,    3582
   13656,    3511,    3512,    3584,    3583
   13657,    3512,    3513,    3585,    3584
   13658,    3513,    3514,    3586,    3585
   13659,    3514,    3515,    3587,    3586
   13660,    3515,    3516,    3588,    3587
   13661,    3516,    3517,    3589,    3588
   13662,    3517,    3518,    3590,    3589
   13663,    3518,    3519,    3591,    3590
   13664,    3519,    3520,    3592,    3591
   13665,    3520,    3521,    3593,    3592
   13666,    3521,    3522,    3594,    3593
   13667,    3522,    3523,    3595,    3594
   13668,    3523,    3524,    3596,    3595
   13669,    3524,    3525,    3597,    3596
   13670,    3525,    3526,    3598,    3597
   13671,    3526,    3527,    3599,    3598
   13672,    3527,    3528,    3600,    3599
   13673,    3528,    3529,    3601,    3600
   13674,    3529,    3530,    3602,    3601
   13675,    3530,    3531,    3603,    3602
   13676,    3531,    3532,    3604,    3603
   13677,    3532,    3533,    3605,    3604
   13678,    3533,    3534,    3606,    3605
   13679,    3534,    3535,    3607,    3606
   13680,    3535,    3536,    3608,    3607
   13681,    3536,    3537,    3609,    3608
   13682,    3537,    3538,    3610,    3609
   13683,    3538,    3539,    3611,    3610
   13684,    3539,    3540,    3612,    3611
   13685,    3540,    3541,    3613,    3612
   13686,    3541,    3542,    3614,    3613
   13687,    3542,    3543,    3615,    3614
   13688,    3543,    3544,    3616,    3615
   13689,    3544,    3545,    3617,    3616
   13690,    3545,    3546,    3618,    3617
   13691,    3546,    3547,    3619,    3618
   13692,    3547,    3548,    3620,    3619
   13693,    3548,    3549,    3621,    3620
   13694,    3549,    3550,    3622,    3621
   13695,    3550,    3551,    3623,    3622
   13696,    3551,    3552,    3624,    3623
   13697,    3552,    3553,    3625,    3624
   13698,    3553,    3554,    3626,    3625
   13699,    3554,    3555,    3627,    3626
   13700,    3555,    3556,    3628,    3627
   13701,    3556,    3557,    3629,    3628
   13702,    3557,    3558,    3630,    3629
   13703,    3558,    3559,    3631,    3630
   13704,    3560,    3561,    3633,    3632
   13705,    3561,    3562,    3634,    3633
   13706,    3562,    3563,    3635,    3634
   13707,    3563,    3564,    3636,    3635
   13708,    3564,    3565,    3637,    3636
   13709,    3565,    3566,    3638,    3637
   13710,    3566,    3567,    3639,    3638
   13711,    3567,    3568,    3640,    3639
   13712,    3568,    3569,    3641,    3640
   13713,    3569,    3570,    3642,    3641
   13714,    3570,    3571,    3643,    3642
   13715,    3571,    3572,    3644,    3643
   13716,    3572,    3573,    3645,    3644
   13717,    3573,    3574,    3646,    3645
   13718,    3574,    3575,    3647,    3646
   13719,    3575,    3576,    3648,    3647
   13720,    3576,    3577,    3649,    3648
   13721,    3577,    3578,    3650,    3649
   13722,    3578,    3579,    3651,    3650
   13723,    3579,    3580,    3652,    3651
   13724,    3580,    3581,    3653,    3652
   13725,    3581,    3582,    3654,    3653
   13726,    3582,    3583,    3655,    3654
   13727,    3583,    3584,    3656,    3655
   13728,    3584,    3585,    3657,    3656
   13729,    3585,    3586,    3658,    3657
   13730,    3586,    3587,    3659,    3658
   13731,    3587,    3588,    3660,    3659
   13732,    3588,    3589,    3661,    3660
   13733,    3589,    3590,    3662,    3661
   13734,    3590,    3591,    3663,    3662
   13735,    3591,    3592,    3664,    3663
   13736,    3592,    3593,    3665,    3664
   13737,    3593,    3594,    3666,    3665
   13738,    3594,    3595,    3667,    3666
   13739,    3595,    3596,    3668,    3667
   13740,    3596,    3597,    3669,    3668
   13741,    3597,    3598,    3670,    3669
   13742,    3598,    3599,    3671,    3670
   13743,    3599,    3600,    3672,    3671
   13744,    3600,    3601,    3673,    3672
   13745,    3601,    3602,    3674,    3673
   13746,    3602,    3603,    3675,    3674
   13747,    3603,    3604,    3676,    3675
   13748,    3604,    3605,    3677,    3676
   13749,    3605,    3606,    3678,    3677
   13750,    3606,    3607,    3679,    3678
   13751,    3607,    3608,    3680,    3679
   13752,    3608,    3609,    3681,    3680
   13753,    3609,    3610,    3682,    3681
   13754,    3610,    3611,    3683,    3682
   13755,    3611,    3612,    3684,    3683
   13756,    3612,    3613,    3685,    3684
   13757,    3613,    3614,    3686,    3685
   13758,    3614,    3615,    3687,    3686
   13759,    3615,    3616,    3688,    3687
   13760,    3616,    3617,    3689,    3688
   13761,    3617,    3618,    3690,    3689
   13762,    3618,    3619,    3691,    3690
   13763,    3619,    3620,    3692,    3691
   13764,    3620,    3621,    3693,    3692
   13765,    3621,    3622,    3694,    3693
   13766,    3622,    3623,    3695,    3694
   13767,    3623,    3624,    3696,    3695
   13768,    3624,    3625,    3697,    3696
   13769,    3625,    3626,    3698,    3697
   13770,    3626,    3627,    3699,    3698
   13771,    3627,    3628,    3700,    3699
   13772,    3628,    3629,    3701,    3700
   13773,    3629,    3630,    3702,    3701
   13774,    3630,    3631,    3703,    3702
   13775,    3632,    3633,    3705,    3704
   13776,    3633,    3634,    3706,    3705
   13777,    3634,    3635,    3707,    3706
   13778,    3635,    3636,    3708,    3707
   13779,    3636,    3637,    3709,    3708
   13780,    3637,    3638,    3710,    3709
   13781,    3638,    3639,    3711,    3710
   13782,    3639,    3640,    3712,    3711
   13783,    3640,    3641,    3713,    3712
   13784,    3641,    3642,    3714,    3713
   13785,    3642,    3643,    3715,    3714
   13786,    3643,    3644,    3716,    3715
   13787,    3644,    3645,    3717,    3716
   13788,    3645,    3646,    3718,    3717
   13789,    3646,    3647,    3719,    3718
   13790,    3647,    3648,    3720,    3719
   13791,    3648,    3649,    3721,    3720
   13792,    3649,    3650,    3722,    3721
   13793,    3650,    3651,    3723,    3722
   13794,    3651,    3652,    3724,    3723
   13795,    3652,    3653,    3725,    3724
   13796,    3653,    3654,    3726,    3725
   13797,    3654,    3655,    3727,    3726
   13798,    3655,    3656,    3728,    3727
   13799,    3656,    3657,    3729,    3728
   13800,    3657,    3658,    3730,    3729
   13801,    3658,    3659,    3731,    3730
   13802,    3659,    3660,    3732,    3731
   13803,    3660,    3661,    3733,    3732
   13804,    3661,    3662,    3734,    3733
   13805,    3662,    3663,    3735,    3734
   13806,    3663,    3664,    3736,    3735
   13807,    3664,    3665,    3737,    3736
   13808,    3665,    3666,    3738,    3737
   13809,    3666,    3667,    3739,    3738
   13810,    3667,    3668,    3740,    3739
   13811,    3668,    3669,    3741,    3740
   13812,    3669,    3670,    3742,    3741
   13813,    3670,    3671,    3743,    3742
   13814,    3671,    3672,    3744,    3743
   13815,    3672,    3673,    3745,    3744
   13816,    3673,    3674,    3746,    3745
   13817,    3674,    3675,    3747,    3746
   13818,    3675,    3676,    3748,    3747
   13819,    3676,    3677,    3749,    3748
   13820,    3677,    3678,    3750,    3749
   13821,    3678,    3679,    3751,    3750
   13822,    3679,    3680,    3752,    3751
   13823,    3680,    3681,    3753,    3752
   13824,    3681,    3682,    3754,    3753
   13825,    3682,    3683,    3755,    3754
   13826,    3683,    3684,    3756,    3755
   13827,    3684,    3685,    3757,    3756
   13828,    3685,    3686,    3758,    3757
   13829,    3686,    3687,    3759,    3758
   13830,    3687,    3688,    3760,    3759
   13831,    3688,    3689,    3761,    3760
   13832,    3689,    3690,    3762,    3761
   13833,    3690,    3691,    3763,    3762
   13834,    3691,    3692,    3764,    3763
   13835,    3692,    3693,    3765,    3764
   13836,    3693,    3694,    3766,    3765
   13837,    3694,    3695,    3767,    3766
   13838,    3695,    3696,    3768,    3767
   13839,    3696,    3697,    3769,    3768
   13840,    3697,    3698,    3770,    3769
   13841,    3698,    3699,    3771,    3770
   13842,    3699,    3700,    3772,    3771
   13843,    3700,    3701,    3773,    3772
   13844,    3701,    3702,    3774,    3773
   13845,    3702,    3703,    3775,    3774
   13846,    3704,    3705,    3777,    3776
   13847,    3705,    3706,    3778,    3777
   13848,    3706,    3707,    3779,    3778
   13849,    3707,    3708,    3780,    3779
   13850,    3708,    3709,    3781,    3780
   13851,    3709,    3710,    3782,    3781
   13852,    3710,    3711,    3783,    3782
   13853,    3711,    3712,    3784,    3783
   13854,    3712,    3713,    3785,    3784
   13855,    3713,    3714,    3786,    3785
   13856,    3714,    3715,    3787,    3786
   13857,    3715,    3716,    3788,    3787
   13858,    3716,    3717,    3789,    3788
   13859,    3717,    3718,    3790,    3789
   13860,    3718,    3719,    3791,    3790
   13861,    3719,    3720,    3792,    3791
   13862,    3720,    3721,    3793,    3792
   13863,    3721,    3722,    3794,    3793
   13864,    3722,    3723,    3795,    3794
   13865,    3723,    3724,    3796,    3795
   13866,    3724,    3725,    3797,    3796
   13867,    3725,    3726,    3798,    3797
   13868,    3726,    3727,    3799,    3798
   13869,    3727,    3728,    3800,    3799
   13870,    3728,    3729,    3801,    3800
   13871,    3729,    3730,    3802,    3801
   13872,    3730,    3731,    3803,    3802
   13873,    3731,    3732,    3804,    3803
   13874,    3732,    3733,    3805,    3804
   13875,    3733,    3734,    3806,    3805
   13876,    3734,    3735,    3807,    3806
   13877,    3735,    3736,    3808,    3807
   13878,    3736,    3737,    3809,    3808
   13879,    3737,    3738,    3810,    3809
   13880,    3738,    3739,    3811,    3810
   13881,    3739,    3740,    3812,    3811
   13882,    3740,    3741,    3813,    3812
   13883,    3741,    3742,    3814,    3813
   13884,    3742,    3743,    3815,    3814
   13885,    3743,    3744,    3816,    3815
   13886,    3744,    3745,    3817,    3816
   13887,    3745,    3746,    3818,    3817
   13888,    3746,    3747,    3819,    3818
   13889,    3747,    3748,    3820,    3819
   13890,    3748,    3749,    3821,    3820
   13891,    3749,    3750,    3822,    3821
   13892,    3750,    3751,    3823,    3822
   13893,    3751,    3752,    3824,    3823
   13894,    3752,    3753,    3825,    3824
   13895,    3753,    3754,    3826,    3825
   13896,    3754,    3755,    3827,    3826
   13897,    3755,    3756,    3828,    3827
   13898,    3756,    3757,    3829,    3828
   13899,    3757,    3758,    3830,    3829
   13900,    3758,    3759,    3831,    3830
   13901,    3759,    3760,    3832,    3831
   13902,    3760,    3761,    3833,    3832
   13903,    3761,    3762,    3834,    3833
   13904,    3762,    3763,    3835,    3834
   13905,    3763,    3764,    3836,    3835
   13906,    3764,    3765,    3837,    3836
   13907,    3765,    3766,    3838,    3837
   13908,    3766,    3767,    3839,    3838
   13909,    3767,    3768,    3840,    3839
   13910,    3768,    3769,    3841,    3840
   13911,    3769,    3770,    3842,    3841
   13912,    3770,    3771,    3843,    3842
   13913,    3771,    3772,    3844,    3843
   13914,    3772,    3773,    3845,    3844
   13915,    3773,    3774,    3846,    3845
   13916,    3774,    3775,    3847,    3846
   13917,    3776,    3777,    3849,    3848
   13918,    3777,    3778,    3850,    3849
   13919,    3778,    3779,    3851,    3850
   13920,    3779,    3780,    3852,    3851
   13921,    3780,    3781,    3853,    3852
   13922,    3781,    3782,    3854,    3853
   13923,    3782,    3783,    3855,    3854
   13924,    3783,    3784,    3856,    3855
   13925,    3784,    3785,    3857,    3856
   13926,    3785,    3786,    3858,    3857
   13927,    3786,    3787,    3859,    3858
   13928,    3787,    3788,    3860,    3859
   13929,    3788,    3789,    3861,    3860
   13930,    3789,    3790,    3862,    3861
   13931,    3790,    3791,    3863,    3862
   13932,    3791,    3792,    3864,    3863
   13933,    3792,    3793,    3865,    3864
   13934,    3793,    3794,    3866,    3865
   13935,    3794,    3795,    3867,    3866
   13936,    3795,    3796,    3868,    3867
   13937,    3796,    3797,    3869,    3868
   13938,    3797,    3798,    3870,    3869
   13939,    3798,    3799,    3871,    3870
   13940,    3799,    3800,    3872,    3871
   13941,    3800,    3801,    3873,    3872
   13942,    3801,    3802,    3874,    3873
   13943,    3802,    3803,    3875,    3874
   13944,    3803,    3804,    3876,    3875
   13945,    3804,    3805,    3877,    3876
   13946,    3805,    3806,    3878,    3877
   13947,    3806,    3807,    3879,    3878
   13948,    3807,    3808,    3880,    3879
   13949,    3808,    3809,    3881,    3880
   13950,    3809,    3810,    3882,    3881
   13951,    3810,    3811,    3883,    3882
   13952,    3811,    3812,    3884,    3883
   13953,    3812,    3813,    3885,    3884
   13954,    3813,    3814,    3886,    3885
   13955,    3814,    3815,    3887,    3886
   13956,    3815,    3816,    3888,    3887
   13957,    3816,    3817,    3889,    3888
   13958,    3817,    3818,    3890,    3889
   13959,    3818,    3819,    3891,    3890
   13960,    3819,    3820,    3892,    3891
   13961,    3820,    3821,    3893,    3892
   13962,    3821,    3822,    3894,    3893
   13963,    3822,    3823,    3895,    3894
   13964,    3823,    3824,    3896,    3895
   13965,    3824,    3825,    3897,    3896
   13966,    3825,    3826,    3898,    3897
   13967,    3826,    3827,    3899,    3898
   13968,    3827,    3828,    3900,    3899
   13969,    3828,    3829,    3901,    3900
   13970,    3829,    3830,    3902,    3901
   13971,    3830,    3831,    3903,    3902
   13972,    3831,    3832,    3904,    3903
   13973,    3832,    3833,    3905,    3904
   13974,    3833,    3834,    3906,    3905
   13975,    3834,    3835,    3907,    3906
   13976,    3835,    3836,    3908,    3907
   13977,    3836,    3837,    3909,    3908
   13978,    3837,    3838,    3910,    3909
   13979,    3838,    3839,    3911,    3910
   13980,    3839,    3840,    3912,    3911
   13981,    3840,    3841,    3913,    3912
   13982,    3841,    3842,    3914,    3913
   13983,    3842,    3843,    3915,    3914
   13984,    3843,    3844,    3916,    3915
   13985,    3844,    3845,    3917,    3916
   13986,    3845,    3846,    3918,    3917
   13987,    3846,    3847,    3919,    3918
   13988,    3848,    3849,    3921,    3920
   13989,    3849,    3850,    3922,    3921
   13990,    3850,    3851,    3923,    3922
   13991,    3851,    3852,    3924,    3923
   13992,    3852,    3853,    3925,    3924
   13993,    3853,    3854,    3926,    3925
   13994,    3854,    3855,    3927,    3926
   13995,    3855,    3856,    3928,    3927
   13996,    3856,    3857,    3929,    3928
   13997,    3857,    3858,    3930,    3929
   13998,    3858,    3859,    3931,    3930
   13999,    3859,    3860,    3932,    3931
   14000,    3860,    3861,    3933,    3932
   14001,    3861,    3862,    3934,    3933
   14002,    3862,    3863,    3935,    3934
   14003,    3863,    3864,    3936,    3935
   14004,    3864,    3865,    3937,    3936
   14005,    3865,    3866,    3938,    3937
   14006,    3866,    3867,    3939,    3938
   14007,    3867,    3868,    3940,    3939
   14008,    3868,    3869,    3941,    3940
   14009,    3869,    3870,    3942,    3941
   14010,    3870,    3871,    3943,    3942
   14011,    3871,    3872,    3944,    3943
   14012,    3872,    3873,    3945,    3944
   14013,    3873,    3874,    3946,    3945
   14014,    3874,    3875,    3947,    3946
   14015,    3875,    3876,    3948,    3947
   14016,    3876,    3877,    3949,    3948
   14017,    3877,    3878,    3950,    3949
   14018,    3878,    3879,    3951,    3950
   14019,    3879,    3880,    3952,    3951
   14020,    3880,    3881,    3953,    3952
   14021,    3881,    3882,    3954,    3953
   14022,    3882,    3883,    3955,    3954
   14023,    3883,    3884,    3956,    3955
   14024,    3884,    3885,    3957,    3956
   14025,    3885,    3886,    3958,    3957
   14026,    3886,    3887,    3959,    3958
   14027,    3887,    3888,    3960,    3959
   14028,    3888,    3889,    3961,    3960
   14029,    3889,    3890,    3962,    3961
   14030,    3890,    3891,    3963,    3962
   14031,    3891,    3892,    3964,    3963
   14032,    3892,    3893,    3965,    3964
   14033,    3893,    3894,    3966,    3965
   14034,    3894,    3895,    3967,    3966
   14035,    3895,    3896,    3968,    3967
   14036,    3896,    3897,    3969,    3968
   14037,    3897,    3898,    3970,    3969
   14038,    3898,    3899,    3971,    3970
   14039,    3899,    3900,    3972,    3971
   14040,    3900,    3901,    3973,    3972
   14041,    3901,    3902,    3974,    3973
   14042,    3902,    3903,    3975,    3974
   14043,    3903,    3904,    3976,    3975
   14044,    3904,    3905,    3977,    3976
   14045,    3905,    3906,    3978,    3977
   14046,    3906,    3907,    3979,    3978
   14047,    3907,    3908,    3980,    3979
   14048,    3908,    3909,    3981,    3980
   14049,    3909,    3910,    3982,    3981
   14050,    3910,    3911,    3983,    3982
   14051,    3911,    3912,    3984,    3983
   14052,    3912,    3913,    3985,    3984
   14053,    3913,    3914,    3986,    3985
   14054,    3914,    3915,    3987,    3986
   14055,    3915,    3916,    3988,    3987
   14056,    3916,    3917,    3989,    3988
   14057,    3917,    3918,    3990,    3989
   14058,    3918,    3919,    3991,    3990
   14059,    3920,    3921,    3993,    3992
   14060,    3921,    3922,    3994,    3993
   14061,    3922,    3923,    3995,    3994
   14062,    3923,    3924,    3996,    3995
   14063,    3924,    3925,    3997,    3996
   14064,    3925,    3926,    3998,    3997
   14065,    3926,    3927,    3999,    3998
   14066,    3927,    3928,    4000,    3999
   14067,    3928,    3929,    4001,    4000
   14068,    3929,    3930,    4002,    4001
   14069,    3930,    3931,    4003,    4002
   14070,    3931,    3932,    4004,    4003
   14071,    3932,    3933,    4005,    4004
   14072,    3933,    3934,    4006,    4005
   14073,    3934,    3935,    4007,    4006
   14074,    3935,    3936,    4008,    4007
   14075,    3936,    3937,    4009,    4008
   14076,    3937,    3938,    4010,    4009
   14077,    3938,    3939,    4011,    4010
   14078,    3939,    3940,    4012,    4011
   14079,    3940,    3941,    4013,    4012
   14080,    3941,    3942,    4014,    4013
   14081,    3942,    3943,    4015,    4014
   14082,    3943,    3944,    4016,    4015
   14083,    3944,    3945,    4017,    4016
   14084,    3945,    3946,    4018,    4017
   14085,    3946,    3947,    4019,    4018
   14086,    3947,    3948,    4020,    4019
   14087,    3948,    3949,    4021,    4020
   14088,    3949,    3950,    4022,    4021
   14089,    3950,    3951,    4023,    4022
   14090,    3951,    3952,    4024,    4023
   14091,    3952,    3953,    4025,    4024
   14092,    3953,    3954,    4026,    4025
   14093,    3954,    3955,    4027,    4026
   14094,    3955,    3956,    4028,    4027
   14095,    3956,    3957,    4029,    4028
   14096,    3957,    3958,    4030,    4029
   14097,    3958,    3959,    4031,    4030
   14098,    3959,    3960,    4032,    4031
   14099,    3960,    3961,    4033,    4032
   14100,    3961,    3962,    4034,    4033
   14101,    3962,    3963,    4035,    4034
   14102,    3963,    3964,    4036,    4035
   14103,    3964,    3965,    4037,    4036
   14104,    3965,    3966,    4038,    4037
   14105,    3966,    3967,    4039,    4038
   14106,    3967,    3968,    4040,    4039
   14107,    3968,    3969,    4041,    4040
   14108,    3969,    3970,    4042,    4041
   14109,    3970,    3971,    4043,    4042
   14110,    3971,    3972,    4044,    4043
   14111,    3972,    3973,    4045,    4044
   14112,    3973,    3974,    4046,    4045
   14113,    3974,    3975,    4047,    4046
   14114,    3975,    3976,    4048,    4047
   14115,    3976,    3977,    4049,    4048
   14116,    3977,    3978,    4050,    4049
   14117,    3978,    3979,    4051,    4050
   14118,    3979,    3980,    4052,    4051
   14119,    3980,    3981,    4053,    4052
   14120,    3981,    3982,    4054,    4053
   14121,    3982,    3983,    4055,    4054
   14122,    3983,    3984,    4056,    4055
   14123,    3984,    3985,    4057,    4056
   14124,    3985,    3986,    4058,    4057
   14125,    3986,    3987,    4059,    4058
   14126,    3987,    3988,    4060,    4059
   14127,    3988,    3989,    4061,    4060
   14128,    3989,    3990,    4062,    4061
   14129,    3990,    3991,    4063,    4062
   14130,    3992,    3993,    4065,    4064
   14131,    3993,    3994,    4066,    4065
   14132,    3994,    3995,    4067,    4066
   14133,    3995,    3996,    4068,    4067
   14134,    3996,    3997,    4069,    4068
   14135,    3997,    3998,    4070,    4069
   14136,    3998,    3999,    4071,    4070
   14137,    3999,    4000,    4072,    4071
   14138,    4000,    4001,    4073,    4072
   14139,    4001,    4002,    4074,    4073
   14140,    4002,    4003,    4075,    4074
   14141,    4003,    4004,    4076,    4075
   14142,    4004,    4005,    4077,    4076
   14143,    4005,    4006,    4078,    4077
   14144,    4006,    4007,    4079,    4078
   14145,    4007,    4008,    4080,    4079
   14146,    4008,    4009,    4081,    4080
   14147,    4009,    4010,    4082,    4081
   14148,    4010,    4011,    4083,    4082
   14149,    4011,    4012,    4084,    4083
   14150,    4012,    4013,    4085,    4084
   14151,    4013,    4014,    4086,    4085
   14152,    4014,    4015,    4087,    4086
   14153,    4015,    4016,    4088,    4087
   14154,    4016,    4017,    4089,    4088
   14155,    4017,    4018,    4090,    4089
   14156,    4018,    4019,    4091,    4090
   14157,    4019,    4020,    4092,    4091
   14158,    4020,    4021,    4093,    4092
   14159,    4021,    4022,    4094,    4093
   14160,    4022,    4023,    4095,    4094
   14161,    4023,    4024,    4096,    4095
   14162,    4024,    4025,    4097,    4096
   14163,    4025,    4026,    4098,    4097
   14164,    4026,    4027,    4099,    4098
   14165,    4027,    4028,    4100,    4099
   14166,    4028,    4029,    4101,    4100
   14167,    4029,    4030,    4102,    4101
   14168,    4030,    4031,    4103,    4102
   14169,    4031,    4032,    4104,    4103
   14170,    4032,    4033,    4105,    4104
   14171,    4033,    4034,    4106,    4105
   14172,    4034,    4035,    4107,    4106
   14173,    4035,    4036,    4108,    4107
   14174,    4036,    4037,    4109,    4108
   14175,    4037,    4038,    4110,    4109
   14176,    4038,    4039,    4111,    4110
   14177,    4039,    4040,    4112,    4111
   14178,    4040,    4041,    4113,    4112
   14179,    4041,    4042,    4114,    4113
   14180,    4042,    4043,    4115,    4114
   14181,    4043,    4044,    4116,    4115
   14182,    4044,    4045,    4117,    4116
   14183,    4045,    4046,    4118,    4117
   14184,    4046,    4047,    4119,    4118
   14185,    4047,    4048,    4120,    4119
   14186,    4048,    4049,    4121,    4120
   14187,    4049,    4050,    4122,    4121
   14188,    4050,    4051,    4123,    4122
   14189,    4051,    4052,    4124,    4123
   14190,    4052,    4053,    4125,    4124
   14191,    4053,    4054,    4126,    4125
   14192,    4054,    4055,    4127,    4126
   14193,    4055,    4056,    4128,    4127
   14194,    4056,    4057,    4129,    4128
   14195,    4057,    4058,    4130,    4129
   14196,    4058,    4059,    4131,    4130
   14197,    4059,    4060,    4132,    4131
   14198,    4060,    4061,    4133,    4132
   14199,    4061,    4062,    4134,    4133
   14200,    4062,    4063,    4135,    4134
   14201,    4064,    4065,    4137,    4136
   14202,    4065,    4066,    4138,    4137
   14203,    4066,    4067,    4139,    4138
   14204,    4067,    4068,    4140,    4139
   14205,    4068,    4069,    4141,    4140
   14206,    4069,    4070,    4142,    4141
   14207,    4070,    4071,    4143,    4142
   14208,    4071,    4072,    4144,    4143
   14209,    4072,    4073,    4145,    4144
   14210,    4073,    4074,    4146,    4145
   14211,    4074,    4075,    4147,    4146
   14212,    4075,    4076,    4148,    4147
   14213,    4076,    4077,    4149,    4148
   14214,    4077,    4078,    4150,    4149
   14215,    4078,    4079,    4151,    4150
   14216,    4079,    4080,    4152,    4151
   14217,    4080,    4081,    4153,    4152
   14218,    4081,    4082,    4154,    4153
   14219,    4082,    4083,    4155,    4154
   14220,    4083,    4084,    4156,    4155
   14221,    4084,    4085,    4157,    4156
   14222,    4085,    4086,    4158,    4157
   14223,    4086,    4087,    4159,    4158
   14224,    4087,    4088,    4160,    4159
   14225,    4088,    4089,    4161,    4160
   14226,    4089,    4090,    4162,    4161
   14227,    4090,    4091,    4163,    4162
   14228,    4091,    4092,    4164,    4163
   14229,    4092,    4093,    4165,    4164
   14230,    4093,    4094,    4166,    4165
   14231,    4094,    4095,    4167,    4166
   14232,    4095,    4096,    4168,    4167
   14233,    4096,    4097,    4169,    4168
   14234,    4097,    4098,    4170,    4169
   14235,    4098,    4099,    4171,    4170
   14236,    4099,    4100,    4172,    4171
   14237,    4100,    4101,    4173,    4172
   14238,    4101,    4102,    4174,    4173
   14239,    4102,    4103,    4175,    4174
   14240,    4103,    4104,    4176,    4175
   14241,    4104,    4105,    4177,    4176
   14242,    4105,    4106,    4178,    4177
   14243,    4106,    4107,    4179,    4178
   14244,    4107,    4108,    4180,    4179
   14245,    4108,    4109,    4181,    4180
   14246,    4109,    4110,    4182,    4181
   14247,    4110,    4111,    4183,    4182
   14248,    4111,    4112,    4184,    4183
   14249,    4112,    4113,    4185,    4184
   14250,    4113,    4114,    4186,    4185
   14251,    4114,    4115,    4187,    4186
   14252,    4115,    4116,    4188,    4187
   14253,    4116,    4117,    4189,    4188
   14254,    4117,    4118,    4190,    4189
   14255,    4118,    4119,    4191,    4190
   14256,    4119,    4120,    4192,    4191
   14257,    4120,    4121,    4193,    4192
   14258,    4121,    4122,    4194,    4193
   14259,    4122,    4123,    4195,    4194
   14260,    4123,    4124,    4196,    4195
   14261,    4124,    4125,    4197,    4196
   14262,    4125,    4126,    4198,    4197
   14263,    4126,    4127,    4199,    4198
   14264,    4127,    4128,    4200,    4199
   14265,    4128,    4129,    4201,    4200
   14266,    4129,    4130,    4202,    4201
   14267,    4130,    4131,    4203,    4202
   14268,    4131,    4132,    4204,    4203
   14269,    4132,    4133,    4205,    4204
   14270,    4133,    4134,    4206,    4205
   14271,    4134,    4135,    4207,    4206
   14272,    4136,    4137,    4209,    4208
   14273,    4137,    4138,    4210,    4209
   14274,    4138,    4139,    4211,    4210
   14275,    4139,    4140,    4212,    4211
   14276,    4140,    4141,    4213,    4212
   14277,    4141,    4142,    4214,    4213
   14278,    4142,    4143,    4215,    4214
   14279,    4143,    4144,    4216,    4215
   14280,    4144,    4145,    4217,    4216
   14281,    4145,    4146,    4218,    4217
   14282,    4146,    4147,    4219,    4218
   14283,    4147,    4148,    4220,    4219
   14284,    4148,    4149,    4221,    4220
   14285,    4149,    4150,    4222,    4221
   14286,    4150,    4151,    4223,    4222
   14287,    4151,    4152,    4224,    4223
   14288,    4152,    4153,    4225,    4224
   14289,    4153,    4154,    4226,    4225
   14290,    4154,    4155,    4227,    4226
   14291,    4155,    4156,    4228,    4227
   14292,    4156,    4157,    4229,    4228
   14293,    4157,    4158,    4230,    4229
   14294,    4158,    4159,    4231,    4230
   14295,    4159,    4160,    4232,    4231
   14296,    4160,    4161,    4233,    4232
   14297,    4161,    4162,    4234,    4233
   14298,    4162,    4163,    4235,    4234
   14299,    4163,    4164,    4236,    4235
   14300,    4164,    4165,    4237,    4236
   14301,    4165,    4166,    4238,    4237
   14302,    4166,    4167,    4239,    4238
   14303,    4167,    4168,    4240,    4239
   14304,    4168,    4169,    4241,    4240
   14305,    4169,    4170,    4242,    4241
   14306,    4170,    4171,    4243,    4242
   14307,    4171,    4172,    4244,    4243
   14308,    4172,    4173,    4245,    4244
   14309,    4173,    4174,    4246,    4245
   14310,    4174,    4175,    4247,    4246
   14311,    4175,    4176,    4248,    4247
   14312,    4176,    4177,    4249,    4248
   14313,    4177,    4178,    4250,    4249
   14314,    4178,    4179,    4251,    4250
   14315,    4179,    4180,    4252,    4251
   14316,    4180,    4181,    4253,    4252
   14317,    4181,    4182,    4254,    4253
   14318,    4182,    4183,    4255,    4254
   14319,    4183,    4184,    4256,    4255
   14320,    4184,    4185,    4257,    4256
   14321,    4185,    4186,    4258,    4257
   14322,    4186,    4187,    4259,    4258
   14323,    4187,    4188,    4260,    4259
   14324,    4188,    4189,    4261,    4260
   14325,    4189,    4190,    4262,    4261
   14326,    4190,    4191,    4263,    4262
   14327,    4191,    4192,    4264,    4263
   14328,    4192,    4193,    4265,    4264
   14329,    4193,    4194,    4266,    4265
   14330,    4194,    4195,    4267,    4266
   14331,    4195,    4196,    4268,    4267
   14332,    4196,    4197,    4269,    4268
   14333,    4197,    4198,    4270,    4269
   14334,    4198,    4199,    4271,    4270
   14335,    4199,    4200,    4272,    4271
   14336,    4200,    4201,    4273,    4272
   14337,    4201,    4202,    4274,    4273
   14338,    4202,    4203,    4275,    4274
   14339,    4203,    4204,    4276,    4275
   14340,    4204,    4205,    4277,    4276
   14341,    4205,    4206,    4278,    4277
   14342,    4206,    4207,    4279,    4278
   14343,    4208,    4209,    4281,    4280
   14344,    4209,    4210,    4282,    4281
   14345,    4210,    4211,    4283,    4282
   14346,    4211,    4212,    4284,    4283
   14347,    4212,    4213,    4285,    4284
   14348,    4213,    4214,    4286,    4285
   14349,    4214,    4215,    4287,    4286
   14350,    4215,    4216,    4288,    4287
   14351,    4216,    4217,    4289,    4288
   14352,    4217,    4218,    4290,    4289
   14353,    4218,    4219,    4291,    4290
   14354,    4219,    4220,    4292,    4291
   14355,    4220,    4221,    4293,    4292
   14356,    4221,    4222,    4294,    4293
   14357,    4222,    4223,    4295,    4294
   14358,    4223,    4224,    4296,    4295
   14359,    4224,    4225,    4297,    4296
   14360,    4225,    4226,    4298,    4297
   14361,    4226,    4227,    4299,    4298
   14362,    4227,    4228,    4300,    4299
   14363,    4228,    4229,    4301,    4300
   14364,    4229,    4230,    4302,    4301
   14365,    4230,    4231,    4303,    4302
   14366,    4231,    4232,    4304,    4303
   14367,    4232,    4233,    4305,    4304
   14368,    4233,    4234,    4306,    4305
   14369,    4234,    4235,    4307,    4306
   14370,    4235,    4236,    4308,    4307
   14371,    4236,    4237,    4309,    4308
   14372,    4237,    4238,    4310,    4309
   14373,    4238,    4239,    4311,    4310
   14374,    4239,    4240,    4312,    4311
   14375,    4240,    4241,    4313,    4312
   14376,    4241,    4242,    4314,    4313
   14377,    4242,    4243,    4315,    4314
   14378,    4243,    4244,    4316,    4315
   14379,    4244,    4245,    4317,    4316
   14380,    4245,    4246,    4318,    4317
   14381,    4246,    4247,    4319,    4318
   14382,    4247,    4248,    4320,    4319
   14383,    4248,    4249,    4321,    4320
   14384,    4249,    4250,    4322,    4321
   14385,    4250,    4251,    4323,    4322
   14386,    4251,    4252,    4324,    4323
   14387,    4252,    4253,    4325,    4324
   14388,    4253,    4254,    4326,    4325
   14389,    4254,    4255,    4327,    4326
   14390,    4255,    4256,    4328,    4327
   14391,    4256,    4257,    4329,    4328
   14392,    4257,    4258,    4330,    4329
   14393,    4258,    4259,    4331,    4330
   14394,    4259,    4260,    4332,    4331
   14395,    4260,    4261,    4333,    4332
   14396,    4261,    4262,    4334,    4333
   14397,    4262,    4263,    4335,    4334
   14398,    4263,    4264,    4336,    4335
   14399,    4264,    4265,    4337,    4336
   14400,    4265,    4266,    4338,    4337
   14401,    4266,    4267,    4339,    4338
   14402,    4267,    4268,    4340,    4339
   14403,    4268,    4269,    4341,    4340
   14404,    4269,    4270,    4342,    4341
   14405,    4270,    4271,    4343,    4342
   14406,    4271,    4272,    4344,    4343
   14407,    4272,    4273,    4345,    4344
   14408,    4273,    4274,    4346,    4345
   14409,    4274,    4275,    4347,    4346
   14410,    4275,    4276,    4348,    4347
   14411,    4276,    4277,    4349,    4348
   14412,    4277,    4278,    4350,    4349
   14413,    4278,    4279,    4351,    4350
   14414,    4280,    4281,    4353,    4352
   14415,    4281,    4282,    4354,    4353
   14416,    4282,    4283,    4355,    4354
   14417,    4283,    4284,    4356,    4355
   14418,    4284,    4285,    4357,    4356
   14419,    4285,    4286,    4358,    4357
   14420,    4286,    4287,    4359,    4358
   14421,    4287,    4288,    4360,    4359
   14422,    4288,    4289,    4361,    4360
   14423,    4289,    4290,    4362,    4361
   14424,    4290,    4291,    4363,    4362
   14425,    4291,    4292,    4364,    4363
   14426,    4292,    4293,    4365,    4364
   14427,    4293,    4294,    4366,    4365
   14428,    4294,    4295,    4367,    4366
   14429,    4295,    4296,    4368,    4367
   14430,    4296,    4297,    4369,    4368
   14431,    4297,    4298,    4370,    4369
   14432,    4298,    4299,    4371,    4370
   14433,    4299,    4300,    4372,    4371
   14434,    4300,    4301,    4373,    4372
   14435,    4301,    4302,    4374,    4373
   14436,    4302,    4303,    4375,    4374
   14437,    4303,    4304,    4376,    4375
   14438,    4304,    4305,    4377,    4376
   14439,    4305,    4306,    4378,    4377
   14440,    4306,    4307,    4379,    4378
   14441,    4307,    4308,    4380,    4379
   14442,    4308,    4309,    4381,    4380
   14443,    4309,    4310,    4382,    4381
   14444,    4310,    4311,    4383,    4382
   14445,    4311,    4312,    4384,    4383
   14446,    4312,    4313,    4385,    4384
   14447,    4313,    4314,    4386,    4385
   14448,    4314,    4315,    4387,    4386
   14449,    4315,    4316,    4388,    4387
   14450,    4316,    4317,    4389,    4388
   14451,    4317,    4318,    4390,    4389
   14452,    4318,    4319,    4391,    4390
   14453,    4319,    4320,    4392,    4391
   14454,    4320,    4321,    4393,    4392
   14455,    4321,    4322,    4394,    4393
   14456,    4322,    4323,    4395,    4394
   14457,    4323,    4324,    4396,    4395
   14458,    4324,    4325,    4397,    4396
   14459,    4325,    4326,    4398,    4397
   14460,    4326,    4327,    4399,    4398
   14461,    4327,    4328,    4400,    4399
   14462,    4328,    4329,    4401,    4400
   14463,    4329,    4330,    4402,    4401
   14464,    4330,    4331,    4403,    4402
   14465,    4331,    4332,    4404,    4403
   14466,    4332,    4333,    4405,    4404
   14467,    4333,    4334,    4406,    4405
   14468,    4334,    4335,    4407,    4406
   14469,    4335,    4336,    4408,    4407
   14470,    4336,    4337,    4409,    4408
   14471,    4337,    4338,    4410,    4409
   14472,    4338,    4339,    4411,    4410
   14473,    4339,    4340,    4412,    4411
   14474,    4340,    4341,    4413,    4412
   14475,    4341,    4342,    4414,    4413
   14476,    4342,    4343,    4415,    4414
   14477,    4343,    4344,    4416,    4415
   14478,    4344,    4345,    4417,    4416
   14479,    4345,    4346,    4418,    4417
   14480,    4346,    4347,    4419,    4418
   14481,    4347,    4348,    4420,    4419
   14482,    4348,    4349,    4421,    4420
   14483,    4349,    4350,    4422,    4421
   14484,    4350,    4351,    4423,    4422
   14485,    4352,    4353,    4425,    4424
   14486,    4353,    4354,    4426,    4425
   14487,    4354,    4355,    4427,    4426
   14488,    4355,    4356,    4428,    4427
   14489,    4356,    4357,    4429,    4428
   14490,    4357,    4358,    4430,    4429
   14491,    4358,    4359,    4431,    4430
   14492,    4359,    4360,    4432,    4431
   14493,    4360,    4361,    4433,    4432
   14494,    4361,    4362,    4434,    4433
   14495,    4362,    4363,    4435,    4434
   14496,    4363,    4364,    4436,    4435
   14497,    4364,    4365,    4437,    4436
   14498,    4365,    4366,    4438,    4437
   14499,    4366,    4367,    4439,    4438
   14500,    4367,    4368,    4440,    4439
   14501,    4368,    4369,    4441,    4440
   14502,    4369,    4370,    4442,    4441
   14503,    4370,    4371,    4443,    4442
   14504,    4371,    4372,    4444,    4443
   14505,    4372,    4373,    4445,    4444
   14506,    4373,    4374,    4446,    4445
   14507,    4374,    4375,    4447,    4446
   14508,    4375,    4376,    4448,    4447
   14509,    4376,    4377,    4449,    4448
   14510,    4377,    4378,    4450,    4449
   14511,    4378,    4379,    4451,    4450
   14512,    4379,    4380,    4452,    4451
   14513,    4380,    4381,    4453,    4452
   14514,    4381,    4382,    4454,    4453
   14515,    4382,    4383,    4455,    4454
   14516,    4383,    4384,    4456,    4455
   14517,    4384,    4385,    4457,    4456
   14518,    4385,    4386,    4458,    4457
   14519,    4386,    4387,    4459,    4458
   14520,    4387,    4388,    4460,    4459
   14521,    4388,    4389,    4461,    4460
   14522,    4389,    4390,    4462,    4461
   14523,    4390,    4391,    4463,    4462
   14524,    4391,    4392,    4464,    4463
   14525,    4392,    4393,    4465,    4464
   14526,    4393,    4394,    4466,    4465
   14527,    4394,    4395,    4467,    4466
   14528,    4395,    4396,    4468,    4467
   14529,    4396,    4397,    4469,    4468
   14530,    4397,    4398,    4470,    4469
   14531,    4398,    4399,    4471,    4470
   14532,    4399,    4400,    4472,    4471
   14533,    4400,    4401,    4473,    4472
   14534,    4401,    4402,    4474,    4473
   14535,    4402,    4403,    4475,    4474
   14536,    4403,    4404,    4476,    4475
   14537,    4404,    4405,    4477,    4476
   14538,    4405,    4406,    4478,    4477
   14539,    4406,    4407,    4479,    4478
   14540,    4407,    4408,    4480,    4479
   14541,    4408,    4409,    4481,    4480
   14542,    4409,    4410,    4482,    4481
   14543,    4410,    4411,    4483,    4482
   14544,    4411,    4412,    4484,    4483
   14545,    4412,    4413,    4485,    4484
   14546,    4413,    4414,    4486,    4485
   14547,    4414,    4415,    4487,    4486
   14548,    4415,    4416,    4488,    4487
   14549,    4416,    4417,    4489,    4488
   14550,    4417,    4418,    4490,    4489
   14551,    4418,    4419,    4491,    4490
   14552,    4419,    4420,    4492,    4491
   14553,    4420,    4421,    4493,    4492
   14554,    4421,    4422,    4494,    4493
   14555,    4422,    4423,    4495,    4494
   14556,    4424,    4425,    4497,    4496
   14557,    4425,    4426,    4498,    4497
   14558,    4426,    4427,    4499,    4498
   14559,    4427,    4428,    4500,    4499
   14560,    4428,    4429,    4501,    4500
   14561,    4429,    4430,    4502,    4501
   14562,    4430,    4431,    4503,    4502
   14563,    4431,    4432,    4504,    4503
   14564,    4432,    4433,    4505,    4504
   14565,    4433,    4434,    4506,    4505
   14566,    4434,    4435,    4507,    4506
   14567,    4435,    4436,    4508,    4507
   14568,    4436,    4437,    4509,    4508
   14569,    4437,    4438,    4510,    4509
   14570,    4438,    4439,    4511,    4510
   14571,    4439,    4440,    4512,    4511
   14572,    4440,    4441,    4513,    4512
   14573,    4441,    4442,    4514,    4513
   14574,    4442,    4443,    4515,    4514
   14575,    4443,    4444,    4516,    4515
   14576,    4444,    4445,    4517,    4516
   14577,    4445,    4446,    4518,    4517
   14578,    4446,    4447,    4519,    4518
   14579,    4447,    4448,    4520,    4519
   14580,    4448,    4449,    4521,    4520
   14581,    4449,    4450,    4522,    4521
   14582,    4450,    4451,    4523,    4522
   14583,    4451,    4452,    4524,    4523
   14584,    4452,    4453,    4525,    4524
   14585,    4453,    4454,    4526,    4525
   14586,    4454,    4455,    4527,    4526
   14587,    4455,    4456,    4528,    4527
   14588,    4456,    4457,    4529,    4528
   14589,    4457,    4458,    4530,    4529
   14590,    4458,    4459,    4531,    4530
   14591,    4459,    4460,    4532,    4531
   14592,    4460,    4461,    4533,    4532
   14593,    4461,    4462,    4534,    4533
   14594,    4462,    4463,    4535,    4534
   14595,    4463,    4464,    4536,    4535
   14596,    4464,    4465,    4537,    4536
   14597,    4465,    4466,    4538,    4537
   14598,    4466,    4467,    4539,    4538
   14599,    4467,    4468,    4540,    4539
   14600,    4468,    4469,    4541,    4540
   14601,    4469,    4470,    4542,    4541
   14602,    4470,    4471,    4543,    4542
   14603,    4471,    4472,    4544,    4543
   14604,    4472,    4473,    4545,    4544
   14605,    4473,    4474,    4546,    4545
   14606,    4474,    4475,    4547,    4546
   14607,    4475,    4476,    4548,    4547
   14608,    4476,    4477,    4549,    4548
   14609,    4477,    4478,    4550,    4549
   14610,    4478,    4479,    4551,    4550
   14611,    4479,    4480,    4552,    4551
   14612,    4480,    4481,    4553,    4552
   14613,    4481,    4482,    4554,    4553
   14614,    4482,    4483,    4555,    4554
   14615,    4483,    4484,    4556,    4555
   14616,    4484,    4485,    4557,    4556
   14617,    4485,    4486,    4558,    4557
   14618,    4486,    4487,    4559,    4558
   14619,    4487,    4488,    4560,    4559
   14620,    4488,    4489,    4561,    4560
   14621,    4489,    4490,    4562,    4561
   14622,    4490,    4491,    4563,    4562
   14623,    4491,    4492,    4564,    4563
   14624,    4492,    4493,    4565,    4564
   14625,    4493,    4494,    4566,    4565
   14626,    4494,    4495,    4567,    4566
   14627,    4496,    4497,    4569,    4568
   14628,    4497,    4498,    4570,    4569
   14629,    4498,    4499,    4571,    4570
   14630,    4499,    4500,    4572,    4571
   14631,    4500,    4501,    4573,    4572
   14632,    4501,    4502,    4574,    4573
   14633,    4502,    4503,    4575,    4574
   14634,    4503,    4504,    4576,    4575
   14635,    4504,    4505,    4577,    4576
   14636,    4505,    4506,    4578,    4577
   14637,    4506,    4507,    4579,    4578
   14638,    4507,    4508,    4580,    4579
   14639,    4508,    4509,    4581,    4580
   14640,    4509,    4510,    4582,    4581
   14641,    4510,    4511,    4583,    4582
   14642,    4511,    4512,    4584,    4583
   14643,    4512,    4513,    4585,    4584
   14644,    4513,    4514,    4586,    4585
   14645,    4514,    4515,    4587,    4586
   14646,    4515,    4516,    4588,    4587
   14647,    4516,    4517,    4589,    4588
   14648,    4517,    4518,    4590,    4589
   14649,    4518,    4519,    4591,    4590
   14650,    4519,    4520,    4592,    4591
   14651,    4520,    4521,    4593,    4592
   14652,    4521,    4522,    4594,    4593
   14653,    4522,    4523,    4595,    4594
   14654,    4523,    4524,    4596,    4595
   14655,    4524,    4525,    4597,    4596
   14656,    4525,    4526,    4598,    4597
   14657,    4526,    4527,    4599,    4598
   14658,    4527,    4528,    4600,    4599
   14659,    4528,    4529,    4601,    4600
   14660,    4529,    4530,    4602,    4601
   14661,    4530,    4531,    4603,    4602
   14662,    4531,    4532,    4604,    4603
   14663,    4532,    4533,    4605,    4604
   14664,    4533,    4534,    4606,    4605
   14665,    4534,    4535,    4607,    4606
   14666,    4535,    4536,    4608,    4607
   14667,    4536,    4537,    4609,    4608
   14668,    4537,    4538,    4610,    4609
   14669,    4538,    4539,    4611,    4610
   14670,    4539,    4540,    4612,    4611
   14671,    4540,    4541,    4613,    4612
   14672,    4541,    4542,    4614,    4613
   14673,    4542,    4543,    4615,    4614
   14674,    4543,    4544,    4616,    4615
   14675,    4544,    4545,    4617,    4616
   14676,    4545,    4546,    4618,    4617
   14677,    4546,    4547,    4619,    4618
   14678,    4547,    4548,    4620,    4619
   14679,    4548,    4549,    4621,    4620
   14680,    4549,    4550,    4622,    4621
   14681,    4550,    4551,    4623,    4622
   14682,    4551,    4552,    4624,    4623
   14683,    4552,    4553,    4625,    4624
   14684,    4553,    4554,    4626,    4625
   14685,    4554,    4555,    4627,    4626
   14686,    4555,    4556,    4628,    4627
   14687,    4556,    4557,    4629,    4628
   14688,    4557,    4558,    4630,    4629
   14689,    4558,    4559,    4631,    4630
   14690,    4559,    4560,    4632,    4631
   14691,    4560,    4561,    4633,    4632
   14692,    4561,    4562,    4634,    4633
   14693,    4562,    4563,    4635,    4634
   14694,    4563,    4564,    4636,    4635
   14695,    4564,    4565,    4637,    4636
   14696,    4565,    4566,    4638,    4637
   14697,    4566,    4567,    4639,    4638
   14698,    4568,    4569,    4641,    4640
   14699,    4569,    4570,    4642,    4641
   14700,    4570,    4571,    4643,    4642
   14701,    4571,    4572,    4644,    4643
   14702,    4572,    4573,    4645,    4644
   14703,    4573,    4574,    4646,    4645
   14704,    4574,    4575,    4647,    4646
   14705,    4575,    4576,    4648,    4647
   14706,    4576,    4577,    4649,    4648
   14707,    4577,    4578,    4650,    4649
   14708,    4578,    4579,    4651,    4650
   14709,    4579,    4580,    4652,    4651
   14710,    4580,    4581,    4653,    4652
   14711,    4581,    4582,    4654,    4653
   14712,    4582,    4583,    4655,    4654
   14713,    4583,    4584,    4656,    4655
   14714,    4584,    4585,    4657,    4656
   14715,    4585,    4586,    4658,    4657
   14716,    4586,    4587,    4659,    4658
   14717,    4587,    4588,    4660,    4659
   14718,    4588,    4589,    4661,    4660
   14719,    4589,    4590,    4662,    4661
   14720,    4590,    4591,    4663,    4662
   14721,    4591,    4592,    4664,    4663
   14722,    4592,    4593,    4665,    4664
   14723,    4593,    4594,    4666,    4665
   14724,    4594,    4595,    4667,    4666
   14725,    4595,    4596,    4668,    4667
   14726,    4596,    4597,    4669,    4668
   14727,    4597,    4598,    4670,    4669
   14728,    4598,    4599,    4671,    4670
   14729,    4599,    4600,    4672,    4671
   14730,    4600,    4601,    4673,    4672
   14731,    4601,    4602,    4674,    4673
   14732,    4602,    4603,    4675,    4674
   14733,    4603,    4604,    4676,    4675
   14734,    4604,    4605,    4677,    4676
   14735,    4605,    4606,    4678,    4677
   14736,    4606,    4607,    4679,    4678
   14737,    4607,    4608,    4680,    4679
   14738,    4608,    4609,    4681,    4680
   14739,    4609,    4610,    4682,    4681
   14740,    4610,    4611,    4683,    4682
   14741,    4611,    4612,    4684,    4683
   14742,    4612,    4613,    4685,    4684
   14743,    4613,    4614,    4686,    4685
   14744,    4614,    4615,    4687,    4686
   14745,    4615,    4616,    4688,    4687
   14746,    4616,    4617,    4689,    4688
   14747,    4617,    4618,    4690,    4689
   14748,    4618,    4619,    4691,    4690
   14749,    4619,    4620,    4692,    4691
   14750,    4620,    4621,    4693,    4692
   14751,    4621,    4622,    4694,    4693
   14752,    4622,    4623,    4695,    4694
   14753,    4623,    4624,    4696,    4695
   14754,    4624,    4625,    4697,    4696
   14755,    4625,    4626,    4698,    4697
   14756,    4626,    4627,    4699,    4698
   14757,    4627,    4628,    4700,    4699
   14758,    4628,    4629,    4701,    4700
   14759,    4629,    4630,    4702,    4701
   14760,    4630,    4631,    4703,    4702
   14761,    4631,    4632,    4704,    4703
   14762,    4632,    4633,    4705,    4704
   14763,    4633,    4634,    4706,    4705
   14764,    4634,    4635,    4707,    4706
   14765,    4635,    4636,    4708,    4707
   14766,    4636,    4637,    4709,    4708
   14767,    4637,    4638,    4710,    4709
   14768,    4638,    4639,    4711,    4710
   14769,    4640,    4641,    4713,    4712
   14770,    4641,    4642,    4714,    4713
   14771,    4642,    4643,    4715,    4714
   14772,    4643,    4644,    4716,    4715
   14773,    4644,    4645,    4717,    4716
   14774,    4645,    4646,    4718,    4717
   14775,    4646,    4647,    4719,    4718
   14776,    4647,    4648,    4720,    4719
   14777,    4648,    4649,    4721,    4720
   14778,    4649,    4650,    4722,    4721
   14779,    4650,    4651,    4723,    4722
   14780,    4651,    4652,    4724,    4723
   14781,    4652,    4653,    4725,    4724
   14782,    4653,    4654,    4726,    4725
   14783,    4654,    4655,    4727,    4726
   14784,    4655,    4656,    4728,    4727
   14785,    4656,    4657,    4729,    4728
   14786,    4657,    4658,    4730,    4729
   14787,    4658,    4659,    4731,    4730
   14788,    4659,    4660,    4732,    4731
   14789,    4660,    4661,    4733,    4732
   14790,    4661,    4662,    4734,    4733
   14791,    4662,    4663,    4735,    4734
   14792,    4663,    4664,    4736,    4735
   14793,    4664,    4665,    4737,    4736
   14794,    4665,    4666,    4738,    4737
   14795,    4666,    4667,    4739,    4738
   14796,    4667,    4668,    4740,    4739
   14797,    4668,    4669,    4741,    4740
   14798,    4669,    4670,    4742,    4741
   14799,    4670,    4671,    4743,    4742
   14800,    4671,    4672,    4744,    4743
   14801,    4672,    4673,    4745,    4744
   14802,    4673,    4674,    4746,    4745
   14803,    4674,    4675,    4747,    4746
   14804,    4675,    4676,    4748,    4747
   14805,    4676,    4677,    4749,    4748
   14806,    4677,    4678,    4750,    4749
   14807,    4678,    4679,    4751,    4750
   14808,    4679,    4680,    4752,    4751
   14809,    4680,    4681,    4753,    4752
   14810,    4681,    4682,    4754,    4753
   14811,    4682,    4683,    4755,    4754
   14812,    4683,    4684,    4756,    4755
   14813,    4684,    4685,    4757,    4756
   14814,    4685,    4686,    4758,    4757
   14815,    4686,    4687,    4759,    4758
   14816,    4687,    4688,    4760,    4759
   14817,    4688,    4689,    4761,    4760
   14818,    4689,    4690,    4762,    4761
   14819,    4690,    4691,    4763,    4762
   14820,    4691,    4692,    4764,    4763
   14821,    4692,    4693,    4765,    4764
   14822,    4693,    4694,    4766,    4765
   14823,    4694,    4695,    4767,    4766
   14824,    4695,    4696,    4768,    4767
   14825,    4696,    4697,    4769,    4768
   14826,    4697,    4698,    4770,    4769
   14827,    4698,    4699,    4771,    4770
   14828,    4699,    4700,    4772,    4771
   14829,    4700,    4701,    4773,    4772
   14830,    4701,    4702,    4774,    4773
   14831,    4702,    4703,    4775,    4774
   14832,    4703,    4704,    4776,    4775
   14833,    4704,    4705,    4777,    4776
   14834,    4705,    4706,    4778,    4777
   14835,    4706,    4707,    4779,    4778
   14836,    4707,    4708,    4780,    4779
   14837,    4708,    4709,    4781,    4780
   14838,    4709,    4710,    4782,    4781
   14839,    4710,    4711,    4783,    4782
   14840,    4712,    4713,    4785,    4784
   14841,    4713,    4714,    4786,    4785
   14842,    4714,    4715,    4787,    4786
   14843,    4715,    4716,    4788,    4787
   14844,    4716,    4717,    4789,    4788
   14845,    4717,    4718,    4790,    4789
   14846,    4718,    4719,    4791,    4790
   14847,    4719,    4720,    4792,    4791
   14848,    4720,    4721,    4793,    4792
   14849,    4721,    4722,    4794,    4793
   14850,    4722,    4723,    4795,    4794
   14851,    4723,    4724,    4796,    4795
   14852,    4724,    4725,    4797,    4796
   14853,    4725,    4726,    4798,    4797
   14854,    4726,    4727,    4799,    4798
   14855,    4727,    4728,    4800,    4799
   14856,    4728,    4729,    4801,    4800
   14857,    4729,    4730,    4802,    4801
   14858,    4730,    4731,    4803,    4802
   14859,    4731,    4732,    4804,    4803
   14860,    4732,    4733,    4805,    4804
   14861,    4733,    4734,    4806,    4805
   14862,    4734,    4735,    4807,    4806
   14863,    4735,    4736,    4808,    4807
   14864,    4736,    4737,    4809,    4808
   14865,    4737,    4738,    4810,    4809
   14866,    4738,    4739,    4811,    4810
   14867,    4739,    4740,    4812,    4811
   14868,    4740,    4741,    4813,    4812
   14869,    4741,    4742,    4814,    4813
   14870,    4742,    4743,    4815,    4814
   14871,    4743,    4744,    4816,    4815
   14872,    4744,    4745,    4817,    4816
   14873,    4745,    4746,    4818,    4817
   14874,    4746,    4747,    4819,    4818
   14875,    4747,    4748,    4820,    4819
   14876,    4748,    4749,    4821,    4820
   14877,    4749,    4750,    4822,    4821
   14878,    4750,    4751,    4823,    4822
   14879,    4751,    4752,    4824,    4823
   14880,    4752,    4753,    4825,    4824
   14881,    4753,    4754,    4826,    4825
   14882,    4754,    4755,    4827,    4826
   14883,    4755,    4756,    4828,    4827
   14884,    4756,    4757,    4829,    4828
   14885,    4757,    4758,    4830,    4829
   14886,    4758,    4759,    4831,    4830
   14887,    4759,    4760,    4832,    4831
   14888,    4760,    4761,    4833,    4832
   14889,    4761,    4762,    4834,    4833
   14890,    4762,    4763,    4835,    4834
   14891,    4763,    4764,    4836,    4835
   14892,    4764,    4765,    4837,    4836
   14893,    4765,    4766,    4838,    4837
   14894,    4766,    4767,    4839,    4838
   14895,    4767,    4768,    4840,    4839
   14896,    4768,    4769,    4841,    4840
   14897,    4769,    4770,    4842,    4841
   14898,    4770,    4771,    4843,    4842
   14899,    4771,    4772,    4844,    4843
   14900,    4772,    4773,    4845,    4844
   14901,    4773,    4774,    4846,    4845
   14902,    4774,    4775,    4847,    4846
   14903,    4775,    4776,    4848,    4847
   14904,    4776,    4777,    4849,    4848
   14905,    4777,    4778,    4850,    4849
   14906,    4778,    4779,    4851,    4850
   14907,    4779,    4780,    4852,    4851
   14908,    4780,    4781,    4853,    4852
   14909,    4781,    4782,    4854,    4853
   14910,    4782,    4783,    4855,    4854
   14911,    4784,    4785,    4857,    4856
   14912,    4785,    4786,    4858,    4857
   14913,    4786,    4787,    4859,    4858
   14914,    4787,    4788,    4860,    4859
   14915,    4788,    4789,    4861,    4860
   14916,    4789,    4790,    4862,    4861
   14917,    4790,    4791,    4863,    4862
   14918,    4791,    4792,    4864,    4863
   14919,    4792,    4793,    4865,    4864
   14920,    4793,    4794,    4866,    4865
   14921,    4794,    4795,    4867,    4866
   14922,    4795,    4796,    4868,    4867
   14923,    4796,    4797,    4869,    4868
   14924,    4797,    4798,    4870,    4869
   14925,    4798,    4799,    4871,    4870
   14926,    4799,    4800,    4872,    4871
   14927,    4800,    4801,    4873,    4872
   14928,    4801,    4802,    4874,    4873
   14929,    4802,    4803,    4875,    4874
   14930,    4803,    4804,    4876,    4875
   14931,    4804,    4805,    4877,    4876
   14932,    4805,    4806,    4878,    4877
   14933,    4806,    4807,    4879,    4878
   14934,    4807,    4808,    4880,    4879
   14935,    4808,    4809,    4881,    4880
   14936,    4809,    4810,    4882,    4881
   14937,    4810,    4811,    4883,    4882
   14938,    4811,    4812,    4884,    4883
   14939,    4812,    4813,    4885,    4884
   14940,    4813,    4814,    4886,    4885
   14941,    4814,    4815,    4887,    4886
   14942,    4815,    4816,    4888,    4887
   14943,    4816,    4817,    4889,    4888
   14944,    4817,    4818,    4890,    4889
   14945,    4818,    4819,    4891,    4890
   14946,    4819,    4820,    4892,    4891
   14947,    4820,    4821,    4893,    4892
   14948,    4821,    4822,    4894,    4893
   14949,    4822,    4823,    4895,    4894
   14950,    4823,    4824,    4896,    4895
   14951,    4824,    4825,    4897,    4896
   14952,    4825,    4826,    4898,    4897
   14953,    4826,    4827,    4899,    4898
   14954,    4827,    4828,    4900,    4899
   14955,    4828,    4829,    4901,    4900
   14956,    4829,    4830,    4902,    4901
   14957,    4830,    4831,    4903,    4902
   14958,    4831,    4832,    4904,    4903
   14959,    4832,    4833,    4905,    4904
   14960,    4833,    4834,    4906,    4905
   14961,    4834,    4835,    4907,    4906
   14962,    4835,    4836,    4908,    4907
   14963,    4836,    4837,    4909,    4908
   14964,    4837,    4838,    4910,    4909
   14965,    4838,    4839,    4911,    4910
   14966,    4839,    4840,    4912,    4911
   14967,    4840,    4841,    4913,    4912
   14968,    4841,    4842,    4914,    4913
   14969,    4842,    4843,    4915,    4914
   14970,    4843,    4844,    4916,    4915
   14971,    4844,    4845,    4917,    4916
   14972,    4845,    4846,    4918,    4917
   14973,    4846,    4847,    4919,    4918
   14974,    4847,    4848,    4920,    4919
   14975,    4848,    4849,    4921,    4920
   14976,    4849,    4850,    4922,    4921
   14977,    4850,    4851,    4923,    4922
   14978,    4851,    4852,    4924,    4923
   14979,    4852,    4853,    4925,    4924
   14980,    4853,    4854,    4926,    4925
   14981,    4854,    4855,    4927,    4926
   14982,    4856,    4857,    4929,    4928
   14983,    4857,    4858,    4930,    4929
   14984,    4858,    4859,    4931,    4930
   14985,    4859,    4860,    4932,    4931
   14986,    4860,    4861,    4933,    4932
   14987,    4861,    4862,    4934,    4933
   14988,    4862,    4863,    4935,    4934
   14989,    4863,    4864,    4936,    4935
   14990,    4864,    4865,    4937,    4936
   14991,    4865,    4866,    4938,    4937
   14992,    4866,    4867,    4939,    4938
   14993,    4867,    4868,    4940,    4939
   14994,    4868,    4869,    4941,    4940
   14995,    4869,    4870,    4942,    4941
   14996,    4870,    4871,    4943,    4942
   14997,    4871,    4872,    4944,    4943
   14998,    4872,    4873,    4945,    4944
   14999,    4873,    4874,    4946,    4945
   15000,    4874,    4875,    4947,    4946
   15001,    4875,    4876,    4948,    4947
   15002,    4876,    4877,    4949,    4948
   15003,    4877,    4878,    4950,    4949
   15004,    4878,    4879,    4951,    4950
   15005,    4879,    4880,    4952,    4951
   15006,    4880,    4881,    4953,    4952
   15007,    4881,    4882,    4954,    4953
   15008,    4882,    4883,    4955,    4954
   15009,    4883,    4884,    4956,    4955
   15010,    4884,    4885,    4957,    4956
   15011,    4885,    4886,    4958,    4957
   15012,    4886,    4887,    4959,    4958
   15013,    4887,    4888,    4960,    4959
   15014,    4888,    4889,    4961,    4960
   15015,    4889,    4890,    4962,    4961
   15016,    4890,    4891,    4963,    4962
   15017,    4891,    4892,    4964,    4963
   15018,    4892,    4893,    4965,    4964
   15019,    4893,    4894,    4966,    4965
   15020,    4894,    4895,    4967,    4966
   15021,    4895,    4896,    4968,    4967
   15022,    4896,    4897,    4969,    4968
   15023,    4897,    4898,    4970,    4969
   15024,    4898,    4899,    4971,    4970
   15025,    4899,    4900,    4972,    4971
   15026,    4900,    4901,    4973,    4972
   15027,    4901,    4902,    4974,    4973
   15028,    4902,    4903,    4975,    4974
   15029,    4903,    4904,    4976,    4975
   15030,    4904,    4905,    4977,    4976
   15031,    4905,    4906,    4978,    4977
   15032,    4906,    4907,    4979,    4978
   15033,    4907,    4908,    4980,    4979
   15034,    4908,    4909,    4981,    4980
   15035,    4909,    4910,    4982,    4981
   15036,    4910,    4911,    4983,    4982
   15037,    4911,    4912,    4984,    4983
   15038,    4912,    4913,    4985,    4984
   15039,    4913,    4914,    4986,    4985
   15040,    4914,    4915,    4987,    4986
   15041,    4915,    4916,    4988,    4987
   15042,    4916,    4917,    4989,    4988
   15043,    4917,    4918,    4990,    4989
   15044,    4918,    4919,    4991,    4990
   15045,    4919,    4920,    4992,    4991
   15046,    4920,    4921,    4993,    4992
   15047,    4921,    4922,    4994,    4993
   15048,    4922,    4923,    4995,    4994
   15049,    4923,    4924,    4996,    4995
   15050,    4924,    4925,    4997,    4996
   15051,    4925,    4926,    4998,    4997
   15052,    4926,    4927,    4999,    4998
   15053,    4928,    4929,    5001,    5000
   15054,    4929,    4930,    5002,    5001
   15055,    4930,    4931,    5003,    5002
   15056,    4931,    4932,    5004,    5003
   15057,    4932,    4933,    5005,    5004
   15058,    4933,    4934,    5006,    5005
   15059,    4934,    4935,    5007,    5006
   15060,    4935,    4936,    5008,    5007
   15061,    4936,    4937,    5009,    5008
   15062,    4937,    4938,    5010,    5009
   15063,    4938,    4939,    5011,    5010
   15064,    4939,    4940,    5012,    5011
   15065,    4940,    4941,    5013,    5012
   15066,    4941,    4942,    5014,    5013
   15067,    4942,    4943,    5015,    5014
   15068,    4943,    4944,    5016,    5015
   15069,    4944,    4945,    5017,    5016
   15070,    4945,    4946,    5018,    5017
   15071,    4946,    4947,    5019,    5018
   15072,    4947,    4948,    5020,    5019
   15073,    4948,    4949,    5021,    5020
   15074,    4949,    4950,    5022,    5021
   15075,    4950,    4951,    5023,    5022
   15076,    4951,    4952,    5024,    5023
   15077,    4952,    4953,    5025,    5024
   15078,    4953,    4954,    5026,    5025
   15079,    4954,    4955,    5027,    5026
   15080,    4955,    4956,    5028,    5027
   15081,    4956,    4957,    5029,    5028
   15082,    4957,    4958,    5030,    5029
   15083,    4958,    4959,    5031,    5030
   15084,    4959,    4960,    5032,    5031
   15085,    4960,    4961,    5033,    5032
   15086,    4961,    4962,    5034,    5033
   15087,    4962,    4963,    5035,    5034
   15088,    4963,    4964,    5036,    5035
   15089,    4964,    4965,    5037,    5036
   15090,    4965,    4966,    5038,    5037
   15091,    4966,    4967,    5039,    5038
   15092,    4967,    4968,    5040,    5039
   15093,    4968,    4969,    5041,    5040
   15094,    4969,    4970,    5042,    5041
   15095,    4970,    4971,    5043,    5042
   15096,    4971,    4972,    5044,    5043
   15097,    4972,    4973,    5045,    5044
   15098,    4973,    4974,    5046,    5045
   15099,    4974,    4975,    5047,    5046
   15100,    4975,    4976,    5048,    5047
   15101,    4976,    4977,    5049,    5048
   15102,    4977,    4978,    5050,    5049
   15103,    4978,    4979,    5051,    5050
   15104,    4979,    4980,    5052,    5051
   15105,    4980,    4981,    5053,    5052
   15106,    4981,    4982,    5054,    5053
   15107,    4982,    4983,    5055,    5054
   15108,    4983,    4984,    5056,    5055
   15109,    4984,    4985,    5057,    5056
   15110,    4985,    4986,    5058,    5057
   15111,    4986,    4987,    5059,    5058
   15112,    4987,    4988,    5060,    5059
   15113,    4988,    4989,    5061,    5060
   15114,    4989,    4990,    5062,    5061
   15115,    4990,    4991,    5063,    5062
   15116,    4991,    4992,    5064,    5063
   15117,    4992,    4993,    5065,    5064
   15118,    4993,    4994,    5066,    5065
   15119,    4994,    4995,    5067,    5066
   15120,    4995,    4996,    5068,    5067
   15121,    4996,    4997,    5069,    5068
   15122,    4997,    4998,    5070,    5069
   15123,    4998,    4999,    5071,    5070
   15124,    5000,    5001,    5073,    5072
   15125,    5001,    5002,    5074,    5073
   15126,    5002,    5003,    5075,    5074
   15127,    5003,    5004,    5076,    5075
   15128,    5004,    5005,    5077,    5076
   15129,    5005,    5006,    5078,    5077
   15130,    5006,    5007,    5079,    5078
   15131,    5007,    5008,    5080,    5079
   15132,    5008,    5009,    5081,    5080
   15133,    5009,    5010,    5082,    5081
   15134,    5010,    5011,    5083,    5082
   15135,    5011,    5012,    5084,    5083
   15136,    5012,    5013,    5085,    5084
   15137,    5013,    5014,    5086,    5085
   15138,    5014,    5015,    5087,    5086
   15139,    5015,    5016,    5088,    5087
   15140,    5016,    5017,    5089,    5088
   15141,    5017,    5018,    5090,    5089
   15142,    5018,    5019,    5091,    5090
   15143,    5019,    5020,    5092,    5091
   15144,    5020,    5021,    5093,    5092
   15145,    5021,    5022,    5094,    5093
   15146,    5022,    5023,    5095,    5094
   15147,    5023,    5024,    5096,    5095
   15148,    5024,    5025,    5097,    5096
   15149,    5025,    5026,    5098,    5097
   15150,    5026,    5027,    5099,    5098
   15151,    5027,    5028,    5100,    5099
   15152,    5028,    5029,    5101,    5100
   15153,    5029,    5030,    5102,    5101
   15154,    5030,    5031,    5103,    5102
   15155,    5031,    5032,    5104,    5103
   15156,    5032,    5033,    5105,    5104
   15157,    5033,    5034,    5106,    5105
   15158,    5034,    5035,    5107,    5106
   15159,    5035,    5036,    5108,    5107
   15160,    5036,    5037,    5109,    5108
   15161,    5037,    5038,    5110,    5109
   15162,    5038,    5039,    5111,    5110
   15163,    5039,    5040,    5112,    5111
   15164,    5040,    5041,    5113,    5112
   15165,    5041,    5042,    5114,    5113
   15166,    5042,    5043,    5115,    5114
   15167,    5043,    5044,    5116,    5115
   15168,    5044,    5045,    5117,    5116
   15169,    5045,    5046,    5118,    5117
   15170,    5046,    5047,    5119,    5118
   15171,    5047,    5048,    5120,    5119
   15172,    5048,    5049,    5121,    5120
   15173,    5049,    5050,    5122,    5121
   15174,    5050,    5051,    5123,    5122
   15175,    5051,    5052,    5124,    5123
   15176,    5052,    5053,    5125,    5124
   15177,    5053,    5054,    5126,    5125
   15178,    5054,    5055,    5127,    5126
   15179,    5055,    5056,    5128,    5127
   15180,    5056,    5057,    5129,    5128
   15181,    5057,    5058,    5130,    5129
   15182,    5058,    5059,    5131,    5130
   15183,    5059,    5060,    5132,    5131
   15184,    5060,    5061,    5133,    5132
   15185,    5061,    5062,    5134,    5133
   15186,    5062,    5063,    5135,    5134
   15187,    5063,    5064,    5136,    5135
   15188,    5064,    5065,    5137,    5136
   15189,    5065,    5066,    5138,    5137
   15190,    5066,    5067,    5139,    5138
   15191,    5067,    5068,    5140,    5139
   15192,    5068,    5069,    5141,    5140
   15193,    5069,    5070,    5142,    5141
   15194,    5070,    5071,    5143,    5142
   15195,    5072,    5073,    5145,    5144
   15196,    5073,    5074,    5146,    5145
   15197,    5074,    5075,    5147,    5146
   15198,    5075,    5076,    5148,    5147
   15199,    5076,    5077,    5149,    5148
   15200,    5077,    5078,    5150,    5149
   15201,    5078,    5079,    5151,    5150
   15202,    5079,    5080,    5152,    5151
   15203,    5080,    5081,    5153,    5152
   15204,    5081,    5082,    5154,    5153
   15205,    5082,    5083,    5155,    5154
   15206,    5083,    5084,    5156,    5155
   15207,    5084,    5085,    5157,    5156
   15208,    5085,    5086,    5158,    5157
   15209,    5086,    5087,    5159,    5158
   15210,    5087,    5088,    5160,    5159
   15211,    5088,    5089,    5161,    5160
   15212,    5089,    5090,    5162,    5161
   15213,    5090,    5091,    5163,    5162
   15214,    5091,    5092,    5164,    5163
   15215,    5092,    5093,    5165,    5164
   15216,    5093,    5094,    5166,    5165
   15217,    5094,    5095,    5167,    5166
   15218,    5095,    5096,    5168,    5167
   15219,    5096,    5097,    5169,    5168
   15220,    5097,    5098,    5170,    5169
   15221,    5098,    5099,    5171,    5170
   15222,    5099,    5100,    5172,    5171
   15223,    5100,    5101,    5173,    5172
   15224,    5101,    5102,    5174,    5173
   15225,    5102,    5103,    5175,    5174
   15226,    5103,    5104,    5176,    5175
   15227,    5104,    5105,    5177,    5176
   15228,    5105,    5106,    5178,    5177
   15229,    5106,    5107,    5179,    5178
   15230,    5107,    5108,    5180,    5179
   15231,    5108,    5109,    5181,    5180
   15232,    5109,    5110,    5182,    5181
   15233,    5110,    5111,    5183,    5182
   15234,    5111,    5112,    5184,    5183
   15235,    5112,    5113,    5185,    5184
   15236,    5113,    5114,    5186,    5185
   15237,    5114,    5115,    5187,    5186
   15238,    5115,    5116,    5188,    5187
   15239,    5116,    5117,    5189,    5188
   15240,    5117,    5118,    5190,    5189
   15241,    5118,    5119,    5191,    5190
   15242,    5119,    5120,    5192,    5191
   15243,    5120,    5121,    5193,    5192
   15244,    5121,    5122,    5194,    5193
   15245,    5122,    5123,    5195,    5194
   15246,    5123,    5124,    5196,    5195
   15247,    5124,    5125,    5197,    5196
   15248,    5125,    5126,    5198,    5197
   15249,    5126,    5127,    5199,    5198
   15250,    5127,    5128,    5200,    5199
   15251,    5128,    5129,    5201,    5200
   15252,    5129,    5130,    5202,    5201
   15253,    5130,    5131,    5203,    5202
   15254,    5131,    5132,    5204,    5203
   15255,    5132,    5133,    5205,    5204
   15256,    5133,    5134,    5206,    5205
   15257,    5134,    5135,    5207,    5206
   15258,    5135,    5136,    5208,    5207
   15259,    5136,    5137,    5209,    5208
   15260,    5137,    5138,    5210,    5209
   15261,    5138,    5139,    5211,    5210
   15262,    5139,    5140,    5212,    5211
   15263,    5140,    5141,    5213,    5212
   15264,    5141,    5142,    5214,    5213
   15265,    5142,    5143,    5215,    5214
   15266,    5144,    5145,    5217,    5216
   15267,    5145,    5146,    5218,    5217
   15268,    5146,    5147,    5219,    5218
   15269,    5147,    5148,    5220,    5219
   15270,    5148,    5149,    5221,    5220
   15271,    5149,    5150,    5222,    5221
   15272,    5150,    5151,    5223,    5222
   15273,    5151,    5152,    5224,    5223
   15274,    5152,    5153,    5225,    5224
   15275,    5153,    5154,    5226,    5225
   15276,    5154,    5155,    5227,    5226
   15277,    5155,    5156,    5228,    5227
   15278,    5156,    5157,    5229,    5228
   15279,    5157,    5158,    5230,    5229
   15280,    5158,    5159,    5231,    5230
   15281,    5159,    5160,    5232,    5231
   15282,    5160,    5161,    5233,    5232
   15283,    5161,    5162,    5234,    5233
   15284,    5162,    5163,    5235,    5234
   15285,    5163,    5164,    5236,    5235
   15286,    5164,    5165,    5237,    5236
   15287,    5165,    5166,    5238,    5237
   15288,    5166,    5167,    5239,    5238
   15289,    5167,    5168,    5240,    5239
   15290,    5168,    5169,    5241,    5240
   15291,    5169,    5170,    5242,    5241
   15292,    5170,    5171,    5243,    5242
   15293,    5171,    5172,    5244,    5243
   15294,    5172,    5173,    5245,    5244
   15295,    5173,    5174,    5246,    5245
   15296,    5174,    5175,    5247,    5246
   15297,    5175,    5176,    5248,    5247
   15298,    5176,    5177,    5249,    5248
   15299,    5177,    5178,    5250,    5249
   15300,    5178,    5179,    5251,    5250
   15301,    5179,    5180,    5252,    5251
   15302,    5180,    5181,    5253,    5252
   15303,    5181,    5182,    5254,    5253
   15304,    5182,    5183,    5255,    5254
   15305,    5183,    5184,    5256,    5255
   15306,    5184,    5185,    5257,    5256
   15307,    5185,    5186,    5258,    5257
   15308,    5186,    5187,    5259,    5258
   15309,    5187,    5188,    5260,    5259
   15310,    5188,    5189,    5261,    5260
   15311,    5189,    5190,    5262,    5261
   15312,    5190,    5191,    5263,    5262
   15313,    5191,    5192,    5264,    5263
   15314,    5192,    5193,    5265,    5264
   15315,    5193,    5194,    5266,    5265
   15316,    5194,    5195,    5267,    5266
   15317,    5195,    5196,    5268,    5267
   15318,    5196,    5197,    5269,    5268
   15319,    5197,    5198,    5270,    5269
   15320,    5198,    5199,    5271,    5270
   15321,    5199,    5200,    5272,    5271
   15322,    5200,    5201,    5273,    5272
   15323,    5201,    5202,    5274,    5273
   15324,    5202,    5203,    5275,    5274
   15325,    5203,    5204,    5276,    5275
   15326,    5204,    5205,    5277,    5276
   15327,    5205,    5206,    5278,    5277
   15328,    5206,    5207,    5279,    5278
   15329,    5207,    5208,    5280,    5279
   15330,    5208,    5209,    5281,    5280
   15331,    5209,    5210,    5282,    5281
   15332,    5210,    5211,    5283,    5282
   15333,    5211,    5212,    5284,    5283
   15334,    5212,    5213,    5285,    5284
   15335,    5213,    5214,    5286,    5285
   15336,    5214,    5215,    5287,    5286
** Layer 2: Displacement Elements (5113 .. 10224)
*Element, type=U2, elset=DISP_QUAD
   15337,       1,       2,      74,      73
   15338,       2,       3,      75,      74
   15339,       3,       4,      76,      75
   15340,       4,       5,      77,      76
   15341,       5,       6,      78,      77
   15342,       6,       7,      79,      78
   15343,       7,       8,      80,      79
   15344,       8,       9,      81,      80
   15345,       9,      10,      82,      81
   15346,      10,      11,      83,      82
   15347,      11,      12,      84,      83
   15348,      12,      13,      85,      84
   15349,      13,      14,      86,      85
   15350,      14,      15,      87,      86
   15351,      15,      16,      88,      87
   15352,      16,      17,      89,      88
   15353,      17,      18,      90,      89
   15354,      18,      19,      91,      90
   15355,      19,      20,      92,      91
   15356,      20,      21,      93,      92
   15357,      21,      22,      94,      93
   15358,      22,      23,      95,      94
   15359,      23,      24,      96,      95
   15360,      24,      25,      97,      96
   15361,      25,      26,      98,      97
   15362,      26,      27,      99,      98
   15363,      27,      28,     100,      99
   15364,      28,      29,     101,     100
   15365,      29,      30,     102,     101
   15366,      30,      31,     103,     102
   15367,      31,      32,     104,     103
   15368,      32,      33,     105,     104
   15369,      33,      34,     106,     105
   15370,      34,      35,     107,     106
   15371,      35,      36,     108,     107
   15372,      36,      37,     109,     108
   15373,      37,      38,     110,     109
   15374,      38,      39,     111,     110
   15375,      39,      40,     112,     111
   15376,      40,      41,     113,     112
   15377,      41,      42,     114,     113
   15378,      42,      43,     115,     114
   15379,      43,      44,     116,     115
   15380,      44,      45,     117,     116
   15381,      45,      46,     118,     117
   15382,      46,      47,     119,     118
   15383,      47,      48,     120,     119
   15384,      48,      49,     121,     120
   15385,      49,      50,     122,     121
   15386,      50,      51,     123,     122
   15387,      51,      52,     124,     123
   15388,      52,      53,     125,     124
   15389,      53,      54,     126,     125
   15390,      54,      55,     127,     126
   15391,      55,      56,     128,     127
   15392,      56,      57,     129,     128
   15393,      57,      58,     130,     129
   15394,      58,      59,     131,     130
   15395,      59,      60,     132,     131
   15396,      60,      61,     133,     132
   15397,      61,      62,     134,     133
   15398,      62,      63,     135,     134
   15399,      63,      64,     136,     135
   15400,      64,      65,     137,     136
   15401,      65,      66,     138,     137
   15402,      66,      67,     139,     138
   15403,      67,      68,     140,     139
   15404,      68,      69,     141,     140
   15405,      69,      70,     142,     141
   15406,      70,      71,     143,     142
   15407,      71,      72,     144,     143
   15408,      73,      74,     146,     145
   15409,      74,      75,     147,     146
   15410,      75,      76,     148,     147
   15411,      76,      77,     149,     148
   15412,      77,      78,     150,     149
   15413,      78,      79,     151,     150
   15414,      79,      80,     152,     151
   15415,      80,      81,     153,     152
   15416,      81,      82,     154,     153
   15417,      82,      83,     155,     154
   15418,      83,      84,     156,     155
   15419,      84,      85,     157,     156
   15420,      85,      86,     158,     157
   15421,      86,      87,     159,     158
   15422,      87,      88,     160,     159
   15423,      88,      89,     161,     160
   15424,      89,      90,     162,     161
   15425,      90,      91,     163,     162
   15426,      91,      92,     164,     163
   15427,      92,      93,     165,     164
   15428,      93,      94,     166,     165
   15429,      94,      95,     167,     166
   15430,      95,      96,     168,     167
   15431,      96,      97,     169,     168
   15432,      97,      98,     170,     169
   15433,      98,      99,     171,     170
   15434,      99,     100,     172,     171
   15435,     100,     101,     173,     172
   15436,     101,     102,     174,     173
   15437,     102,     103,     175,     174
   15438,     103,     104,     176,     175
   15439,     104,     105,     177,     176
   15440,     105,     106,     178,     177
   15441,     106,     107,     179,     178
   15442,     107,     108,     180,     179
   15443,     108,     109,     181,     180
   15444,     109,     110,     182,     181
   15445,     110,     111,     183,     182
   15446,     111,     112,     184,     183
   15447,     112,     113,     185,     184
   15448,     113,     114,     186,     185
   15449,     114,     115,     187,     186
   15450,     115,     116,     188,     187
   15451,     116,     117,     189,     188
   15452,     117,     118,     190,     189
   15453,     118,     119,     191,     190
   15454,     119,     120,     192,     191
   15455,     120,     121,     193,     192
   15456,     121,     122,     194,     193
   15457,     122,     123,     195,     194
   15458,     123,     124,     196,     195
   15459,     124,     125,     197,     196
   15460,     125,     126,     198,     197
   15461,     126,     127,     199,     198
   15462,     127,     128,     200,     199
   15463,     128,     129,     201,     200
   15464,     129,     130,     202,     201
   15465,     130,     131,     203,     202
   15466,     131,     132,     204,     203
   15467,     132,     133,     205,     204
   15468,     133,     134,     206,     205
   15469,     134,     135,     207,     206
   15470,     135,     136,     208,     207
   15471,     136,     137,     209,     208
   15472,     137,     138,     210,     209
   15473,     138,     139,     211,     210
   15474,     139,     140,     212,     211
   15475,     140,     141,     213,     212
   15476,     141,     142,     214,     213
   15477,     142,     143,     215,     214
   15478,     143,     144,     216,     215
   15479,     145,     146,     218,     217
   15480,     146,     147,     219,     218
   15481,     147,     148,     220,     219
   15482,     148,     149,     221,     220
   15483,     149,     150,     222,     221
   15484,     150,     151,     223,     222
   15485,     151,     152,     224,     223
   15486,     152,     153,     225,     224
   15487,     153,     154,     226,     225
   15488,     154,     155,     227,     226
   15489,     155,     156,     228,     227
   15490,     156,     157,     229,     228
   15491,     157,     158,     230,     229
   15492,     158,     159,     231,     230
   15493,     159,     160,     232,     231
   15494,     160,     161,     233,     232
   15495,     161,     162,     234,     233
   15496,     162,     163,     235,     234
   15497,     163,     164,     236,     235
   15498,     164,     165,     237,     236
   15499,     165,     166,     238,     237
   15500,     166,     167,     239,     238
   15501,     167,     168,     240,     239
   15502,     168,     169,     241,     240
   15503,     169,     170,     242,     241
   15504,     170,     171,     243,     242
   15505,     171,     172,     244,     243
   15506,     172,     173,     245,     244
   15507,     173,     174,     246,     245
   15508,     174,     175,     247,     246
   15509,     175,     176,     248,     247
   15510,     176,     177,     249,     248
   15511,     177,     178,     250,     249
   15512,     178,     179,     251,     250
   15513,     179,     180,     252,     251
   15514,     180,     181,     253,     252
   15515,     181,     182,     254,     253
   15516,     182,     183,     255,     254
   15517,     183,     184,     256,     255
   15518,     184,     185,     257,     256
   15519,     185,     186,     258,     257
   15520,     186,     187,     259,     258
   15521,     187,     188,     260,     259
   15522,     188,     189,     261,     260
   15523,     189,     190,     262,     261
   15524,     190,     191,     263,     262
   15525,     191,     192,     264,     263
   15526,     192,     193,     265,     264
   15527,     193,     194,     266,     265
   15528,     194,     195,     267,     266
   15529,     195,     196,     268,     267
   15530,     196,     197,     269,     268
   15531,     197,     198,     270,     269
   15532,     198,     199,     271,     270
   15533,     199,     200,     272,     271
   15534,     200,     201,     273,     272
   15535,     201,     202,     274,     273
   15536,     202,     203,     275,     274
   15537,     203,     204,     276,     275
   15538,     204,     205,     277,     276
   15539,     205,     206,     278,     277
   15540,     206,     207,     279,     278
   15541,     207,     208,     280,     279
   15542,     208,     209,     281,     280
   15543,     209,     210,     282,     281
   15544,     210,     211,     283,     282
   15545,     211,     212,     284,     283
   15546,     212,     213,     285,     284
   15547,     213,     214,     286,     285
   15548,     214,     215,     287,     286
   15549,     215,     216,     288,     287
   15550,     217,     218,     290,     289
   15551,     218,     219,     291,     290
   15552,     219,     220,     292,     291
   15553,     220,     221,     293,     292
   15554,     221,     222,     294,     293
   15555,     222,     223,     295,     294
   15556,     223,     224,     296,     295
   15557,     224,     225,     297,     296
   15558,     225,     226,     298,     297
   15559,     226,     227,     299,     298
   15560,     227,     228,     300,     299
   15561,     228,     229,     301,     300
   15562,     229,     230,     302,     301
   15563,     230,     231,     303,     302
   15564,     231,     232,     304,     303
   15565,     232,     233,     305,     304
   15566,     233,     234,     306,     305
   15567,     234,     235,     307,     306
   15568,     235,     236,     308,     307
   15569,     236,     237,     309,     308
   15570,     237,     238,     310,     309
   15571,     238,     239,     311,     310
   15572,     239,     240,     312,     311
   15573,     240,     241,     313,     312
   15574,     241,     242,     314,     313
   15575,     242,     243,     315,     314
   15576,     243,     244,     316,     315
   15577,     244,     245,     317,     316
   15578,     245,     246,     318,     317
   15579,     246,     247,     319,     318
   15580,     247,     248,     320,     319
   15581,     248,     249,     321,     320
   15582,     249,     250,     322,     321
   15583,     250,     251,     323,     322
   15584,     251,     252,     324,     323
   15585,     252,     253,     325,     324
   15586,     253,     254,     326,     325
   15587,     254,     255,     327,     326
   15588,     255,     256,     328,     327
   15589,     256,     257,     329,     328
   15590,     257,     258,     330,     329
   15591,     258,     259,     331,     330
   15592,     259,     260,     332,     331
   15593,     260,     261,     333,     332
   15594,     261,     262,     334,     333
   15595,     262,     263,     335,     334
   15596,     263,     264,     336,     335
   15597,     264,     265,     337,     336
   15598,     265,     266,     338,     337
   15599,     266,     267,     339,     338
   15600,     267,     268,     340,     339
   15601,     268,     269,     341,     340
   15602,     269,     270,     342,     341
   15603,     270,     271,     343,     342
   15604,     271,     272,     344,     343
   15605,     272,     273,     345,     344
   15606,     273,     274,     346,     345
   15607,     274,     275,     347,     346
   15608,     275,     276,     348,     347
   15609,     276,     277,     349,     348
   15610,     277,     278,     350,     349
   15611,     278,     279,     351,     350
   15612,     279,     280,     352,     351
   15613,     280,     281,     353,     352
   15614,     281,     282,     354,     353
   15615,     282,     283,     355,     354
   15616,     283,     284,     356,     355
   15617,     284,     285,     357,     356
   15618,     285,     286,     358,     357
   15619,     286,     287,     359,     358
   15620,     287,     288,     360,     359
   15621,     289,     290,     362,     361
   15622,     290,     291,     363,     362
   15623,     291,     292,     364,     363
   15624,     292,     293,     365,     364
   15625,     293,     294,     366,     365
   15626,     294,     295,     367,     366
   15627,     295,     296,     368,     367
   15628,     296,     297,     369,     368
   15629,     297,     298,     370,     369
   15630,     298,     299,     371,     370
   15631,     299,     300,     372,     371
   15632,     300,     301,     373,     372
   15633,     301,     302,     374,     373
   15634,     302,     303,     375,     374
   15635,     303,     304,     376,     375
   15636,     304,     305,     377,     376
   15637,     305,     306,     378,     377
   15638,     306,     307,     379,     378
   15639,     307,     308,     380,     379
   15640,     308,     309,     381,     380
   15641,     309,     310,     382,     381
   15642,     310,     311,     383,     382
   15643,     311,     312,     384,     383
   15644,     312,     313,     385,     384
   15645,     313,     314,     386,     385
   15646,     314,     315,     387,     386
   15647,     315,     316,     388,     387
   15648,     316,     317,     389,     388
   15649,     317,     318,     390,     389
   15650,     318,     319,     391,     390
   15651,     319,     320,     392,     391
   15652,     320,     321,     393,     392
   15653,     321,     322,     394,     393
   15654,     322,     323,     395,     394
   15655,     323,     324,     396,     395
   15656,     324,     325,     397,     396
   15657,     325,     326,     398,     397
   15658,     326,     327,     399,     398
   15659,     327,     328,     400,     399
   15660,     328,     329,     401,     400
   15661,     329,     330,     402,     401
   15662,     330,     331,     403,     402
   15663,     331,     332,     404,     403
   15664,     332,     333,     405,     404
   15665,     333,     334,     406,     405
   15666,     334,     335,     407,     406
   15667,     335,     336,     408,     407
   15668,     336,     337,     409,     408
   15669,     337,     338,     410,     409
   15670,     338,     339,     411,     410
   15671,     339,     340,     412,     411
   15672,     340,     341,     413,     412
   15673,     341,     342,     414,     413
   15674,     342,     343,     415,     414
   15675,     343,     344,     416,     415
   15676,     344,     345,     417,     416
   15677,     345,     346,     418,     417
   15678,     346,     347,     419,     418
   15679,     347,     348,     420,     419
   15680,     348,     349,     421,     420
   15681,     349,     350,     422,     421
   15682,     350,     351,     423,     422
   15683,     351,     352,     424,     423
   15684,     352,     353,     425,     424
   15685,     353,     354,     426,     425
   15686,     354,     355,     427,     426
   15687,     355,     356,     428,     427
   15688,     356,     357,     429,     428
   15689,     357,     358,     430,     429
   15690,     358,     359,     431,     430
   15691,     359,     360,     432,     431
   15692,     361,     362,     434,     433
   15693,     362,     363,     435,     434
   15694,     363,     364,     436,     435
   15695,     364,     365,     437,     436
   15696,     365,     366,     438,     437
   15697,     366,     367,     439,     438
   15698,     367,     368,     440,     439
   15699,     368,     369,     441,     440
   15700,     369,     370,     442,     441
   15701,     370,     371,     443,     442
   15702,     371,     372,     444,     443
   15703,     372,     373,     445,     444
   15704,     373,     374,     446,     445
   15705,     374,     375,     447,     446
   15706,     375,     376,     448,     447
   15707,     376,     377,     449,     448
   15708,     377,     378,     450,     449
   15709,     378,     379,     451,     450
   15710,     379,     380,     452,     451
   15711,     380,     381,     453,     452
   15712,     381,     382,     454,     453
   15713,     382,     383,     455,     454
   15714,     383,     384,     456,     455
   15715,     384,     385,     457,     456
   15716,     385,     386,     458,     457
   15717,     386,     387,     459,     458
   15718,     387,     388,     460,     459
   15719,     388,     389,     461,     460
   15720,     389,     390,     462,     461
   15721,     390,     391,     463,     462
   15722,     391,     392,     464,     463
   15723,     392,     393,     465,     464
   15724,     393,     394,     466,     465
   15725,     394,     395,     467,     466
   15726,     395,     396,     468,     467
   15727,     396,     397,     469,     468
   15728,     397,     398,     470,     469
   15729,     398,     399,     471,     470
   15730,     399,     400,     472,     471
   15731,     400,     401,     473,     472
   15732,     401,     402,     474,     473
   15733,     402,     403,     475,     474
   15734,     403,     404,     476,     475
   15735,     404,     405,     477,     476
   15736,     405,     406,     478,     477
   15737,     406,     407,     479,     478
   15738,     407,     408,     480,     479
   15739,     408,     409,     481,     480
   15740,     409,     410,     482,     481
   15741,     410,     411,     483,     482
   15742,     411,     412,     484,     483
   15743,     412,     413,     485,     484
   15744,     413,     414,     486,     485
   15745,     414,     415,     487,     486
   15746,     415,     416,     488,     487
   15747,     416,     417,     489,     488
   15748,     417,     418,     490,     489
   15749,     418,     419,     491,     490
   15750,     419,     420,     492,     491
   15751,     420,     421,     493,     492
   15752,     421,     422,     494,     493
   15753,     422,     423,     495,     494
   15754,     423,     424,     496,     495
   15755,     424,     425,     497,     496
   15756,     425,     426,     498,     497
   15757,     426,     427,     499,     498
   15758,     427,     428,     500,     499
   15759,     428,     429,     501,     500
   15760,     429,     430,     502,     501
   15761,     430,     431,     503,     502
   15762,     431,     432,     504,     503
   15763,     433,     434,     506,     505
   15764,     434,     435,     507,     506
   15765,     435,     436,     508,     507
   15766,     436,     437,     509,     508
   15767,     437,     438,     510,     509
   15768,     438,     439,     511,     510
   15769,     439,     440,     512,     511
   15770,     440,     441,     513,     512
   15771,     441,     442,     514,     513
   15772,     442,     443,     515,     514
   15773,     443,     444,     516,     515
   15774,     444,     445,     517,     516
   15775,     445,     446,     518,     517
   15776,     446,     447,     519,     518
   15777,     447,     448,     520,     519
   15778,     448,     449,     521,     520
   15779,     449,     450,     522,     521
   15780,     450,     451,     523,     522
   15781,     451,     452,     524,     523
   15782,     452,     453,     525,     524
   15783,     453,     454,     526,     525
   15784,     454,     455,     527,     526
   15785,     455,     456,     528,     527
   15786,     456,     457,     529,     528
   15787,     457,     458,     530,     529
   15788,     458,     459,     531,     530
   15789,     459,     460,     532,     531
   15790,     460,     461,     533,     532
   15791,     461,     462,     534,     533
   15792,     462,     463,     535,     534
   15793,     463,     464,     536,     535
   15794,     464,     465,     537,     536
   15795,     465,     466,     538,     537
   15796,     466,     467,     539,     538
   15797,     467,     468,     540,     539
   15798,     468,     469,     541,     540
   15799,     469,     470,     542,     541
   15800,     470,     471,     543,     542
   15801,     471,     472,     544,     543
   15802,     472,     473,     545,     544
   15803,     473,     474,     546,     545
   15804,     474,     475,     547,     546
   15805,     475,     476,     548,     547
   15806,     476,     477,     549,     548
   15807,     477,     478,     550,     549
   15808,     478,     479,     551,     550
   15809,     479,     480,     552,     551
   15810,     480,     481,     553,     552
   15811,     481,     482,     554,     553
   15812,     482,     483,     555,     554
   15813,     483,     484,     556,     555
   15814,     484,     485,     557,     556
   15815,     485,     486,     558,     557
   15816,     486,     487,     559,     558
   15817,     487,     488,     560,     559
   15818,     488,     489,     561,     560
   15819,     489,     490,     562,     561
   15820,     490,     491,     563,     562
   15821,     491,     492,     564,     563
   15822,     492,     493,     565,     564
   15823,     493,     494,     566,     565
   15824,     494,     495,     567,     566
   15825,     495,     496,     568,     567
   15826,     496,     497,     569,     568
   15827,     497,     498,     570,     569
   15828,     498,     499,     571,     570
   15829,     499,     500,     572,     571
   15830,     500,     501,     573,     572
   15831,     501,     502,     574,     573
   15832,     502,     503,     575,     574
   15833,     503,     504,     576,     575
   15834,     505,     506,     578,     577
   15835,     506,     507,     579,     578
   15836,     507,     508,     580,     579
   15837,     508,     509,     581,     580
   15838,     509,     510,     582,     581
   15839,     510,     511,     583,     582
   15840,     511,     512,     584,     583
   15841,     512,     513,     585,     584
   15842,     513,     514,     586,     585
   15843,     514,     515,     587,     586
   15844,     515,     516,     588,     587
   15845,     516,     517,     589,     588
   15846,     517,     518,     590,     589
   15847,     518,     519,     591,     590
   15848,     519,     520,     592,     591
   15849,     520,     521,     593,     592
   15850,     521,     522,     594,     593
   15851,     522,     523,     595,     594
   15852,     523,     524,     596,     595
   15853,     524,     525,     597,     596
   15854,     525,     526,     598,     597
   15855,     526,     527,     599,     598
   15856,     527,     528,     600,     599
   15857,     528,     529,     601,     600
   15858,     529,     530,     602,     601
   15859,     530,     531,     603,     602
   15860,     531,     532,     604,     603
   15861,     532,     533,     605,     604
   15862,     533,     534,     606,     605
   15863,     534,     535,     607,     606
   15864,     535,     536,     608,     607
   15865,     536,     537,     609,     608
   15866,     537,     538,     610,     609
   15867,     538,     539,     611,     610
   15868,     539,     540,     612,     611
   15869,     540,     541,     613,     612
   15870,     541,     542,     614,     613
   15871,     542,     543,     615,     614
   15872,     543,     544,     616,     615
   15873,     544,     545,     617,     616
   15874,     545,     546,     618,     617
   15875,     546,     547,     619,     618
   15876,     547,     548,     620,     619
   15877,     548,     549,     621,     620
   15878,     549,     550,     622,     621
   15879,     550,     551,     623,     622
   15880,     551,     552,     624,     623
   15881,     552,     553,     625,     624
   15882,     553,     554,     626,     625
   15883,     554,     555,     627,     626
   15884,     555,     556,     628,     627
   15885,     556,     557,     629,     628
   15886,     557,     558,     630,     629
   15887,     558,     559,     631,     630
   15888,     559,     560,     632,     631
   15889,     560,     561,     633,     632
   15890,     561,     562,     634,     633
   15891,     562,     563,     635,     634
   15892,     563,     564,     636,     635
   15893,     564,     565,     637,     636
   15894,     565,     566,     638,     637
   15895,     566,     567,     639,     638
   15896,     567,     568,     640,     639
   15897,     568,     569,     641,     640
   15898,     569,     570,     642,     641
   15899,     570,     571,     643,     642
   15900,     571,     572,     644,     643
   15901,     572,     573,     645,     644
   15902,     573,     574,     646,     645
   15903,     574,     575,     647,     646
   15904,     575,     576,     648,     647
   15905,     577,     578,     650,     649
   15906,     578,     579,     651,     650
   15907,     579,     580,     652,     651
   15908,     580,     581,     653,     652
   15909,     581,     582,     654,     653
   15910,     582,     583,     655,     654
   15911,     583,     584,     656,     655
   15912,     584,     585,     657,     656
   15913,     585,     586,     658,     657
   15914,     586,     587,     659,     658
   15915,     587,     588,     660,     659
   15916,     588,     589,     661,     660
   15917,     589,     590,     662,     661
   15918,     590,     591,     663,     662
   15919,     591,     592,     664,     663
   15920,     592,     593,     665,     664
   15921,     593,     594,     666,     665
   15922,     594,     595,     667,     666
   15923,     595,     596,     668,     667
   15924,     596,     597,     669,     668
   15925,     597,     598,     670,     669
   15926,     598,     599,     671,     670
   15927,     599,     600,     672,     671
   15928,     600,     601,     673,     672
   15929,     601,     602,     674,     673
   15930,     602,     603,     675,     674
   15931,     603,     604,     676,     675
   15932,     604,     605,     677,     676
   15933,     605,     606,     678,     677
   15934,     606,     607,     679,     678
   15935,     607,     608,     680,     679
   15936,     608,     609,     681,     680
   15937,     609,     610,     682,     681
   15938,     610,     611,     683,     682
   15939,     611,     612,     684,     683
   15940,     612,     613,     685,     684
   15941,     613,     614,     686,     685
   15942,     614,     615,     687,     686
   15943,     615,     616,     688,     687
   15944,     616,     617,     689,     688
   15945,     617,     618,     690,     689
   15946,     618,     619,     691,     690
   15947,     619,     620,     692,     691
   15948,     620,     621,     693,     692
   15949,     621,     622,     694,     693
   15950,     622,     623,     695,     694
   15951,     623,     624,     696,     695
   15952,     624,     625,     697,     696
   15953,     625,     626,     698,     697
   15954,     626,     627,     699,     698
   15955,     627,     628,     700,     699
   15956,     628,     629,     701,     700
   15957,     629,     630,     702,     701
   15958,     630,     631,     703,     702
   15959,     631,     632,     704,     703
   15960,     632,     633,     705,     704
   15961,     633,     634,     706,     705
   15962,     634,     635,     707,     706
   15963,     635,     636,     708,     707
   15964,     636,     637,     709,     708
   15965,     637,     638,     710,     709
   15966,     638,     639,     711,     710
   15967,     639,     640,     712,     711
   15968,     640,     641,     713,     712
   15969,     641,     642,     714,     713
   15970,     642,     643,     715,     714
   15971,     643,     644,     716,     715
   15972,     644,     645,     717,     716
   15973,     645,     646,     718,     717
   15974,     646,     647,     719,     718
   15975,     647,     648,     720,     719
   15976,     649,     650,     722,     721
   15977,     650,     651,     723,     722
   15978,     651,     652,     724,     723
   15979,     652,     653,     725,     724
   15980,     653,     654,     726,     725
   15981,     654,     655,     727,     726
   15982,     655,     656,     728,     727
   15983,     656,     657,     729,     728
   15984,     657,     658,     730,     729
   15985,     658,     659,     731,     730
   15986,     659,     660,     732,     731
   15987,     660,     661,     733,     732
   15988,     661,     662,     734,     733
   15989,     662,     663,     735,     734
   15990,     663,     664,     736,     735
   15991,     664,     665,     737,     736
   15992,     665,     666,     738,     737
   15993,     666,     667,     739,     738
   15994,     667,     668,     740,     739
   15995,     668,     669,     741,     740
   15996,     669,     670,     742,     741
   15997,     670,     671,     743,     742
   15998,     671,     672,     744,     743
   15999,     672,     673,     745,     744
   16000,     673,     674,     746,     745
   16001,     674,     675,     747,     746
   16002,     675,     676,     748,     747
   16003,     676,     677,     749,     748
   16004,     677,     678,     750,     749
   16005,     678,     679,     751,     750
   16006,     679,     680,     752,     751
   16007,     680,     681,     753,     752
   16008,     681,     682,     754,     753
   16009,     682,     683,     755,     754
   16010,     683,     684,     756,     755
   16011,     684,     685,     757,     756
   16012,     685,     686,     758,     757
   16013,     686,     687,     759,     758
   16014,     687,     688,     760,     759
   16015,     688,     689,     761,     760
   16016,     689,     690,     762,     761
   16017,     690,     691,     763,     762
   16018,     691,     692,     764,     763
   16019,     692,     693,     765,     764
   16020,     693,     694,     766,     765
   16021,     694,     695,     767,     766
   16022,     695,     696,     768,     767
   16023,     696,     697,     769,     768
   16024,     697,     698,     770,     769
   16025,     698,     699,     771,     770
   16026,     699,     700,     772,     771
   16027,     700,     701,     773,     772
   16028,     701,     702,     774,     773
   16029,     702,     703,     775,     774
   16030,     703,     704,     776,     775
   16031,     704,     705,     777,     776
   16032,     705,     706,     778,     777
   16033,     706,     707,     779,     778
   16034,     707,     708,     780,     779
   16035,     708,     709,     781,     780
   16036,     709,     710,     782,     781
   16037,     710,     711,     783,     782
   16038,     711,     712,     784,     783
   16039,     712,     713,     785,     784
   16040,     713,     714,     786,     785
   16041,     714,     715,     787,     786
   16042,     715,     716,     788,     787
   16043,     716,     717,     789,     788
   16044,     717,     718,     790,     789
   16045,     718,     719,     791,     790
   16046,     719,     720,     792,     791
   16047,     721,     722,     794,     793
   16048,     722,     723,     795,     794
   16049,     723,     724,     796,     795
   16050,     724,     725,     797,     796
   16051,     725,     726,     798,     797
   16052,     726,     727,     799,     798
   16053,     727,     728,     800,     799
   16054,     728,     729,     801,     800
   16055,     729,     730,     802,     801
   16056,     730,     731,     803,     802
   16057,     731,     732,     804,     803
   16058,     732,     733,     805,     804
   16059,     733,     734,     806,     805
   16060,     734,     735,     807,     806
   16061,     735,     736,     808,     807
   16062,     736,     737,     809,     808
   16063,     737,     738,     810,     809
   16064,     738,     739,     811,     810
   16065,     739,     740,     812,     811
   16066,     740,     741,     813,     812
   16067,     741,     742,     814,     813
   16068,     742,     743,     815,     814
   16069,     743,     744,     816,     815
   16070,     744,     745,     817,     816
   16071,     745,     746,     818,     817
   16072,     746,     747,     819,     818
   16073,     747,     748,     820,     819
   16074,     748,     749,     821,     820
   16075,     749,     750,     822,     821
   16076,     750,     751,     823,     822
   16077,     751,     752,     824,     823
   16078,     752,     753,     825,     824
   16079,     753,     754,     826,     825
   16080,     754,     755,     827,     826
   16081,     755,     756,     828,     827
   16082,     756,     757,     829,     828
   16083,     757,     758,     830,     829
   16084,     758,     759,     831,     830
   16085,     759,     760,     832,     831
   16086,     760,     761,     833,     832
   16087,     761,     762,     834,     833
   16088,     762,     763,     835,     834
   16089,     763,     764,     836,     835
   16090,     764,     765,     837,     836
   16091,     765,     766,     838,     837
   16092,     766,     767,     839,     838
   16093,     767,     768,     840,     839
   16094,     768,     769,     841,     840
   16095,     769,     770,     842,     841
   16096,     770,     771,     843,     842
   16097,     771,     772,     844,     843
   16098,     772,     773,     845,     844
   16099,     773,     774,     846,     845
   16100,     774,     775,     847,     846
   16101,     775,     776,     848,     847
   16102,     776,     777,     849,     848
   16103,     777,     778,     850,     849
   16104,     778,     779,     851,     850
   16105,     779,     780,     852,     851
   16106,     780,     781,     853,     852
   16107,     781,     782,     854,     853
   16108,     782,     783,     855,     854
   16109,     783,     784,     856,     855
   16110,     784,     785,     857,     856
   16111,     785,     786,     858,     857
   16112,     786,     787,     859,     858
   16113,     787,     788,     860,     859
   16114,     788,     789,     861,     860
   16115,     789,     790,     862,     861
   16116,     790,     791,     863,     862
   16117,     791,     792,     864,     863
   16118,     793,     794,     866,     865
   16119,     794,     795,     867,     866
   16120,     795,     796,     868,     867
   16121,     796,     797,     869,     868
   16122,     797,     798,     870,     869
   16123,     798,     799,     871,     870
   16124,     799,     800,     872,     871
   16125,     800,     801,     873,     872
   16126,     801,     802,     874,     873
   16127,     802,     803,     875,     874
   16128,     803,     804,     876,     875
   16129,     804,     805,     877,     876
   16130,     805,     806,     878,     877
   16131,     806,     807,     879,     878
   16132,     807,     808,     880,     879
   16133,     808,     809,     881,     880
   16134,     809,     810,     882,     881
   16135,     810,     811,     883,     882
   16136,     811,     812,     884,     883
   16137,     812,     813,     885,     884
   16138,     813,     814,     886,     885
   16139,     814,     815,     887,     886
   16140,     815,     816,     888,     887
   16141,     816,     817,     889,     888
   16142,     817,     818,     890,     889
   16143,     818,     819,     891,     890
   16144,     819,     820,     892,     891
   16145,     820,     821,     893,     892
   16146,     821,     822,     894,     893
   16147,     822,     823,     895,     894
   16148,     823,     824,     896,     895
   16149,     824,     825,     897,     896
   16150,     825,     826,     898,     897
   16151,     826,     827,     899,     898
   16152,     827,     828,     900,     899
   16153,     828,     829,     901,     900
   16154,     829,     830,     902,     901
   16155,     830,     831,     903,     902
   16156,     831,     832,     904,     903
   16157,     832,     833,     905,     904
   16158,     833,     834,     906,     905
   16159,     834,     835,     907,     906
   16160,     835,     836,     908,     907
   16161,     836,     837,     909,     908
   16162,     837,     838,     910,     909
   16163,     838,     839,     911,     910
   16164,     839,     840,     912,     911
   16165,     840,     841,     913,     912
   16166,     841,     842,     914,     913
   16167,     842,     843,     915,     914
   16168,     843,     844,     916,     915
   16169,     844,     845,     917,     916
   16170,     845,     846,     918,     917
   16171,     846,     847,     919,     918
   16172,     847,     848,     920,     919
   16173,     848,     849,     921,     920
   16174,     849,     850,     922,     921
   16175,     850,     851,     923,     922
   16176,     851,     852,     924,     923
   16177,     852,     853,     925,     924
   16178,     853,     854,     926,     925
   16179,     854,     855,     927,     926
   16180,     855,     856,     928,     927
   16181,     856,     857,     929,     928
   16182,     857,     858,     930,     929
   16183,     858,     859,     931,     930
   16184,     859,     860,     932,     931
   16185,     860,     861,     933,     932
   16186,     861,     862,     934,     933
   16187,     862,     863,     935,     934
   16188,     863,     864,     936,     935
   16189,     865,     866,     938,     937
   16190,     866,     867,     939,     938
   16191,     867,     868,     940,     939
   16192,     868,     869,     941,     940
   16193,     869,     870,     942,     941
   16194,     870,     871,     943,     942
   16195,     871,     872,     944,     943
   16196,     872,     873,     945,     944
   16197,     873,     874,     946,     945
   16198,     874,     875,     947,     946
   16199,     875,     876,     948,     947
   16200,     876,     877,     949,     948
   16201,     877,     878,     950,     949
   16202,     878,     879,     951,     950
   16203,     879,     880,     952,     951
   16204,     880,     881,     953,     952
   16205,     881,     882,     954,     953
   16206,     882,     883,     955,     954
   16207,     883,     884,     956,     955
   16208,     884,     885,     957,     956
   16209,     885,     886,     958,     957
   16210,     886,     887,     959,     958
   16211,     887,     888,     960,     959
   16212,     888,     889,     961,     960
   16213,     889,     890,     962,     961
   16214,     890,     891,     963,     962
   16215,     891,     892,     964,     963
   16216,     892,     893,     965,     964
   16217,     893,     894,     966,     965
   16218,     894,     895,     967,     966
   16219,     895,     896,     968,     967
   16220,     896,     897,     969,     968
   16221,     897,     898,     970,     969
   16222,     898,     899,     971,     970
   16223,     899,     900,     972,     971
   16224,     900,     901,     973,     972
   16225,     901,     902,     974,     973
   16226,     902,     903,     975,     974
   16227,     903,     904,     976,     975
   16228,     904,     905,     977,     976
   16229,     905,     906,     978,     977
   16230,     906,     907,     979,     978
   16231,     907,     908,     980,     979
   16232,     908,     909,     981,     980
   16233,     909,     910,     982,     981
   16234,     910,     911,     983,     982
   16235,     911,     912,     984,     983
   16236,     912,     913,     985,     984
   16237,     913,     914,     986,     985
   16238,     914,     915,     987,     986
   16239,     915,     916,     988,     987
   16240,     916,     917,     989,     988
   16241,     917,     918,     990,     989
   16242,     918,     919,     991,     990
   16243,     919,     920,     992,     991
   16244,     920,     921,     993,     992
   16245,     921,     922,     994,     993
   16246,     922,     923,     995,     994
   16247,     923,     924,     996,     995
   16248,     924,     925,     997,     996
   16249,     925,     926,     998,     997
   16250,     926,     927,     999,     998
   16251,     927,     928,    1000,     999
   16252,     928,     929,    1001,    1000
   16253,     929,     930,    1002,    1001
   16254,     930,     931,    1003,    1002
   16255,     931,     932,    1004,    1003
   16256,     932,     933,    1005,    1004
   16257,     933,     934,    1006,    1005
   16258,     934,     935,    1007,    1006
   16259,     935,     936,    1008,    1007
   16260,     937,     938,    1010,    1009
   16261,     938,     939,    1011,    1010
   16262,     939,     940,    1012,    1011
   16263,     940,     941,    1013,    1012
   16264,     941,     942,    1014,    1013
   16265,     942,     943,    1015,    1014
   16266,     943,     944,    1016,    1015
   16267,     944,     945,    1017,    1016
   16268,     945,     946,    1018,    1017
   16269,     946,     947,    1019,    1018
   16270,     947,     948,    1020,    1019
   16271,     948,     949,    1021,    1020
   16272,     949,     950,    1022,    1021
   16273,     950,     951,    1023,    1022
   16274,     951,     952,    1024,    1023
   16275,     952,     953,    1025,    1024
   16276,     953,     954,    1026,    1025
   16277,     954,     955,    1027,    1026
   16278,     955,     956,    1028,    1027
   16279,     956,     957,    1029,    1028
   16280,     957,     958,    1030,    1029
   16281,     958,     959,    1031,    1030
   16282,     959,     960,    1032,    1031
   16283,     960,     961,    1033,    1032
   16284,     961,     962,    1034,    1033
   16285,     962,     963,    1035,    1034
   16286,     963,     964,    1036,    1035
   16287,     964,     965,    1037,    1036
   16288,     965,     966,    1038,    1037
   16289,     966,     967,    1039,    1038
   16290,     967,     968,    1040,    1039
   16291,     968,     969,    1041,    1040
   16292,     969,     970,    1042,    1041
   16293,     970,     971,    1043,    1042
   16294,     971,     972,    1044,    1043
   16295,     972,     973,    1045,    1044
   16296,     973,     974,    1046,    1045
   16297,     974,     975,    1047,    1046
   16298,     975,     976,    1048,    1047
   16299,     976,     977,    1049,    1048
   16300,     977,     978,    1050,    1049
   16301,     978,     979,    1051,    1050
   16302,     979,     980,    1052,    1051
   16303,     980,     981,    1053,    1052
   16304,     981,     982,    1054,    1053
   16305,     982,     983,    1055,    1054
   16306,     983,     984,    1056,    1055
   16307,     984,     985,    1057,    1056
   16308,     985,     986,    1058,    1057
   16309,     986,     987,    1059,    1058
   16310,     987,     988,    1060,    1059
   16311,     988,     989,    1061,    1060
   16312,     989,     990,    1062,    1061
   16313,     990,     991,    1063,    1062
   16314,     991,     992,    1064,    1063
   16315,     992,     993,    1065,    1064
   16316,     993,     994,    1066,    1065
   16317,     994,     995,    1067,    1066
   16318,     995,     996,    1068,    1067
   16319,     996,     997,    1069,    1068
   16320,     997,     998,    1070,    1069
   16321,     998,     999,    1071,    1070
   16322,     999,    1000,    1072,    1071
   16323,    1000,    1001,    1073,    1072
   16324,    1001,    1002,    1074,    1073
   16325,    1002,    1003,    1075,    1074
   16326,    1003,    1004,    1076,    1075
   16327,    1004,    1005,    1077,    1076
   16328,    1005,    1006,    1078,    1077
   16329,    1006,    1007,    1079,    1078
   16330,    1007,    1008,    1080,    1079
   16331,    1009,    1010,    1082,    1081
   16332,    1010,    1011,    1083,    1082
   16333,    1011,    1012,    1084,    1083
   16334,    1012,    1013,    1085,    1084
   16335,    1013,    1014,    1086,    1085
   16336,    1014,    1015,    1087,    1086
   16337,    1015,    1016,    1088,    1087
   16338,    1016,    1017,    1089,    1088
   16339,    1017,    1018,    1090,    1089
   16340,    1018,    1019,    1091,    1090
   16341,    1019,    1020,    1092,    1091
   16342,    1020,    1021,    1093,    1092
   16343,    1021,    1022,    1094,    1093
   16344,    1022,    1023,    1095,    1094
   16345,    1023,    1024,    1096,    1095
   16346,    1024,    1025,    1097,    1096
   16347,    1025,    1026,    1098,    1097
   16348,    1026,    1027,    1099,    1098
   16349,    1027,    1028,    1100,    1099
   16350,    1028,    1029,    1101,    1100
   16351,    1029,    1030,    1102,    1101
   16352,    1030,    1031,    1103,    1102
   16353,    1031,    1032,    1104,    1103
   16354,    1032,    1033,    1105,    1104
   16355,    1033,    1034,    1106,    1105
   16356,    1034,    1035,    1107,    1106
   16357,    1035,    1036,    1108,    1107
   16358,    1036,    1037,    1109,    1108
   16359,    1037,    1038,    1110,    1109
   16360,    1038,    1039,    1111,    1110
   16361,    1039,    1040,    1112,    1111
   16362,    1040,    1041,    1113,    1112
   16363,    1041,    1042,    1114,    1113
   16364,    1042,    1043,    1115,    1114
   16365,    1043,    1044,    1116,    1115
   16366,    1044,    1045,    1117,    1116
   16367,    1045,    1046,    1118,    1117
   16368,    1046,    1047,    1119,    1118
   16369,    1047,    1048,    1120,    1119
   16370,    1048,    1049,    1121,    1120
   16371,    1049,    1050,    1122,    1121
   16372,    1050,    1051,    1123,    1122
   16373,    1051,    1052,    1124,    1123
   16374,    1052,    1053,    1125,    1124
   16375,    1053,    1054,    1126,    1125
   16376,    1054,    1055,    1127,    1126
   16377,    1055,    1056,    1128,    1127
   16378,    1056,    1057,    1129,    1128
   16379,    1057,    1058,    1130,    1129
   16380,    1058,    1059,    1131,    1130
   16381,    1059,    1060,    1132,    1131
   16382,    1060,    1061,    1133,    1132
   16383,    1061,    1062,    1134,    1133
   16384,    1062,    1063,    1135,    1134
   16385,    1063,    1064,    1136,    1135
   16386,    1064,    1065,    1137,    1136
   16387,    1065,    1066,    1138,    1137
   16388,    1066,    1067,    1139,    1138
   16389,    1067,    1068,    1140,    1139
   16390,    1068,    1069,    1141,    1140
   16391,    1069,    1070,    1142,    1141
   16392,    1070,    1071,    1143,    1142
   16393,    1071,    1072,    1144,    1143
   16394,    1072,    1073,    1145,    1144
   16395,    1073,    1074,    1146,    1145
   16396,    1074,    1075,    1147,    1146
   16397,    1075,    1076,    1148,    1147
   16398,    1076,    1077,    1149,    1148
   16399,    1077,    1078,    1150,    1149
   16400,    1078,    1079,    1151,    1150
   16401,    1079,    1080,    1152,    1151
   16402,    1081,    1082,    1154,    1153
   16403,    1082,    1083,    1155,    1154
   16404,    1083,    1084,    1156,    1155
   16405,    1084,    1085,    1157,    1156
   16406,    1085,    1086,    1158,    1157
   16407,    1086,    1087,    1159,    1158
   16408,    1087,    1088,    1160,    1159
   16409,    1088,    1089,    1161,    1160
   16410,    1089,    1090,    1162,    1161
   16411,    1090,    1091,    1163,    1162
   16412,    1091,    1092,    1164,    1163
   16413,    1092,    1093,    1165,    1164
   16414,    1093,    1094,    1166,    1165
   16415,    1094,    1095,    1167,    1166
   16416,    1095,    1096,    1168,    1167
   16417,    1096,    1097,    1169,    1168
   16418,    1097,    1098,    1170,    1169
   16419,    1098,    1099,    1171,    1170
   16420,    1099,    1100,    1172,    1171
   16421,    1100,    1101,    1173,    1172
   16422,    1101,    1102,    1174,    1173
   16423,    1102,    1103,    1175,    1174
   16424,    1103,    1104,    1176,    1175
   16425,    1104,    1105,    1177,    1176
   16426,    1105,    1106,    1178,    1177
   16427,    1106,    1107,    1179,    1178
   16428,    1107,    1108,    1180,    1179
   16429,    1108,    1109,    1181,    1180
   16430,    1109,    1110,    1182,    1181
   16431,    1110,    1111,    1183,    1182
   16432,    1111,    1112,    1184,    1183
   16433,    1112,    1113,    1185,    1184
   16434,    1113,    1114,    1186,    1185
   16435,    1114,    1115,    1187,    1186
   16436,    1115,    1116,    1188,    1187
   16437,    1116,    1117,    1189,    1188
   16438,    1117,    1118,    1190,    1189
   16439,    1118,    1119,    1191,    1190
   16440,    1119,    1120,    1192,    1191
   16441,    1120,    1121,    1193,    1192
   16442,    1121,    1122,    1194,    1193
   16443,    1122,    1123,    1195,    1194
   16444,    1123,    1124,    1196,    1195
   16445,    1124,    1125,    1197,    1196
   16446,    1125,    1126,    1198,    1197
   16447,    1126,    1127,    1199,    1198
   16448,    1127,    1128,    1200,    1199
   16449,    1128,    1129,    1201,    1200
   16450,    1129,    1130,    1202,    1201
   16451,    1130,    1131,    1203,    1202
   16452,    1131,    1132,    1204,    1203
   16453,    1132,    1133,    1205,    1204
   16454,    1133,    1134,    1206,    1205
   16455,    1134,    1135,    1207,    1206
   16456,    1135,    1136,    1208,    1207
   16457,    1136,    1137,    1209,    1208
   16458,    1137,    1138,    1210,    1209
   16459,    1138,    1139,    1211,    1210
   16460,    1139,    1140,    1212,    1211
   16461,    1140,    1141,    1213,    1212
   16462,    1141,    1142,    1214,    1213
   16463,    1142,    1143,    1215,    1214
   16464,    1143,    1144,    1216,    1215
   16465,    1144,    1145,    1217,    1216
   16466,    1145,    1146,    1218,    1217
   16467,    1146,    1147,    1219,    1218
   16468,    1147,    1148,    1220,    1219
   16469,    1148,    1149,    1221,    1220
   16470,    1149,    1150,    1222,    1221
   16471,    1150,    1151,    1223,    1222
   16472,    1151,    1152,    1224,    1223
   16473,    1153,    1154,    1226,    1225
   16474,    1154,    1155,    1227,    1226
   16475,    1155,    1156,    1228,    1227
   16476,    1156,    1157,    1229,    1228
   16477,    1157,    1158,    1230,    1229
   16478,    1158,    1159,    1231,    1230
   16479,    1159,    1160,    1232,    1231
   16480,    1160,    1161,    1233,    1232
   16481,    1161,    1162,    1234,    1233
   16482,    1162,    1163,    1235,    1234
   16483,    1163,    1164,    1236,    1235
   16484,    1164,    1165,    1237,    1236
   16485,    1165,    1166,    1238,    1237
   16486,    1166,    1167,    1239,    1238
   16487,    1167,    1168,    1240,    1239
   16488,    1168,    1169,    1241,    1240
   16489,    1169,    1170,    1242,    1241
   16490,    1170,    1171,    1243,    1242
   16491,    1171,    1172,    1244,    1243
   16492,    1172,    1173,    1245,    1244
   16493,    1173,    1174,    1246,    1245
   16494,    1174,    1175,    1247,    1246
   16495,    1175,    1176,    1248,    1247
   16496,    1176,    1177,    1249,    1248
   16497,    1177,    1178,    1250,    1249
   16498,    1178,    1179,    1251,    1250
   16499,    1179,    1180,    1252,    1251
   16500,    1180,    1181,    1253,    1252
   16501,    1181,    1182,    1254,    1253
   16502,    1182,    1183,    1255,    1254
   16503,    1183,    1184,    1256,    1255
   16504,    1184,    1185,    1257,    1256
   16505,    1185,    1186,    1258,    1257
   16506,    1186,    1187,    1259,    1258
   16507,    1187,    1188,    1260,    1259
   16508,    1188,    1189,    1261,    1260
   16509,    1189,    1190,    1262,    1261
   16510,    1190,    1191,    1263,    1262
   16511,    1191,    1192,    1264,    1263
   16512,    1192,    1193,    1265,    1264
   16513,    1193,    1194,    1266,    1265
   16514,    1194,    1195,    1267,    1266
   16515,    1195,    1196,    1268,    1267
   16516,    1196,    1197,    1269,    1268
   16517,    1197,    1198,    1270,    1269
   16518,    1198,    1199,    1271,    1270
   16519,    1199,    1200,    1272,    1271
   16520,    1200,    1201,    1273,    1272
   16521,    1201,    1202,    1274,    1273
   16522,    1202,    1203,    1275,    1274
   16523,    1203,    1204,    1276,    1275
   16524,    1204,    1205,    1277,    1276
   16525,    1205,    1206,    1278,    1277
   16526,    1206,    1207,    1279,    1278
   16527,    1207,    1208,    1280,    1279
   16528,    1208,    1209,    1281,    1280
   16529,    1209,    1210,    1282,    1281
   16530,    1210,    1211,    1283,    1282
   16531,    1211,    1212,    1284,    1283
   16532,    1212,    1213,    1285,    1284
   16533,    1213,    1214,    1286,    1285
   16534,    1214,    1215,    1287,    1286
   16535,    1215,    1216,    1288,    1287
   16536,    1216,    1217,    1289,    1288
   16537,    1217,    1218,    1290,    1289
   16538,    1218,    1219,    1291,    1290
   16539,    1219,    1220,    1292,    1291
   16540,    1220,    1221,    1293,    1292
   16541,    1221,    1222,    1294,    1293
   16542,    1222,    1223,    1295,    1294
   16543,    1223,    1224,    1296,    1295
   16544,    1225,    1226,    1298,    1297
   16545,    1226,    1227,    1299,    1298
   16546,    1227,    1228,    1300,    1299
   16547,    1228,    1229,    1301,    1300
   16548,    1229,    1230,    1302,    1301
   16549,    1230,    1231,    1303,    1302
   16550,    1231,    1232,    1304,    1303
   16551,    1232,    1233,    1305,    1304
   16552,    1233,    1234,    1306,    1305
   16553,    1234,    1235,    1307,    1306
   16554,    1235,    1236,    1308,    1307
   16555,    1236,    1237,    1309,    1308
   16556,    1237,    1238,    1310,    1309
   16557,    1238,    1239,    1311,    1310
   16558,    1239,    1240,    1312,    1311
   16559,    1240,    1241,    1313,    1312
   16560,    1241,    1242,    1314,    1313
   16561,    1242,    1243,    1315,    1314
   16562,    1243,    1244,    1316,    1315
   16563,    1244,    1245,    1317,    1316
   16564,    1245,    1246,    1318,    1317
   16565,    1246,    1247,    1319,    1318
   16566,    1247,    1248,    1320,    1319
   16567,    1248,    1249,    1321,    1320
   16568,    1249,    1250,    1322,    1321
   16569,    1250,    1251,    1323,    1322
   16570,    1251,    1252,    1324,    1323
   16571,    1252,    1253,    1325,    1324
   16572,    1253,    1254,    1326,    1325
   16573,    1254,    1255,    1327,    1326
   16574,    1255,    1256,    1328,    1327
   16575,    1256,    1257,    1329,    1328
   16576,    1257,    1258,    1330,    1329
   16577,    1258,    1259,    1331,    1330
   16578,    1259,    1260,    1332,    1331
   16579,    1260,    1261,    1333,    1332
   16580,    1261,    1262,    1334,    1333
   16581,    1262,    1263,    1335,    1334
   16582,    1263,    1264,    1336,    1335
   16583,    1264,    1265,    1337,    1336
   16584,    1265,    1266,    1338,    1337
   16585,    1266,    1267,    1339,    1338
   16586,    1267,    1268,    1340,    1339
   16587,    1268,    1269,    1341,    1340
   16588,    1269,    1270,    1342,    1341
   16589,    1270,    1271,    1343,    1342
   16590,    1271,    1272,    1344,    1343
   16591,    1272,    1273,    1345,    1344
   16592,    1273,    1274,    1346,    1345
   16593,    1274,    1275,    1347,    1346
   16594,    1275,    1276,    1348,    1347
   16595,    1276,    1277,    1349,    1348
   16596,    1277,    1278,    1350,    1349
   16597,    1278,    1279,    1351,    1350
   16598,    1279,    1280,    1352,    1351
   16599,    1280,    1281,    1353,    1352
   16600,    1281,    1282,    1354,    1353
   16601,    1282,    1283,    1355,    1354
   16602,    1283,    1284,    1356,    1355
   16603,    1284,    1285,    1357,    1356
   16604,    1285,    1286,    1358,    1357
   16605,    1286,    1287,    1359,    1358
   16606,    1287,    1288,    1360,    1359
   16607,    1288,    1289,    1361,    1360
   16608,    1289,    1290,    1362,    1361
   16609,    1290,    1291,    1363,    1362
   16610,    1291,    1292,    1364,    1363
   16611,    1292,    1293,    1365,    1364
   16612,    1293,    1294,    1366,    1365
   16613,    1294,    1295,    1367,    1366
   16614,    1295,    1296,    1368,    1367
   16615,    1297,    1298,    1370,    1369
   16616,    1298,    1299,    1371,    1370
   16617,    1299,    1300,    1372,    1371
   16618,    1300,    1301,    1373,    1372
   16619,    1301,    1302,    1374,    1373
   16620,    1302,    1303,    1375,    1374
   16621,    1303,    1304,    1376,    1375
   16622,    1304,    1305,    1377,    1376
   16623,    1305,    1306,    1378,    1377
   16624,    1306,    1307,    1379,    1378
   16625,    1307,    1308,    1380,    1379
   16626,    1308,    1309,    1381,    1380
   16627,    1309,    1310,    1382,    1381
   16628,    1310,    1311,    1383,    1382
   16629,    1311,    1312,    1384,    1383
   16630,    1312,    1313,    1385,    1384
   16631,    1313,    1314,    1386,    1385
   16632,    1314,    1315,    1387,    1386
   16633,    1315,    1316,    1388,    1387
   16634,    1316,    1317,    1389,    1388
   16635,    1317,    1318,    1390,    1389
   16636,    1318,    1319,    1391,    1390
   16637,    1319,    1320,    1392,    1391
   16638,    1320,    1321,    1393,    1392
   16639,    1321,    1322,    1394,    1393
   16640,    1322,    1323,    1395,    1394
   16641,    1323,    1324,    1396,    1395
   16642,    1324,    1325,    1397,    1396
   16643,    1325,    1326,    1398,    1397
   16644,    1326,    1327,    1399,    1398
   16645,    1327,    1328,    1400,    1399
   16646,    1328,    1329,    1401,    1400
   16647,    1329,    1330,    1402,    1401
   16648,    1330,    1331,    1403,    1402
   16649,    1331,    1332,    1404,    1403
   16650,    1332,    1333,    1405,    1404
   16651,    1333,    1334,    1406,    1405
   16652,    1334,    1335,    1407,    1406
   16653,    1335,    1336,    1408,    1407
   16654,    1336,    1337,    1409,    1408
   16655,    1337,    1338,    1410,    1409
   16656,    1338,    1339,    1411,    1410
   16657,    1339,    1340,    1412,    1411
   16658,    1340,    1341,    1413,    1412
   16659,    1341,    1342,    1414,    1413
   16660,    1342,    1343,    1415,    1414
   16661,    1343,    1344,    1416,    1415
   16662,    1344,    1345,    1417,    1416
   16663,    1345,    1346,    1418,    1417
   16664,    1346,    1347,    1419,    1418
   16665,    1347,    1348,    1420,    1419
   16666,    1348,    1349,    1421,    1420
   16667,    1349,    1350,    1422,    1421
   16668,    1350,    1351,    1423,    1422
   16669,    1351,    1352,    1424,    1423
   16670,    1352,    1353,    1425,    1424
   16671,    1353,    1354,    1426,    1425
   16672,    1354,    1355,    1427,    1426
   16673,    1355,    1356,    1428,    1427
   16674,    1356,    1357,    1429,    1428
   16675,    1357,    1358,    1430,    1429
   16676,    1358,    1359,    1431,    1430
   16677,    1359,    1360,    1432,    1431
   16678,    1360,    1361,    1433,    1432
   16679,    1361,    1362,    1434,    1433
   16680,    1362,    1363,    1435,    1434
   16681,    1363,    1364,    1436,    1435
   16682,    1364,    1365,    1437,    1436
   16683,    1365,    1366,    1438,    1437
   16684,    1366,    1367,    1439,    1438
   16685,    1367,    1368,    1440,    1439
   16686,    1369,    1370,    1442,    1441
   16687,    1370,    1371,    1443,    1442
   16688,    1371,    1372,    1444,    1443
   16689,    1372,    1373,    1445,    1444
   16690,    1373,    1374,    1446,    1445
   16691,    1374,    1375,    1447,    1446
   16692,    1375,    1376,    1448,    1447
   16693,    1376,    1377,    1449,    1448
   16694,    1377,    1378,    1450,    1449
   16695,    1378,    1379,    1451,    1450
   16696,    1379,    1380,    1452,    1451
   16697,    1380,    1381,    1453,    1452
   16698,    1381,    1382,    1454,    1453
   16699,    1382,    1383,    1455,    1454
   16700,    1383,    1384,    1456,    1455
   16701,    1384,    1385,    1457,    1456
   16702,    1385,    1386,    1458,    1457
   16703,    1386,    1387,    1459,    1458
   16704,    1387,    1388,    1460,    1459
   16705,    1388,    1389,    1461,    1460
   16706,    1389,    1390,    1462,    1461
   16707,    1390,    1391,    1463,    1462
   16708,    1391,    1392,    1464,    1463
   16709,    1392,    1393,    1465,    1464
   16710,    1393,    1394,    1466,    1465
   16711,    1394,    1395,    1467,    1466
   16712,    1395,    1396,    1468,    1467
   16713,    1396,    1397,    1469,    1468
   16714,    1397,    1398,    1470,    1469
   16715,    1398,    1399,    1471,    1470
   16716,    1399,    1400,    1472,    1471
   16717,    1400,    1401,    1473,    1472
   16718,    1401,    1402,    1474,    1473
   16719,    1402,    1403,    1475,    1474
   16720,    1403,    1404,    1476,    1475
   16721,    1404,    1405,    1477,    1476
   16722,    1405,    1406,    1478,    1477
   16723,    1406,    1407,    1479,    1478
   16724,    1407,    1408,    1480,    1479
   16725,    1408,    1409,    1481,    1480
   16726,    1409,    1410,    1482,    1481
   16727,    1410,    1411,    1483,    1482
   16728,    1411,    1412,    1484,    1483
   16729,    1412,    1413,    1485,    1484
   16730,    1413,    1414,    1486,    1485
   16731,    1414,    1415,    1487,    1486
   16732,    1415,    1416,    1488,    1487
   16733,    1416,    1417,    1489,    1488
   16734,    1417,    1418,    1490,    1489
   16735,    1418,    1419,    1491,    1490
   16736,    1419,    1420,    1492,    1491
   16737,    1420,    1421,    1493,    1492
   16738,    1421,    1422,    1494,    1493
   16739,    1422,    1423,    1495,    1494
   16740,    1423,    1424,    1496,    1495
   16741,    1424,    1425,    1497,    1496
   16742,    1425,    1426,    1498,    1497
   16743,    1426,    1427,    1499,    1498
   16744,    1427,    1428,    1500,    1499
   16745,    1428,    1429,    1501,    1500
   16746,    1429,    1430,    1502,    1501
   16747,    1430,    1431,    1503,    1502
   16748,    1431,    1432,    1504,    1503
   16749,    1432,    1433,    1505,    1504
   16750,    1433,    1434,    1506,    1505
   16751,    1434,    1435,    1507,    1506
   16752,    1435,    1436,    1508,    1507
   16753,    1436,    1437,    1509,    1508
   16754,    1437,    1438,    1510,    1509
   16755,    1438,    1439,    1511,    1510
   16756,    1439,    1440,    1512,    1511
   16757,    1441,    1442,    1514,    1513
   16758,    1442,    1443,    1515,    1514
   16759,    1443,    1444,    1516,    1515
   16760,    1444,    1445,    1517,    1516
   16761,    1445,    1446,    1518,    1517
   16762,    1446,    1447,    1519,    1518
   16763,    1447,    1448,    1520,    1519
   16764,    1448,    1449,    1521,    1520
   16765,    1449,    1450,    1522,    1521
   16766,    1450,    1451,    1523,    1522
   16767,    1451,    1452,    1524,    1523
   16768,    1452,    1453,    1525,    1524
   16769,    1453,    1454,    1526,    1525
   16770,    1454,    1455,    1527,    1526
   16771,    1455,    1456,    1528,    1527
   16772,    1456,    1457,    1529,    1528
   16773,    1457,    1458,    1530,    1529
   16774,    1458,    1459,    1531,    1530
   16775,    1459,    1460,    1532,    1531
   16776,    1460,    1461,    1533,    1532
   16777,    1461,    1462,    1534,    1533
   16778,    1462,    1463,    1535,    1534
   16779,    1463,    1464,    1536,    1535
   16780,    1464,    1465,    1537,    1536
   16781,    1465,    1466,    1538,    1537
   16782,    1466,    1467,    1539,    1538
   16783,    1467,    1468,    1540,    1539
   16784,    1468,    1469,    1541,    1540
   16785,    1469,    1470,    1542,    1541
   16786,    1470,    1471,    1543,    1542
   16787,    1471,    1472,    1544,    1543
   16788,    1472,    1473,    1545,    1544
   16789,    1473,    1474,    1546,    1545
   16790,    1474,    1475,    1547,    1546
   16791,    1475,    1476,    1548,    1547
   16792,    1476,    1477,    1549,    1548
   16793,    1477,    1478,    1550,    1549
   16794,    1478,    1479,    1551,    1550
   16795,    1479,    1480,    1552,    1551
   16796,    1480,    1481,    1553,    1552
   16797,    1481,    1482,    1554,    1553
   16798,    1482,    1483,    1555,    1554
   16799,    1483,    1484,    1556,    1555
   16800,    1484,    1485,    1557,    1556
   16801,    1485,    1486,    1558,    1557
   16802,    1486,    1487,    1559,    1558
   16803,    1487,    1488,    1560,    1559
   16804,    1488,    1489,    1561,    1560
   16805,    1489,    1490,    1562,    1561
   16806,    1490,    1491,    1563,    1562
   16807,    1491,    1492,    1564,    1563
   16808,    1492,    1493,    1565,    1564
   16809,    1493,    1494,    1566,    1565
   16810,    1494,    1495,    1567,    1566
   16811,    1495,    1496,    1568,    1567
   16812,    1496,    1497,    1569,    1568
   16813,    1497,    1498,    1570,    1569
   16814,    1498,    1499,    1571,    1570
   16815,    1499,    1500,    1572,    1571
   16816,    1500,    1501,    1573,    1572
   16817,    1501,    1502,    1574,    1573
   16818,    1502,    1503,    1575,    1574
   16819,    1503,    1504,    1576,    1575
   16820,    1504,    1505,    1577,    1576
   16821,    1505,    1506,    1578,    1577
   16822,    1506,    1507,    1579,    1578
   16823,    1507,    1508,    1580,    1579
   16824,    1508,    1509,    1581,    1580
   16825,    1509,    1510,    1582,    1581
   16826,    1510,    1511,    1583,    1582
   16827,    1511,    1512,    1584,    1583
   16828,    1513,    1514,    1586,    1585
   16829,    1514,    1515,    1587,    1586
   16830,    1515,    1516,    1588,    1587
   16831,    1516,    1517,    1589,    1588
   16832,    1517,    1518,    1590,    1589
   16833,    1518,    1519,    1591,    1590
   16834,    1519,    1520,    1592,    1591
   16835,    1520,    1521,    1593,    1592
   16836,    1521,    1522,    1594,    1593
   16837,    1522,    1523,    1595,    1594
   16838,    1523,    1524,    1596,    1595
   16839,    1524,    1525,    1597,    1596
   16840,    1525,    1526,    1598,    1597
   16841,    1526,    1527,    1599,    1598
   16842,    1527,    1528,    1600,    1599
   16843,    1528,    1529,    1601,    1600
   16844,    1529,    1530,    1602,    1601
   16845,    1530,    1531,    1603,    1602
   16846,    1531,    1532,    1604,    1603
   16847,    1532,    1533,    1605,    1604
   16848,    1533,    1534,    1606,    1605
   16849,    1534,    1535,    1607,    1606
   16850,    1535,    1536,    1608,    1607
   16851,    1536,    1537,    1609,    1608
   16852,    1537,    1538,    1610,    1609
   16853,    1538,    1539,    1611,    1610
   16854,    1539,    1540,    1612,    1611
   16855,    1540,    1541,    1613,    1612
   16856,    1541,    1542,    1614,    1613
   16857,    1542,    1543,    1615,    1614
   16858,    1543,    1544,    1616,    1615
   16859,    1544,    1545,    1617,    1616
   16860,    1545,    1546,    1618,    1617
   16861,    1546,    1547,    1619,    1618
   16862,    1547,    1548,    1620,    1619
   16863,    1548,    1549,    1621,    1620
   16864,    1549,    1550,    1622,    1621
   16865,    1550,    1551,    1623,    1622
   16866,    1551,    1552,    1624,    1623
   16867,    1552,    1553,    1625,    1624
   16868,    1553,    1554,    1626,    1625
   16869,    1554,    1555,    1627,    1626
   16870,    1555,    1556,    1628,    1627
   16871,    1556,    1557,    1629,    1628
   16872,    1557,    1558,    1630,    1629
   16873,    1558,    1559,    1631,    1630
   16874,    1559,    1560,    1632,    1631
   16875,    1560,    1561,    1633,    1632
   16876,    1561,    1562,    1634,    1633
   16877,    1562,    1563,    1635,    1634
   16878,    1563,    1564,    1636,    1635
   16879,    1564,    1565,    1637,    1636
   16880,    1565,    1566,    1638,    1637
   16881,    1566,    1567,    1639,    1638
   16882,    1567,    1568,    1640,    1639
   16883,    1568,    1569,    1641,    1640
   16884,    1569,    1570,    1642,    1641
   16885,    1570,    1571,    1643,    1642
   16886,    1571,    1572,    1644,    1643
   16887,    1572,    1573,    1645,    1644
   16888,    1573,    1574,    1646,    1645
   16889,    1574,    1575,    1647,    1646
   16890,    1575,    1576,    1648,    1647
   16891,    1576,    1577,    1649,    1648
   16892,    1577,    1578,    1650,    1649
   16893,    1578,    1579,    1651,    1650
   16894,    1579,    1580,    1652,    1651
   16895,    1580,    1581,    1653,    1652
   16896,    1581,    1582,    1654,    1653
   16897,    1582,    1583,    1655,    1654
   16898,    1583,    1584,    1656,    1655
   16899,    1585,    1586,    1658,    1657
   16900,    1586,    1587,    1659,    1658
   16901,    1587,    1588,    1660,    1659
   16902,    1588,    1589,    1661,    1660
   16903,    1589,    1590,    1662,    1661
   16904,    1590,    1591,    1663,    1662
   16905,    1591,    1592,    1664,    1663
   16906,    1592,    1593,    1665,    1664
   16907,    1593,    1594,    1666,    1665
   16908,    1594,    1595,    1667,    1666
   16909,    1595,    1596,    1668,    1667
   16910,    1596,    1597,    1669,    1668
   16911,    1597,    1598,    1670,    1669
   16912,    1598,    1599,    1671,    1670
   16913,    1599,    1600,    1672,    1671
   16914,    1600,    1601,    1673,    1672
   16915,    1601,    1602,    1674,    1673
   16916,    1602,    1603,    1675,    1674
   16917,    1603,    1604,    1676,    1675
   16918,    1604,    1605,    1677,    1676
   16919,    1605,    1606,    1678,    1677
   16920,    1606,    1607,    1679,    1678
   16921,    1607,    1608,    1680,    1679
   16922,    1608,    1609,    1681,    1680
   16923,    1609,    1610,    1682,    1681
   16924,    1610,    1611,    1683,    1682
   16925,    1611,    1612,    1684,    1683
   16926,    1612,    1613,    1685,    1684
   16927,    1613,    1614,    1686,    1685
   16928,    1614,    1615,    1687,    1686
   16929,    1615,    1616,    1688,    1687
   16930,    1616,    1617,    1689,    1688
   16931,    1617,    1618,    1690,    1689
   16932,    1618,    1619,    1691,    1690
   16933,    1619,    1620,    1692,    1691
   16934,    1620,    1621,    1693,    1692
   16935,    1621,    1622,    1694,    1693
   16936,    1622,    1623,    1695,    1694
   16937,    1623,    1624,    1696,    1695
   16938,    1624,    1625,    1697,    1696
   16939,    1625,    1626,    1698,    1697
   16940,    1626,    1627,    1699,    1698
   16941,    1627,    1628,    1700,    1699
   16942,    1628,    1629,    1701,    1700
   16943,    1629,    1630,    1702,    1701
   16944,    1630,    1631,    1703,    1702
   16945,    1631,    1632,    1704,    1703
   16946,    1632,    1633,    1705,    1704
   16947,    1633,    1634,    1706,    1705
   16948,    1634,    1635,    1707,    1706
   16949,    1635,    1636,    1708,    1707
   16950,    1636,    1637,    1709,    1708
   16951,    1637,    1638,    1710,    1709
   16952,    1638,    1639,    1711,    1710
   16953,    1639,    1640,    1712,    1711
   16954,    1640,    1641,    1713,    1712
   16955,    1641,    1642,    1714,    1713
   16956,    1642,    1643,    1715,    1714
   16957,    1643,    1644,    1716,    1715
   16958,    1644,    1645,    1717,    1716
   16959,    1645,    1646,    1718,    1717
   16960,    1646,    1647,    1719,    1718
   16961,    1647,    1648,    1720,    1719
   16962,    1648,    1649,    1721,    1720
   16963,    1649,    1650,    1722,    1721
   16964,    1650,    1651,    1723,    1722
   16965,    1651,    1652,    1724,    1723
   16966,    1652,    1653,    1725,    1724
   16967,    1653,    1654,    1726,    1725
   16968,    1654,    1655,    1727,    1726
   16969,    1655,    1656,    1728,    1727
   16970,    1657,    1658,    1730,    1729
   16971,    1658,    1659,    1731,    1730
   16972,    1659,    1660,    1732,    1731
   16973,    1660,    1661,    1733,    1732
   16974,    1661,    1662,    1734,    1733
   16975,    1662,    1663,    1735,    1734
   16976,    1663,    1664,    1736,    1735
   16977,    1664,    1665,    1737,    1736
   16978,    1665,    1666,    1738,    1737
   16979,    1666,    1667,    1739,    1738
   16980,    1667,    1668,    1740,    1739
   16981,    1668,    1669,    1741,    1740
   16982,    1669,    1670,    1742,    1741
   16983,    1670,    1671,    1743,    1742
   16984,    1671,    1672,    1744,    1743
   16985,    1672,    1673,    1745,    1744
   16986,    1673,    1674,    1746,    1745
   16987,    1674,    1675,    1747,    1746
   16988,    1675,    1676,    1748,    1747
   16989,    1676,    1677,    1749,    1748
   16990,    1677,    1678,    1750,    1749
   16991,    1678,    1679,    1751,    1750
   16992,    1679,    1680,    1752,    1751
   16993,    1680,    1681,    1753,    1752
   16994,    1681,    1682,    1754,    1753
   16995,    1682,    1683,    1755,    1754
   16996,    1683,    1684,    1756,    1755
   16997,    1684,    1685,    1757,    1756
   16998,    1685,    1686,    1758,    1757
   16999,    1686,    1687,    1759,    1758
   17000,    1687,    1688,    1760,    1759
   17001,    1688,    1689,    1761,    1760
   17002,    1689,    1690,    1762,    1761
   17003,    1690,    1691,    1763,    1762
   17004,    1691,    1692,    1764,    1763
   17005,    1692,    1693,    1765,    1764
   17006,    1693,    1694,    1766,    1765
   17007,    1694,    1695,    1767,    1766
   17008,    1695,    1696,    1768,    1767
   17009,    1696,    1697,    1769,    1768
   17010,    1697,    1698,    1770,    1769
   17011,    1698,    1699,    1771,    1770
   17012,    1699,    1700,    1772,    1771
   17013,    1700,    1701,    1773,    1772
   17014,    1701,    1702,    1774,    1773
   17015,    1702,    1703,    1775,    1774
   17016,    1703,    1704,    1776,    1775
   17017,    1704,    1705,    1777,    1776
   17018,    1705,    1706,    1778,    1777
   17019,    1706,    1707,    1779,    1778
   17020,    1707,    1708,    1780,    1779
   17021,    1708,    1709,    1781,    1780
   17022,    1709,    1710,    1782,    1781
   17023,    1710,    1711,    1783,    1782
   17024,    1711,    1712,    1784,    1783
   17025,    1712,    1713,    1785,    1784
   17026,    1713,    1714,    1786,    1785
   17027,    1714,    1715,    1787,    1786
   17028,    1715,    1716,    1788,    1787
   17029,    1716,    1717,    1789,    1788
   17030,    1717,    1718,    1790,    1789
   17031,    1718,    1719,    1791,    1790
   17032,    1719,    1720,    1792,    1791
   17033,    1720,    1721,    1793,    1792
   17034,    1721,    1722,    1794,    1793
   17035,    1722,    1723,    1795,    1794
   17036,    1723,    1724,    1796,    1795
   17037,    1724,    1725,    1797,    1796
   17038,    1725,    1726,    1798,    1797
   17039,    1726,    1727,    1799,    1798
   17040,    1727,    1728,    1800,    1799
   17041,    1729,    1730,    1802,    1801
   17042,    1730,    1731,    1803,    1802
   17043,    1731,    1732,    1804,    1803
   17044,    1732,    1733,    1805,    1804
   17045,    1733,    1734,    1806,    1805
   17046,    1734,    1735,    1807,    1806
   17047,    1735,    1736,    1808,    1807
   17048,    1736,    1737,    1809,    1808
   17049,    1737,    1738,    1810,    1809
   17050,    1738,    1739,    1811,    1810
   17051,    1739,    1740,    1812,    1811
   17052,    1740,    1741,    1813,    1812
   17053,    1741,    1742,    1814,    1813
   17054,    1742,    1743,    1815,    1814
   17055,    1743,    1744,    1816,    1815
   17056,    1744,    1745,    1817,    1816
   17057,    1745,    1746,    1818,    1817
   17058,    1746,    1747,    1819,    1818
   17059,    1747,    1748,    1820,    1819
   17060,    1748,    1749,    1821,    1820
   17061,    1749,    1750,    1822,    1821
   17062,    1750,    1751,    1823,    1822
   17063,    1751,    1752,    1824,    1823
   17064,    1752,    1753,    1825,    1824
   17065,    1753,    1754,    1826,    1825
   17066,    1754,    1755,    1827,    1826
   17067,    1755,    1756,    1828,    1827
   17068,    1756,    1757,    1829,    1828
   17069,    1757,    1758,    1830,    1829
   17070,    1758,    1759,    1831,    1830
   17071,    1759,    1760,    1832,    1831
   17072,    1760,    1761,    1833,    1832
   17073,    1761,    1762,    1834,    1833
   17074,    1762,    1763,    1835,    1834
   17075,    1763,    1764,    1836,    1835
   17076,    1764,    1765,    1837,    1836
   17077,    1765,    1766,    1838,    1837
   17078,    1766,    1767,    1839,    1838
   17079,    1767,    1768,    1840,    1839
   17080,    1768,    1769,    1841,    1840
   17081,    1769,    1770,    1842,    1841
   17082,    1770,    1771,    1843,    1842
   17083,    1771,    1772,    1844,    1843
   17084,    1772,    1773,    1845,    1844
   17085,    1773,    1774,    1846,    1845
   17086,    1774,    1775,    1847,    1846
   17087,    1775,    1776,    1848,    1847
   17088,    1776,    1777,    1849,    1848
   17089,    1777,    1778,    1850,    1849
   17090,    1778,    1779,    1851,    1850
   17091,    1779,    1780,    1852,    1851
   17092,    1780,    1781,    1853,    1852
   17093,    1781,    1782,    1854,    1853
   17094,    1782,    1783,    1855,    1854
   17095,    1783,    1784,    1856,    1855
   17096,    1784,    1785,    1857,    1856
   17097,    1785,    1786,    1858,    1857
   17098,    1786,    1787,    1859,    1858
   17099,    1787,    1788,    1860,    1859
   17100,    1788,    1789,    1861,    1860
   17101,    1789,    1790,    1862,    1861
   17102,    1790,    1791,    1863,    1862
   17103,    1791,    1792,    1864,    1863
   17104,    1792,    1793,    1865,    1864
   17105,    1793,    1794,    1866,    1865
   17106,    1794,    1795,    1867,    1866
   17107,    1795,    1796,    1868,    1867
   17108,    1796,    1797,    1869,    1868
   17109,    1797,    1798,    1870,    1869
   17110,    1798,    1799,    1871,    1870
   17111,    1799,    1800,    1872,    1871
   17112,    1801,    1802,    1874,    1873
   17113,    1802,    1803,    1875,    1874
   17114,    1803,    1804,    1876,    1875
   17115,    1804,    1805,    1877,    1876
   17116,    1805,    1806,    1878,    1877
   17117,    1806,    1807,    1879,    1878
   17118,    1807,    1808,    1880,    1879
   17119,    1808,    1809,    1881,    1880
   17120,    1809,    1810,    1882,    1881
   17121,    1810,    1811,    1883,    1882
   17122,    1811,    1812,    1884,    1883
   17123,    1812,    1813,    1885,    1884
   17124,    1813,    1814,    1886,    1885
   17125,    1814,    1815,    1887,    1886
   17126,    1815,    1816,    1888,    1887
   17127,    1816,    1817,    1889,    1888
   17128,    1817,    1818,    1890,    1889
   17129,    1818,    1819,    1891,    1890
   17130,    1819,    1820,    1892,    1891
   17131,    1820,    1821,    1893,    1892
   17132,    1821,    1822,    1894,    1893
   17133,    1822,    1823,    1895,    1894
   17134,    1823,    1824,    1896,    1895
   17135,    1824,    1825,    1897,    1896
   17136,    1825,    1826,    1898,    1897
   17137,    1826,    1827,    1899,    1898
   17138,    1827,    1828,    1900,    1899
   17139,    1828,    1829,    1901,    1900
   17140,    1829,    1830,    1902,    1901
   17141,    1830,    1831,    1903,    1902
   17142,    1831,    1832,    1904,    1903
   17143,    1832,    1833,    1905,    1904
   17144,    1833,    1834,    1906,    1905
   17145,    1834,    1835,    1907,    1906
   17146,    1835,    1836,    1908,    1907
   17147,    1836,    1837,    1909,    1908
   17148,    1837,    1838,    1910,    1909
   17149,    1838,    1839,    1911,    1910
   17150,    1839,    1840,    1912,    1911
   17151,    1840,    1841,    1913,    1912
   17152,    1841,    1842,    1914,    1913
   17153,    1842,    1843,    1915,    1914
   17154,    1843,    1844,    1916,    1915
   17155,    1844,    1845,    1917,    1916
   17156,    1845,    1846,    1918,    1917
   17157,    1846,    1847,    1919,    1918
   17158,    1847,    1848,    1920,    1919
   17159,    1848,    1849,    1921,    1920
   17160,    1849,    1850,    1922,    1921
   17161,    1850,    1851,    1923,    1922
   17162,    1851,    1852,    1924,    1923
   17163,    1852,    1853,    1925,    1924
   17164,    1853,    1854,    1926,    1925
   17165,    1854,    1855,    1927,    1926
   17166,    1855,    1856,    1928,    1927
   17167,    1856,    1857,    1929,    1928
   17168,    1857,    1858,    1930,    1929
   17169,    1858,    1859,    1931,    1930
   17170,    1859,    1860,    1932,    1931
   17171,    1860,    1861,    1933,    1932
   17172,    1861,    1862,    1934,    1933
   17173,    1862,    1863,    1935,    1934
   17174,    1863,    1864,    1936,    1935
   17175,    1864,    1865,    1937,    1936
   17176,    1865,    1866,    1938,    1937
   17177,    1866,    1867,    1939,    1938
   17178,    1867,    1868,    1940,    1939
   17179,    1868,    1869,    1941,    1940
   17180,    1869,    1870,    1942,    1941
   17181,    1870,    1871,    1943,    1942
   17182,    1871,    1872,    1944,    1943
   17183,    1873,    1874,    1946,    1945
   17184,    1874,    1875,    1947,    1946
   17185,    1875,    1876,    1948,    1947
   17186,    1876,    1877,    1949,    1948
   17187,    1877,    1878,    1950,    1949
   17188,    1878,    1879,    1951,    1950
   17189,    1879,    1880,    1952,    1951
   17190,    1880,    1881,    1953,    1952
   17191,    1881,    1882,    1954,    1953
   17192,    1882,    1883,    1955,    1954
   17193,    1883,    1884,    1956,    1955
   17194,    1884,    1885,    1957,    1956
   17195,    1885,    1886,    1958,    1957
   17196,    1886,    1887,    1959,    1958
   17197,    1887,    1888,    1960,    1959
   17198,    1888,    1889,    1961,    1960
   17199,    1889,    1890,    1962,    1961
   17200,    1890,    1891,    1963,    1962
   17201,    1891,    1892,    1964,    1963
   17202,    1892,    1893,    1965,    1964
   17203,    1893,    1894,    1966,    1965
   17204,    1894,    1895,    1967,    1966
   17205,    1895,    1896,    1968,    1967
   17206,    1896,    1897,    1969,    1968
   17207,    1897,    1898,    1970,    1969
   17208,    1898,    1899,    1971,    1970
   17209,    1899,    1900,    1972,    1971
   17210,    1900,    1901,    1973,    1972
   17211,    1901,    1902,    1974,    1973
   17212,    1902,    1903,    1975,    1974
   17213,    1903,    1904,    1976,    1975
   17214,    1904,    1905,    1977,    1976
   17215,    1905,    1906,    1978,    1977
   17216,    1906,    1907,    1979,    1978
   17217,    1907,    1908,    1980,    1979
   17218,    1908,    1909,    1981,    1980
   17219,    1909,    1910,    1982,    1981
   17220,    1910,    1911,    1983,    1982
   17221,    1911,    1912,    1984,    1983
   17222,    1912,    1913,    1985,    1984
   17223,    1913,    1914,    1986,    1985
   17224,    1914,    1915,    1987,    1986
   17225,    1915,    1916,    1988,    1987
   17226,    1916,    1917,    1989,    1988
   17227,    1917,    1918,    1990,    1989
   17228,    1918,    1919,    1991,    1990
   17229,    1919,    1920,    1992,    1991
   17230,    1920,    1921,    1993,    1992
   17231,    1921,    1922,    1994,    1993
   17232,    1922,    1923,    1995,    1994
   17233,    1923,    1924,    1996,    1995
   17234,    1924,    1925,    1997,    1996
   17235,    1925,    1926,    1998,    1997
   17236,    1926,    1927,    1999,    1998
   17237,    1927,    1928,    2000,    1999
   17238,    1928,    1929,    2001,    2000
   17239,    1929,    1930,    2002,    2001
   17240,    1930,    1931,    2003,    2002
   17241,    1931,    1932,    2004,    2003
   17242,    1932,    1933,    2005,    2004
   17243,    1933,    1934,    2006,    2005
   17244,    1934,    1935,    2007,    2006
   17245,    1935,    1936,    2008,    2007
   17246,    1936,    1937,    2009,    2008
   17247,    1937,    1938,    2010,    2009
   17248,    1938,    1939,    2011,    2010
   17249,    1939,    1940,    2012,    2011
   17250,    1940,    1941,    2013,    2012
   17251,    1941,    1942,    2014,    2013
   17252,    1942,    1943,    2015,    2014
   17253,    1943,    1944,    2016,    2015
   17254,    1945,    1946,    2018,    2017
   17255,    1946,    1947,    2019,    2018
   17256,    1947,    1948,    2020,    2019
   17257,    1948,    1949,    2021,    2020
   17258,    1949,    1950,    2022,    2021
   17259,    1950,    1951,    2023,    2022
   17260,    1951,    1952,    2024,    2023
   17261,    1952,    1953,    2025,    2024
   17262,    1953,    1954,    2026,    2025
   17263,    1954,    1955,    2027,    2026
   17264,    1955,    1956,    2028,    2027
   17265,    1956,    1957,    2029,    2028
   17266,    1957,    1958,    2030,    2029
   17267,    1958,    1959,    2031,    2030
   17268,    1959,    1960,    2032,    2031
   17269,    1960,    1961,    2033,    2032
   17270,    1961,    1962,    2034,    2033
   17271,    1962,    1963,    2035,    2034
   17272,    1963,    1964,    2036,    2035
   17273,    1964,    1965,    2037,    2036
   17274,    1965,    1966,    2038,    2037
   17275,    1966,    1967,    2039,    2038
   17276,    1967,    1968,    2040,    2039
   17277,    1968,    1969,    2041,    2040
   17278,    1969,    1970,    2042,    2041
   17279,    1970,    1971,    2043,    2042
   17280,    1971,    1972,    2044,    2043
   17281,    1972,    1973,    2045,    2044
   17282,    1973,    1974,    2046,    2045
   17283,    1974,    1975,    2047,    2046
   17284,    1975,    1976,    2048,    2047
   17285,    1976,    1977,    2049,    2048
   17286,    1977,    1978,    2050,    2049
   17287,    1978,    1979,    2051,    2050
   17288,    1979,    1980,    2052,    2051
   17289,    1980,    1981,    2053,    2052
   17290,    1981,    1982,    2054,    2053
   17291,    1982,    1983,    2055,    2054
   17292,    1983,    1984,    2056,    2055
   17293,    1984,    1985,    2057,    2056
   17294,    1985,    1986,    2058,    2057
   17295,    1986,    1987,    2059,    2058
   17296,    1987,    1988,    2060,    2059
   17297,    1988,    1989,    2061,    2060
   17298,    1989,    1990,    2062,    2061
   17299,    1990,    1991,    2063,    2062
   17300,    1991,    1992,    2064,    2063
   17301,    1992,    1993,    2065,    2064
   17302,    1993,    1994,    2066,    2065
   17303,    1994,    1995,    2067,    2066
   17304,    1995,    1996,    2068,    2067
   17305,    1996,    1997,    2069,    2068
   17306,    1997,    1998,    2070,    2069
   17307,    1998,    1999,    2071,    2070
   17308,    1999,    2000,    2072,    2071
   17309,    2000,    2001,    2073,    2072
   17310,    2001,    2002,    2074,    2073
   17311,    2002,    2003,    2075,    2074
   17312,    2003,    2004,    2076,    2075
   17313,    2004,    2005,    2077,    2076
   17314,    2005,    2006,    2078,    2077
   17315,    2006,    2007,    2079,    2078
   17316,    2007,    2008,    2080,    2079
   17317,    2008,    2009,    2081,    2080
   17318,    2009,    2010,    2082,    2081
   17319,    2010,    2011,    2083,    2082
   17320,    2011,    2012,    2084,    2083
   17321,    2012,    2013,    2085,    2084
   17322,    2013,    2014,    2086,    2085
   17323,    2014,    2015,    2087,    2086
   17324,    2015,    2016,    2088,    2087
   17325,    2017,    2018,    2090,    2089
   17326,    2018,    2019,    2091,    2090
   17327,    2019,    2020,    2092,    2091
   17328,    2020,    2021,    2093,    2092
   17329,    2021,    2022,    2094,    2093
   17330,    2022,    2023,    2095,    2094
   17331,    2023,    2024,    2096,    2095
   17332,    2024,    2025,    2097,    2096
   17333,    2025,    2026,    2098,    2097
   17334,    2026,    2027,    2099,    2098
   17335,    2027,    2028,    2100,    2099
   17336,    2028,    2029,    2101,    2100
   17337,    2029,    2030,    2102,    2101
   17338,    2030,    2031,    2103,    2102
   17339,    2031,    2032,    2104,    2103
   17340,    2032,    2033,    2105,    2104
   17341,    2033,    2034,    2106,    2105
   17342,    2034,    2035,    2107,    2106
   17343,    2035,    2036,    2108,    2107
   17344,    2036,    2037,    2109,    2108
   17345,    2037,    2038,    2110,    2109
   17346,    2038,    2039,    2111,    2110
   17347,    2039,    2040,    2112,    2111
   17348,    2040,    2041,    2113,    2112
   17349,    2041,    2042,    2114,    2113
   17350,    2042,    2043,    2115,    2114
   17351,    2043,    2044,    2116,    2115
   17352,    2044,    2045,    2117,    2116
   17353,    2045,    2046,    2118,    2117
   17354,    2046,    2047,    2119,    2118
   17355,    2047,    2048,    2120,    2119
   17356,    2048,    2049,    2121,    2120
   17357,    2049,    2050,    2122,    2121
   17358,    2050,    2051,    2123,    2122
   17359,    2051,    2052,    2124,    2123
   17360,    2052,    2053,    2125,    2124
   17361,    2053,    2054,    2126,    2125
   17362,    2054,    2055,    2127,    2126
   17363,    2055,    2056,    2128,    2127
   17364,    2056,    2057,    2129,    2128
   17365,    2057,    2058,    2130,    2129
   17366,    2058,    2059,    2131,    2130
   17367,    2059,    2060,    2132,    2131
   17368,    2060,    2061,    2133,    2132
   17369,    2061,    2062,    2134,    2133
   17370,    2062,    2063,    2135,    2134
   17371,    2063,    2064,    2136,    2135
   17372,    2064,    2065,    2137,    2136
   17373,    2065,    2066,    2138,    2137
   17374,    2066,    2067,    2139,    2138
   17375,    2067,    2068,    2140,    2139
   17376,    2068,    2069,    2141,    2140
   17377,    2069,    2070,    2142,    2141
   17378,    2070,    2071,    2143,    2142
   17379,    2071,    2072,    2144,    2143
   17380,    2072,    2073,    2145,    2144
   17381,    2073,    2074,    2146,    2145
   17382,    2074,    2075,    2147,    2146
   17383,    2075,    2076,    2148,    2147
   17384,    2076,    2077,    2149,    2148
   17385,    2077,    2078,    2150,    2149
   17386,    2078,    2079,    2151,    2150
   17387,    2079,    2080,    2152,    2151
   17388,    2080,    2081,    2153,    2152
   17389,    2081,    2082,    2154,    2153
   17390,    2082,    2083,    2155,    2154
   17391,    2083,    2084,    2156,    2155
   17392,    2084,    2085,    2157,    2156
   17393,    2085,    2086,    2158,    2157
   17394,    2086,    2087,    2159,    2158
   17395,    2087,    2088,    2160,    2159
   17396,    2089,    2090,    2162,    2161
   17397,    2090,    2091,    2163,    2162
   17398,    2091,    2092,    2164,    2163
   17399,    2092,    2093,    2165,    2164
   17400,    2093,    2094,    2166,    2165
   17401,    2094,    2095,    2167,    2166
   17402,    2095,    2096,    2168,    2167
   17403,    2096,    2097,    2169,    2168
   17404,    2097,    2098,    2170,    2169
   17405,    2098,    2099,    2171,    2170
   17406,    2099,    2100,    2172,    2171
   17407,    2100,    2101,    2173,    2172
   17408,    2101,    2102,    2174,    2173
   17409,    2102,    2103,    2175,    2174
   17410,    2103,    2104,    2176,    2175
   17411,    2104,    2105,    2177,    2176
   17412,    2105,    2106,    2178,    2177
   17413,    2106,    2107,    2179,    2178
   17414,    2107,    2108,    2180,    2179
   17415,    2108,    2109,    2181,    2180
   17416,    2109,    2110,    2182,    2181
   17417,    2110,    2111,    2183,    2182
   17418,    2111,    2112,    2184,    2183
   17419,    2112,    2113,    2185,    2184
   17420,    2113,    2114,    2186,    2185
   17421,    2114,    2115,    2187,    2186
   17422,    2115,    2116,    2188,    2187
   17423,    2116,    2117,    2189,    2188
   17424,    2117,    2118,    2190,    2189
   17425,    2118,    2119,    2191,    2190
   17426,    2119,    2120,    2192,    2191
   17427,    2120,    2121,    2193,    2192
   17428,    2121,    2122,    2194,    2193
   17429,    2122,    2123,    2195,    2194
   17430,    2123,    2124,    2196,    2195
   17431,    2124,    2125,    2197,    2196
   17432,    2125,    2126,    2198,    2197
   17433,    2126,    2127,    2199,    2198
   17434,    2127,    2128,    2200,    2199
   17435,    2128,    2129,    2201,    2200
   17436,    2129,    2130,    2202,    2201
   17437,    2130,    2131,    2203,    2202
   17438,    2131,    2132,    2204,    2203
   17439,    2132,    2133,    2205,    2204
   17440,    2133,    2134,    2206,    2205
   17441,    2134,    2135,    2207,    2206
   17442,    2135,    2136,    2208,    2207
   17443,    2136,    2137,    2209,    2208
   17444,    2137,    2138,    2210,    2209
   17445,    2138,    2139,    2211,    2210
   17446,    2139,    2140,    2212,    2211
   17447,    2140,    2141,    2213,    2212
   17448,    2141,    2142,    2214,    2213
   17449,    2142,    2143,    2215,    2214
   17450,    2143,    2144,    2216,    2215
   17451,    2144,    2145,    2217,    2216
   17452,    2145,    2146,    2218,    2217
   17453,    2146,    2147,    2219,    2218
   17454,    2147,    2148,    2220,    2219
   17455,    2148,    2149,    2221,    2220
   17456,    2149,    2150,    2222,    2221
   17457,    2150,    2151,    2223,    2222
   17458,    2151,    2152,    2224,    2223
   17459,    2152,    2153,    2225,    2224
   17460,    2153,    2154,    2226,    2225
   17461,    2154,    2155,    2227,    2226
   17462,    2155,    2156,    2228,    2227
   17463,    2156,    2157,    2229,    2228
   17464,    2157,    2158,    2230,    2229
   17465,    2158,    2159,    2231,    2230
   17466,    2159,    2160,    2232,    2231
   17467,    2161,    2162,    2234,    2233
   17468,    2162,    2163,    2235,    2234
   17469,    2163,    2164,    2236,    2235
   17470,    2164,    2165,    2237,    2236
   17471,    2165,    2166,    2238,    2237
   17472,    2166,    2167,    2239,    2238
   17473,    2167,    2168,    2240,    2239
   17474,    2168,    2169,    2241,    2240
   17475,    2169,    2170,    2242,    2241
   17476,    2170,    2171,    2243,    2242
   17477,    2171,    2172,    2244,    2243
   17478,    2172,    2173,    2245,    2244
   17479,    2173,    2174,    2246,    2245
   17480,    2174,    2175,    2247,    2246
   17481,    2175,    2176,    2248,    2247
   17482,    2176,    2177,    2249,    2248
   17483,    2177,    2178,    2250,    2249
   17484,    2178,    2179,    2251,    2250
   17485,    2179,    2180,    2252,    2251
   17486,    2180,    2181,    2253,    2252
   17487,    2181,    2182,    2254,    2253
   17488,    2182,    2183,    2255,    2254
   17489,    2183,    2184,    2256,    2255
   17490,    2184,    2185,    2257,    2256
   17491,    2185,    2186,    2258,    2257
   17492,    2186,    2187,    2259,    2258
   17493,    2187,    2188,    2260,    2259
   17494,    2188,    2189,    2261,    2260
   17495,    2189,    2190,    2262,    2261
   17496,    2190,    2191,    2263,    2262
   17497,    2191,    2192,    2264,    2263
   17498,    2192,    2193,    2265,    2264
   17499,    2193,    2194,    2266,    2265
   17500,    2194,    2195,    2267,    2266
   17501,    2195,    2196,    2268,    2267
   17502,    2196,    2197,    2269,    2268
   17503,    2197,    2198,    2270,    2269
   17504,    2198,    2199,    2271,    2270
   17505,    2199,    2200,    2272,    2271
   17506,    2200,    2201,    2273,    2272
   17507,    2201,    2202,    2274,    2273
   17508,    2202,    2203,    2275,    2274
   17509,    2203,    2204,    2276,    2275
   17510,    2204,    2205,    2277,    2276
   17511,    2205,    2206,    2278,    2277
   17512,    2206,    2207,    2279,    2278
   17513,    2207,    2208,    2280,    2279
   17514,    2208,    2209,    2281,    2280
   17515,    2209,    2210,    2282,    2281
   17516,    2210,    2211,    2283,    2282
   17517,    2211,    2212,    2284,    2283
   17518,    2212,    2213,    2285,    2284
   17519,    2213,    2214,    2286,    2285
   17520,    2214,    2215,    2287,    2286
   17521,    2215,    2216,    2288,    2287
   17522,    2216,    2217,    2289,    2288
   17523,    2217,    2218,    2290,    2289
   17524,    2218,    2219,    2291,    2290
   17525,    2219,    2220,    2292,    2291
   17526,    2220,    2221,    2293,    2292
   17527,    2221,    2222,    2294,    2293
   17528,    2222,    2223,    2295,    2294
   17529,    2223,    2224,    2296,    2295
   17530,    2224,    2225,    2297,    2296
   17531,    2225,    2226,    2298,    2297
   17532,    2226,    2227,    2299,    2298
   17533,    2227,    2228,    2300,    2299
   17534,    2228,    2229,    2301,    2300
   17535,    2229,    2230,    2302,    2301
   17536,    2230,    2231,    2303,    2302
   17537,    2231,    2232,    2304,    2303
   17538,    2233,    2234,    2306,    2305
   17539,    2234,    2235,    2307,    2306
   17540,    2235,    2236,    2308,    2307
   17541,    2236,    2237,    2309,    2308
   17542,    2237,    2238,    2310,    2309
   17543,    2238,    2239,    2311,    2310
   17544,    2239,    2240,    2312,    2311
   17545,    2240,    2241,    2313,    2312
   17546,    2241,    2242,    2314,    2313
   17547,    2242,    2243,    2315,    2314
   17548,    2243,    2244,    2316,    2315
   17549,    2244,    2245,    2317,    2316
   17550,    2245,    2246,    2318,    2317
   17551,    2246,    2247,    2319,    2318
   17552,    2247,    2248,    2320,    2319
   17553,    2248,    2249,    2321,    2320
   17554,    2249,    2250,    2322,    2321
   17555,    2250,    2251,    2323,    2322
   17556,    2251,    2252,    2324,    2323
   17557,    2252,    2253,    2325,    2324
   17558,    2253,    2254,    2326,    2325
   17559,    2254,    2255,    2327,    2326
   17560,    2255,    2256,    2328,    2327
   17561,    2256,    2257,    2329,    2328
   17562,    2257,    2258,    2330,    2329
   17563,    2258,    2259,    2331,    2330
   17564,    2259,    2260,    2332,    2331
   17565,    2260,    2261,    2333,    2332
   17566,    2261,    2262,    2334,    2333
   17567,    2262,    2263,    2335,    2334
   17568,    2263,    2264,    2336,    2335
   17569,    2264,    2265,    2337,    2336
   17570,    2265,    2266,    2338,    2337
   17571,    2266,    2267,    2339,    2338
   17572,    2267,    2268,    2340,    2339
   17573,    2268,    2269,    2341,    2340
   17574,    2269,    2270,    2342,    2341
   17575,    2270,    2271,    2343,    2342
   17576,    2271,    2272,    2344,    2343
   17577,    2272,    2273,    2345,    2344
   17578,    2273,    2274,    2346,    2345
   17579,    2274,    2275,    2347,    2346
   17580,    2275,    2276,    2348,    2347
   17581,    2276,    2277,    2349,    2348
   17582,    2277,    2278,    2350,    2349
   17583,    2278,    2279,    2351,    2350
   17584,    2279,    2280,    2352,    2351
   17585,    2280,    2281,    2353,    2352
   17586,    2281,    2282,    2354,    2353
   17587,    2282,    2283,    2355,    2354
   17588,    2283,    2284,    2356,    2355
   17589,    2284,    2285,    2357,    2356
   17590,    2285,    2286,    2358,    2357
   17591,    2286,    2287,    2359,    2358
   17592,    2287,    2288,    2360,    2359
   17593,    2288,    2289,    2361,    2360
   17594,    2289,    2290,    2362,    2361
   17595,    2290,    2291,    2363,    2362
   17596,    2291,    2292,    2364,    2363
   17597,    2292,    2293,    2365,    2364
   17598,    2293,    2294,    2366,    2365
   17599,    2294,    2295,    2367,    2366
   17600,    2295,    2296,    2368,    2367
   17601,    2296,    2297,    2369,    2368
   17602,    2297,    2298,    2370,    2369
   17603,    2298,    2299,    2371,    2370
   17604,    2299,    2300,    2372,    2371
   17605,    2300,    2301,    2373,    2372
   17606,    2301,    2302,    2374,    2373
   17607,    2302,    2303,    2375,    2374
   17608,    2303,    2304,    2376,    2375
   17609,    2305,    2306,    2378,    2377
   17610,    2306,    2307,    2379,    2378
   17611,    2307,    2308,    2380,    2379
   17612,    2308,    2309,    2381,    2380
   17613,    2309,    2310,    2382,    2381
   17614,    2310,    2311,    2383,    2382
   17615,    2311,    2312,    2384,    2383
   17616,    2312,    2313,    2385,    2384
   17617,    2313,    2314,    2386,    2385
   17618,    2314,    2315,    2387,    2386
   17619,    2315,    2316,    2388,    2387
   17620,    2316,    2317,    2389,    2388
   17621,    2317,    2318,    2390,    2389
   17622,    2318,    2319,    2391,    2390
   17623,    2319,    2320,    2392,    2391
   17624,    2320,    2321,    2393,    2392
   17625,    2321,    2322,    2394,    2393
   17626,    2322,    2323,    2395,    2394
   17627,    2323,    2324,    2396,    2395
   17628,    2324,    2325,    2397,    2396
   17629,    2325,    2326,    2398,    2397
   17630,    2326,    2327,    2399,    2398
   17631,    2327,    2328,    2400,    2399
   17632,    2328,    2329,    2401,    2400
   17633,    2329,    2330,    2402,    2401
   17634,    2330,    2331,    2403,    2402
   17635,    2331,    2332,    2404,    2403
   17636,    2332,    2333,    2405,    2404
   17637,    2333,    2334,    2406,    2405
   17638,    2334,    2335,    2407,    2406
   17639,    2335,    2336,    2408,    2407
   17640,    2336,    2337,    2409,    2408
   17641,    2337,    2338,    2410,    2409
   17642,    2338,    2339,    2411,    2410
   17643,    2339,    2340,    2412,    2411
   17644,    2340,    2341,    2413,    2412
   17645,    2341,    2342,    2414,    2413
   17646,    2342,    2343,    2415,    2414
   17647,    2343,    2344,    2416,    2415
   17648,    2344,    2345,    2417,    2416
   17649,    2345,    2346,    2418,    2417
   17650,    2346,    2347,    2419,    2418
   17651,    2347,    2348,    2420,    2419
   17652,    2348,    2349,    2421,    2420
   17653,    2349,    2350,    2422,    2421
   17654,    2350,    2351,    2423,    2422
   17655,    2351,    2352,    2424,    2423
   17656,    2352,    2353,    2425,    2424
   17657,    2353,    2354,    2426,    2425
   17658,    2354,    2355,    2427,    2426
   17659,    2355,    2356,    2428,    2427
   17660,    2356,    2357,    2429,    2428
   17661,    2357,    2358,    2430,    2429
   17662,    2358,    2359,    2431,    2430
   17663,    2359,    2360,    2432,    2431
   17664,    2360,    2361,    2433,    2432
   17665,    2361,    2362,    2434,    2433
   17666,    2362,    2363,    2435,    2434
   17667,    2363,    2364,    2436,    2435
   17668,    2364,    2365,    2437,    2436
   17669,    2365,    2366,    2438,    2437
   17670,    2366,    2367,    2439,    2438
   17671,    2367,    2368,    2440,    2439
   17672,    2368,    2369,    2441,    2440
   17673,    2369,    2370,    2442,    2441
   17674,    2370,    2371,    2443,    2442
   17675,    2371,    2372,    2444,    2443
   17676,    2372,    2373,    2445,    2444
   17677,    2373,    2374,    2446,    2445
   17678,    2374,    2375,    2447,    2446
   17679,    2375,    2376,    2448,    2447
   17680,    2377,    2378,    2450,    2449
   17681,    2378,    2379,    2451,    2450
   17682,    2379,    2380,    2452,    2451
   17683,    2380,    2381,    2453,    2452
   17684,    2381,    2382,    2454,    2453
   17685,    2382,    2383,    2455,    2454
   17686,    2383,    2384,    2456,    2455
   17687,    2384,    2385,    2457,    2456
   17688,    2385,    2386,    2458,    2457
   17689,    2386,    2387,    2459,    2458
   17690,    2387,    2388,    2460,    2459
   17691,    2388,    2389,    2461,    2460
   17692,    2389,    2390,    2462,    2461
   17693,    2390,    2391,    2463,    2462
   17694,    2391,    2392,    2464,    2463
   17695,    2392,    2393,    2465,    2464
   17696,    2393,    2394,    2466,    2465
   17697,    2394,    2395,    2467,    2466
   17698,    2395,    2396,    2468,    2467
   17699,    2396,    2397,    2469,    2468
   17700,    2397,    2398,    2470,    2469
   17701,    2398,    2399,    2471,    2470
   17702,    2399,    2400,    2472,    2471
   17703,    2400,    2401,    2473,    2472
   17704,    2401,    2402,    2474,    2473
   17705,    2402,    2403,    2475,    2474
   17706,    2403,    2404,    2476,    2475
   17707,    2404,    2405,    2477,    2476
   17708,    2405,    2406,    2478,    2477
   17709,    2406,    2407,    2479,    2478
   17710,    2407,    2408,    2480,    2479
   17711,    2408,    2409,    2481,    2480
   17712,    2409,    2410,    2482,    2481
   17713,    2410,    2411,    2483,    2482
   17714,    2411,    2412,    2484,    2483
   17715,    2412,    2413,    2485,    2484
   17716,    2413,    2414,    2486,    2485
   17717,    2414,    2415,    2487,    2486
   17718,    2415,    2416,    2488,    2487
   17719,    2416,    2417,    2489,    2488
   17720,    2417,    2418,    2490,    2489
   17721,    2418,    2419,    2491,    2490
   17722,    2419,    2420,    2492,    2491
   17723,    2420,    2421,    2493,    2492
   17724,    2421,    2422,    2494,    2493
   17725,    2422,    2423,    2495,    2494
   17726,    2423,    2424,    2496,    2495
   17727,    2424,    2425,    2497,    2496
   17728,    2425,    2426,    2498,    2497
   17729,    2426,    2427,    2499,    2498
   17730,    2427,    2428,    2500,    2499
   17731,    2428,    2429,    2501,    2500
   17732,    2429,    2430,    2502,    2501
   17733,    2430,    2431,    2503,    2502
   17734,    2431,    2432,    2504,    2503
   17735,    2432,    2433,    2505,    2504
   17736,    2433,    2434,    2506,    2505
   17737,    2434,    2435,    2507,    2506
   17738,    2435,    2436,    2508,    2507
   17739,    2436,    2437,    2509,    2508
   17740,    2437,    2438,    2510,    2509
   17741,    2438,    2439,    2511,    2510
   17742,    2439,    2440,    2512,    2511
   17743,    2440,    2441,    2513,    2512
   17744,    2441,    2442,    2514,    2513
   17745,    2442,    2443,    2515,    2514
   17746,    2443,    2444,    2516,    2515
   17747,    2444,    2445,    2517,    2516
   17748,    2445,    2446,    2518,    2517
   17749,    2446,    2447,    2519,    2518
   17750,    2447,    2448,    2520,    2519
   17751,    2449,    2450,    2523,    2521
   17752,    2450,    2451,    2525,    2523
   17753,    2451,    2452,    2527,    2525
   17754,    2452,    2453,    2529,    2527
   17755,    2453,    2454,    2531,    2529
   17756,    2454,    2455,    2533,    2531
   17757,    2455,    2456,    2535,    2533
   17758,    2456,    2457,    2537,    2535
   17759,    2457,    2458,    2539,    2537
   17760,    2458,    2459,    2541,    2539
   17761,    2459,    2460,    2543,    2541
   17762,    2460,    2461,    2545,    2543
   17763,    2461,    2462,    2547,    2545
   17764,    2462,    2463,    2549,    2547
   17765,    2463,    2464,    2551,    2549
   17766,    2464,    2465,    2553,    2551
   17767,    2465,    2466,    2555,    2553
   17768,    2466,    2467,    2557,    2555
   17769,    2467,    2468,    2559,    2557
   17770,    2468,    2469,    2561,    2559
   17771,    2469,    2470,    2563,    2561
   17772,    2470,    2471,    2565,    2563
   17773,    2471,    2472,    2567,    2565
   17774,    2472,    2473,    2569,    2567
   17775,    2473,    2474,    2571,    2569
   17776,    2474,    2475,    2573,    2571
   17777,    2475,    2476,    2575,    2573
   17778,    2476,    2477,    2577,    2575
   17779,    2477,    2478,    2579,    2577
   17780,    2478,    2479,    2581,    2579
   17781,    2479,    2480,    2583,    2581
   17782,    2480,    2481,    2584,    2583
   17783,    2481,    2482,    2585,    2584
   17784,    2482,    2483,    2586,    2585
   17785,    2483,    2484,    2587,    2586
   17786,    2484,    2485,    2588,    2587
   17787,    2485,    2486,    2589,    2588
   17788,    2486,    2487,    2590,    2589
   17789,    2487,    2488,    2591,    2590
   17790,    2488,    2489,    2592,    2591
   17791,    2489,    2490,    2593,    2592
   17792,    2490,    2491,    2594,    2593
   17793,    2491,    2492,    2595,    2594
   17794,    2492,    2493,    2596,    2595
   17795,    2493,    2494,    2597,    2596
   17796,    2494,    2495,    2598,    2597
   17797,    2495,    2496,    2599,    2598
   17798,    2496,    2497,    2600,    2599
   17799,    2497,    2498,    2601,    2600
   17800,    2498,    2499,    2602,    2601
   17801,    2499,    2500,    2603,    2602
   17802,    2500,    2501,    2604,    2603
   17803,    2501,    2502,    2605,    2604
   17804,    2502,    2503,    2606,    2605
   17805,    2503,    2504,    2607,    2606
   17806,    2504,    2505,    2608,    2607
   17807,    2505,    2506,    2609,    2608
   17808,    2506,    2507,    2610,    2609
   17809,    2507,    2508,    2611,    2610
   17810,    2508,    2509,    2612,    2611
   17811,    2509,    2510,    2613,    2612
   17812,    2510,    2511,    2614,    2613
   17813,    2511,    2512,    2615,    2614
   17814,    2512,    2513,    2616,    2615
   17815,    2513,    2514,    2617,    2616
   17816,    2514,    2515,    2618,    2617
   17817,    2515,    2516,    2619,    2618
   17818,    2516,    2517,    2620,    2619
   17819,    2517,    2518,    2621,    2620
   17820,    2518,    2519,    2622,    2621
   17821,    2519,    2520,    2623,    2622
   17822,    2522,    2524,    2625,    2624
   17823,    2524,    2526,    2626,    2625
   17824,    2526,    2528,    2627,    2626
   17825,    2528,    2530,    2628,    2627
   17826,    2530,    2532,    2629,    2628
   17827,    2532,    2534,    2630,    2629
   17828,    2534,    2536,    2631,    2630
   17829,    2536,    2538,    2632,    2631
   17830,    2538,    2540,    2633,    2632
   17831,    2540,    2542,    2634,    2633
   17832,    2542,    2544,    2635,    2634
   17833,    2544,    2546,    2636,    2635
   17834,    2546,    2548,    2637,    2636
   17835,    2548,    2550,    2638,    2637
   17836,    2550,    2552,    2639,    2638
   17837,    2552,    2554,    2640,    2639
   17838,    2554,    2556,    2641,    2640
   17839,    2556,    2558,    2642,    2641
   17840,    2558,    2560,    2643,    2642
   17841,    2560,    2562,    2644,    2643
   17842,    2562,    2564,    2645,    2644
   17843,    2564,    2566,    2646,    2645
   17844,    2566,    2568,    2647,    2646
   17845,    2568,    2570,    2648,    2647
   17846,    2570,    2572,    2649,    2648
   17847,    2572,    2574,    2650,    2649
   17848,    2574,    2576,    2651,    2650
   17849,    2576,    2578,    2652,    2651
   17850,    2578,    2580,    2653,    2652
   17851,    2580,    2582,    2654,    2653
   17852,    2582,    2583,    2655,    2654
   17853,    2583,    2584,    2656,    2655
   17854,    2584,    2585,    2657,    2656
   17855,    2585,    2586,    2658,    2657
   17856,    2586,    2587,    2659,    2658
   17857,    2587,    2588,    2660,    2659
   17858,    2588,    2589,    2661,    2660
   17859,    2589,    2590,    2662,    2661
   17860,    2590,    2591,    2663,    2662
   17861,    2591,    2592,    2664,    2663
   17862,    2592,    2593,    2665,    2664
   17863,    2593,    2594,    2666,    2665
   17864,    2594,    2595,    2667,    2666
   17865,    2595,    2596,    2668,    2667
   17866,    2596,    2597,    2669,    2668
   17867,    2597,    2598,    2670,    2669
   17868,    2598,    2599,    2671,    2670
   17869,    2599,    2600,    2672,    2671
   17870,    2600,    2601,    2673,    2672
   17871,    2601,    2602,    2674,    2673
   17872,    2602,    2603,    2675,    2674
   17873,    2603,    2604,    2676,    2675
   17874,    2604,    2605,    2677,    2676
   17875,    2605,    2606,    2678,    2677
   17876,    2606,    2607,    2679,    2678
   17877,    2607,    2608,    2680,    2679
   17878,    2608,    2609,    2681,    2680
   17879,    2609,    2610,    2682,    2681
   17880,    2610,    2611,    2683,    2682
   17881,    2611,    2612,    2684,    2683
   17882,    2612,    2613,    2685,    2684
   17883,    2613,    2614,    2686,    2685
   17884,    2614,    2615,    2687,    2686
   17885,    2615,    2616,    2688,    2687
   17886,    2616,    2617,    2689,    2688
   17887,    2617,    2618,    2690,    2689
   17888,    2618,    2619,    2691,    2690
   17889,    2619,    2620,    2692,    2691
   17890,    2620,    2621,    2693,    2692
   17891,    2621,    2622,    2694,    2693
   17892,    2622,    2623,    2695,    2694
   17893,    2624,    2625,    2697,    2696
   17894,    2625,    2626,    2698,    2697
   17895,    2626,    2627,    2699,    2698
   17896,    2627,    2628,    2700,    2699
   17897,    2628,    2629,    2701,    2700
   17898,    2629,    2630,    2702,    2701
   17899,    2630,    2631,    2703,    2702
   17900,    2631,    2632,    2704,    2703
   17901,    2632,    2633,    2705,    2704
   17902,    2633,    2634,    2706,    2705
   17903,    2634,    2635,    2707,    2706
   17904,    2635,    2636,    2708,    2707
   17905,    2636,    2637,    2709,    2708
   17906,    2637,    2638,    2710,    2709
   17907,    2638,    2639,    2711,    2710
   17908,    2639,    2640,    2712,    2711
   17909,    2640,    2641,    2713,    2712
   17910,    2641,    2642,    2714,    2713
   17911,    2642,    2643,    2715,    2714
   17912,    2643,    2644,    2716,    2715
   17913,    2644,    2645,    2717,    2716
   17914,    2645,    2646,    2718,    2717
   17915,    2646,    2647,    2719,    2718
   17916,    2647,    2648,    2720,    2719
   17917,    2648,    2649,    2721,    2720
   17918,    2649,    2650,    2722,    2721
   17919,    2650,    2651,    2723,    2722
   17920,    2651,    2652,    2724,    2723
   17921,    2652,    2653,    2725,    2724
   17922,    2653,    2654,    2726,    2725
   17923,    2654,    2655,    2727,    2726
   17924,    2655,    2656,    2728,    2727
   17925,    2656,    2657,    2729,    2728
   17926,    2657,    2658,    2730,    2729
   17927,    2658,    2659,    2731,    2730
   17928,    2659,    2660,    2732,    2731
   17929,    2660,    2661,    2733,    2732
   17930,    2661,    2662,    2734,    2733
   17931,    2662,    2663,    2735,    2734
   17932,    2663,    2664,    2736,    2735
   17933,    2664,    2665,    2737,    2736
   17934,    2665,    2666,    2738,    2737
   17935,    2666,    2667,    2739,    2738
   17936,    2667,    2668,    2740,    2739
   17937,    2668,    2669,    2741,    2740
   17938,    2669,    2670,    2742,    2741
   17939,    2670,    2671,    2743,    2742
   17940,    2671,    2672,    2744,    2743
   17941,    2672,    2673,    2745,    2744
   17942,    2673,    2674,    2746,    2745
   17943,    2674,    2675,    2747,    2746
   17944,    2675,    2676,    2748,    2747
   17945,    2676,    2677,    2749,    2748
   17946,    2677,    2678,    2750,    2749
   17947,    2678,    2679,    2751,    2750
   17948,    2679,    2680,    2752,    2751
   17949,    2680,    2681,    2753,    2752
   17950,    2681,    2682,    2754,    2753
   17951,    2682,    2683,    2755,    2754
   17952,    2683,    2684,    2756,    2755
   17953,    2684,    2685,    2757,    2756
   17954,    2685,    2686,    2758,    2757
   17955,    2686,    2687,    2759,    2758
   17956,    2687,    2688,    2760,    2759
   17957,    2688,    2689,    2761,    2760
   17958,    2689,    2690,    2762,    2761
   17959,    2690,    2691,    2763,    2762
   17960,    2691,    2692,    2764,    2763
   17961,    2692,    2693,    2765,    2764
   17962,    2693,    2694,    2766,    2765
   17963,    2694,    2695,    2767,    2766
   17964,    2696,    2697,    2769,    2768
   17965,    2697,    2698,    2770,    2769
   17966,    2698,    2699,    2771,    2770
   17967,    2699,    2700,    2772,    2771
   17968,    2700,    2701,    2773,    2772
   17969,    2701,    2702,    2774,    2773
   17970,    2702,    2703,    2775,    2774
   17971,    2703,    2704,    2776,    2775
   17972,    2704,    2705,    2777,    2776
   17973,    2705,    2706,    2778,    2777
   17974,    2706,    2707,    2779,    2778
   17975,    2707,    2708,    2780,    2779
   17976,    2708,    2709,    2781,    2780
   17977,    2709,    2710,    2782,    2781
   17978,    2710,    2711,    2783,    2782
   17979,    2711,    2712,    2784,    2783
   17980,    2712,    2713,    2785,    2784
   17981,    2713,    2714,    2786,    2785
   17982,    2714,    2715,    2787,    2786
   17983,    2715,    2716,    2788,    2787
   17984,    2716,    2717,    2789,    2788
   17985,    2717,    2718,    2790,    2789
   17986,    2718,    2719,    2791,    2790
   17987,    2719,    2720,    2792,    2791
   17988,    2720,    2721,    2793,    2792
   17989,    2721,    2722,    2794,    2793
   17990,    2722,    2723,    2795,    2794
   17991,    2723,    2724,    2796,    2795
   17992,    2724,    2725,    2797,    2796
   17993,    2725,    2726,    2798,    2797
   17994,    2726,    2727,    2799,    2798
   17995,    2727,    2728,    2800,    2799
   17996,    2728,    2729,    2801,    2800
   17997,    2729,    2730,    2802,    2801
   17998,    2730,    2731,    2803,    2802
   17999,    2731,    2732,    2804,    2803
   18000,    2732,    2733,    2805,    2804
   18001,    2733,    2734,    2806,    2805
   18002,    2734,    2735,    2807,    2806
   18003,    2735,    2736,    2808,    2807
   18004,    2736,    2737,    2809,    2808
   18005,    2737,    2738,    2810,    2809
   18006,    2738,    2739,    2811,    2810
   18007,    2739,    2740,    2812,    2811
   18008,    2740,    2741,    2813,    2812
   18009,    2741,    2742,    2814,    2813
   18010,    2742,    2743,    2815,    2814
   18011,    2743,    2744,    2816,    2815
   18012,    2744,    2745,    2817,    2816
   18013,    2745,    2746,    2818,    2817
   18014,    2746,    2747,    2819,    2818
   18015,    2747,    2748,    2820,    2819
   18016,    2748,    2749,    2821,    2820
   18017,    2749,    2750,    2822,    2821
   18018,    2750,    2751,    2823,    2822
   18019,    2751,    2752,    2824,    2823
   18020,    2752,    2753,    2825,    2824
   18021,    2753,    2754,    2826,    2825
   18022,    2754,    2755,    2827,    2826
   18023,    2755,    2756,    2828,    2827
   18024,    2756,    2757,    2829,    2828
   18025,    2757,    2758,    2830,    2829
   18026,    2758,    2759,    2831,    2830
   18027,    2759,    2760,    2832,    2831
   18028,    2760,    2761,    2833,    2832
   18029,    2761,    2762,    2834,    2833
   18030,    2762,    2763,    2835,    2834
   18031,    2763,    2764,    2836,    2835
   18032,    2764,    2765,    2837,    2836
   18033,    2765,    2766,    2838,    2837
   18034,    2766,    2767,    2839,    2838
   18035,    2768,    2769,    2841,    2840
   18036,    2769,    2770,    2842,    2841
   18037,    2770,    2771,    2843,    2842
   18038,    2771,    2772,    2844,    2843
   18039,    2772,    2773,    2845,    2844
   18040,    2773,    2774,    2846,    2845
   18041,    2774,    2775,    2847,    2846
   18042,    2775,    2776,    2848,    2847
   18043,    2776,    2777,    2849,    2848
   18044,    2777,    2778,    2850,    2849
   18045,    2778,    2779,    2851,    2850
   18046,    2779,    2780,    2852,    2851
   18047,    2780,    2781,    2853,    2852
   18048,    2781,    2782,    2854,    2853
   18049,    2782,    2783,    2855,    2854
   18050,    2783,    2784,    2856,    2855
   18051,    2784,    2785,    2857,    2856
   18052,    2785,    2786,    2858,    2857
   18053,    2786,    2787,    2859,    2858
   18054,    2787,    2788,    2860,    2859
   18055,    2788,    2789,    2861,    2860
   18056,    2789,    2790,    2862,    2861
   18057,    2790,    2791,    2863,    2862
   18058,    2791,    2792,    2864,    2863
   18059,    2792,    2793,    2865,    2864
   18060,    2793,    2794,    2866,    2865
   18061,    2794,    2795,    2867,    2866
   18062,    2795,    2796,    2868,    2867
   18063,    2796,    2797,    2869,    2868
   18064,    2797,    2798,    2870,    2869
   18065,    2798,    2799,    2871,    2870
   18066,    2799,    2800,    2872,    2871
   18067,    2800,    2801,    2873,    2872
   18068,    2801,    2802,    2874,    2873
   18069,    2802,    2803,    2875,    2874
   18070,    2803,    2804,    2876,    2875
   18071,    2804,    2805,    2877,    2876
   18072,    2805,    2806,    2878,    2877
   18073,    2806,    2807,    2879,    2878
   18074,    2807,    2808,    2880,    2879
   18075,    2808,    2809,    2881,    2880
   18076,    2809,    2810,    2882,    2881
   18077,    2810,    2811,    2883,    2882
   18078,    2811,    2812,    2884,    2883
   18079,    2812,    2813,    2885,    2884
   18080,    2813,    2814,    2886,    2885
   18081,    2814,    2815,    2887,    2886
   18082,    2815,    2816,    2888,    2887
   18083,    2816,    2817,    2889,    2888
   18084,    2817,    2818,    2890,    2889
   18085,    2818,    2819,    2891,    2890
   18086,    2819,    2820,    2892,    2891
   18087,    2820,    2821,    2893,    2892
   18088,    2821,    2822,    2894,    2893
   18089,    2822,    2823,    2895,    2894
   18090,    2823,    2824,    2896,    2895
   18091,    2824,    2825,    2897,    2896
   18092,    2825,    2826,    2898,    2897
   18093,    2826,    2827,    2899,    2898
   18094,    2827,    2828,    2900,    2899
   18095,    2828,    2829,    2901,    2900
   18096,    2829,    2830,    2902,    2901
   18097,    2830,    2831,    2903,    2902
   18098,    2831,    2832,    2904,    2903
   18099,    2832,    2833,    2905,    2904
   18100,    2833,    2834,    2906,    2905
   18101,    2834,    2835,    2907,    2906
   18102,    2835,    2836,    2908,    2907
   18103,    2836,    2837,    2909,    2908
   18104,    2837,    2838,    2910,    2909
   18105,    2838,    2839,    2911,    2910
   18106,    2840,    2841,    2913,    2912
   18107,    2841,    2842,    2914,    2913
   18108,    2842,    2843,    2915,    2914
   18109,    2843,    2844,    2916,    2915
   18110,    2844,    2845,    2917,    2916
   18111,    2845,    2846,    2918,    2917
   18112,    2846,    2847,    2919,    2918
   18113,    2847,    2848,    2920,    2919
   18114,    2848,    2849,    2921,    2920
   18115,    2849,    2850,    2922,    2921
   18116,    2850,    2851,    2923,    2922
   18117,    2851,    2852,    2924,    2923
   18118,    2852,    2853,    2925,    2924
   18119,    2853,    2854,    2926,    2925
   18120,    2854,    2855,    2927,    2926
   18121,    2855,    2856,    2928,    2927
   18122,    2856,    2857,    2929,    2928
   18123,    2857,    2858,    2930,    2929
   18124,    2858,    2859,    2931,    2930
   18125,    2859,    2860,    2932,    2931
   18126,    2860,    2861,    2933,    2932
   18127,    2861,    2862,    2934,    2933
   18128,    2862,    2863,    2935,    2934
   18129,    2863,    2864,    2936,    2935
   18130,    2864,    2865,    2937,    2936
   18131,    2865,    2866,    2938,    2937
   18132,    2866,    2867,    2939,    2938
   18133,    2867,    2868,    2940,    2939
   18134,    2868,    2869,    2941,    2940
   18135,    2869,    2870,    2942,    2941
   18136,    2870,    2871,    2943,    2942
   18137,    2871,    2872,    2944,    2943
   18138,    2872,    2873,    2945,    2944
   18139,    2873,    2874,    2946,    2945
   18140,    2874,    2875,    2947,    2946
   18141,    2875,    2876,    2948,    2947
   18142,    2876,    2877,    2949,    2948
   18143,    2877,    2878,    2950,    2949
   18144,    2878,    2879,    2951,    2950
   18145,    2879,    2880,    2952,    2951
   18146,    2880,    2881,    2953,    2952
   18147,    2881,    2882,    2954,    2953
   18148,    2882,    2883,    2955,    2954
   18149,    2883,    2884,    2956,    2955
   18150,    2884,    2885,    2957,    2956
   18151,    2885,    2886,    2958,    2957
   18152,    2886,    2887,    2959,    2958
   18153,    2887,    2888,    2960,    2959
   18154,    2888,    2889,    2961,    2960
   18155,    2889,    2890,    2962,    2961
   18156,    2890,    2891,    2963,    2962
   18157,    2891,    2892,    2964,    2963
   18158,    2892,    2893,    2965,    2964
   18159,    2893,    2894,    2966,    2965
   18160,    2894,    2895,    2967,    2966
   18161,    2895,    2896,    2968,    2967
   18162,    2896,    2897,    2969,    2968
   18163,    2897,    2898,    2970,    2969
   18164,    2898,    2899,    2971,    2970
   18165,    2899,    2900,    2972,    2971
   18166,    2900,    2901,    2973,    2972
   18167,    2901,    2902,    2974,    2973
   18168,    2902,    2903,    2975,    2974
   18169,    2903,    2904,    2976,    2975
   18170,    2904,    2905,    2977,    2976
   18171,    2905,    2906,    2978,    2977
   18172,    2906,    2907,    2979,    2978
   18173,    2907,    2908,    2980,    2979
   18174,    2908,    2909,    2981,    2980
   18175,    2909,    2910,    2982,    2981
   18176,    2910,    2911,    2983,    2982
   18177,    2912,    2913,    2985,    2984
   18178,    2913,    2914,    2986,    2985
   18179,    2914,    2915,    2987,    2986
   18180,    2915,    2916,    2988,    2987
   18181,    2916,    2917,    2989,    2988
   18182,    2917,    2918,    2990,    2989
   18183,    2918,    2919,    2991,    2990
   18184,    2919,    2920,    2992,    2991
   18185,    2920,    2921,    2993,    2992
   18186,    2921,    2922,    2994,    2993
   18187,    2922,    2923,    2995,    2994
   18188,    2923,    2924,    2996,    2995
   18189,    2924,    2925,    2997,    2996
   18190,    2925,    2926,    2998,    2997
   18191,    2926,    2927,    2999,    2998
   18192,    2927,    2928,    3000,    2999
   18193,    2928,    2929,    3001,    3000
   18194,    2929,    2930,    3002,    3001
   18195,    2930,    2931,    3003,    3002
   18196,    2931,    2932,    3004,    3003
   18197,    2932,    2933,    3005,    3004
   18198,    2933,    2934,    3006,    3005
   18199,    2934,    2935,    3007,    3006
   18200,    2935,    2936,    3008,    3007
   18201,    2936,    2937,    3009,    3008
   18202,    2937,    2938,    3010,    3009
   18203,    2938,    2939,    3011,    3010
   18204,    2939,    2940,    3012,    3011
   18205,    2940,    2941,    3013,    3012
   18206,    2941,    2942,    3014,    3013
   18207,    2942,    2943,    3015,    3014
   18208,    2943,    2944,    3016,    3015
   18209,    2944,    2945,    3017,    3016
   18210,    2945,    2946,    3018,    3017
   18211,    2946,    2947,    3019,    3018
   18212,    2947,    2948,    3020,    3019
   18213,    2948,    2949,    3021,    3020
   18214,    2949,    2950,    3022,    3021
   18215,    2950,    2951,    3023,    3022
   18216,    2951,    2952,    3024,    3023
   18217,    2952,    2953,    3025,    3024
   18218,    2953,    2954,    3026,    3025
   18219,    2954,    2955,    3027,    3026
   18220,    2955,    2956,    3028,    3027
   18221,    2956,    2957,    3029,    3028
   18222,    2957,    2958,    3030,    3029
   18223,    2958,    2959,    3031,    3030
   18224,    2959,    2960,    3032,    3031
   18225,    2960,    2961,    3033,    3032
   18226,    2961,    2962,    3034,    3033
   18227,    2962,    2963,    3035,    3034
   18228,    2963,    2964,    3036,    3035
   18229,    2964,    2965,    3037,    3036
   18230,    2965,    2966,    3038,    3037
   18231,    2966,    2967,    3039,    3038
   18232,    2967,    2968,    3040,    3039
   18233,    2968,    2969,    3041,    3040
   18234,    2969,    2970,    3042,    3041
   18235,    2970,    2971,    3043,    3042
   18236,    2971,    2972,    3044,    3043
   18237,    2972,    2973,    3045,    3044
   18238,    2973,    2974,    3046,    3045
   18239,    2974,    2975,    3047,    3046
   18240,    2975,    2976,    3048,    3047
   18241,    2976,    2977,    3049,    3048
   18242,    2977,    2978,    3050,    3049
   18243,    2978,    2979,    3051,    3050
   18244,    2979,    2980,    3052,    3051
   18245,    2980,    2981,    3053,    3052
   18246,    2981,    2982,    3054,    3053
   18247,    2982,    2983,    3055,    3054
   18248,    2984,    2985,    3057,    3056
   18249,    2985,    2986,    3058,    3057
   18250,    2986,    2987,    3059,    3058
   18251,    2987,    2988,    3060,    3059
   18252,    2988,    2989,    3061,    3060
   18253,    2989,    2990,    3062,    3061
   18254,    2990,    2991,    3063,    3062
   18255,    2991,    2992,    3064,    3063
   18256,    2992,    2993,    3065,    3064
   18257,    2993,    2994,    3066,    3065
   18258,    2994,    2995,    3067,    3066
   18259,    2995,    2996,    3068,    3067
   18260,    2996,    2997,    3069,    3068
   18261,    2997,    2998,    3070,    3069
   18262,    2998,    2999,    3071,    3070
   18263,    2999,    3000,    3072,    3071
   18264,    3000,    3001,    3073,    3072
   18265,    3001,    3002,    3074,    3073
   18266,    3002,    3003,    3075,    3074
   18267,    3003,    3004,    3076,    3075
   18268,    3004,    3005,    3077,    3076
   18269,    3005,    3006,    3078,    3077
   18270,    3006,    3007,    3079,    3078
   18271,    3007,    3008,    3080,    3079
   18272,    3008,    3009,    3081,    3080
   18273,    3009,    3010,    3082,    3081
   18274,    3010,    3011,    3083,    3082
   18275,    3011,    3012,    3084,    3083
   18276,    3012,    3013,    3085,    3084
   18277,    3013,    3014,    3086,    3085
   18278,    3014,    3015,    3087,    3086
   18279,    3015,    3016,    3088,    3087
   18280,    3016,    3017,    3089,    3088
   18281,    3017,    3018,    3090,    3089
   18282,    3018,    3019,    3091,    3090
   18283,    3019,    3020,    3092,    3091
   18284,    3020,    3021,    3093,    3092
   18285,    3021,    3022,    3094,    3093
   18286,    3022,    3023,    3095,    3094
   18287,    3023,    3024,    3096,    3095
   18288,    3024,    3025,    3097,    3096
   18289,    3025,    3026,    3098,    3097
   18290,    3026,    3027,    3099,    3098
   18291,    3027,    3028,    3100,    3099
   18292,    3028,    3029,    3101,    3100
   18293,    3029,    3030,    3102,    3101
   18294,    3030,    3031,    3103,    3102
   18295,    3031,    3032,    3104,    3103
   18296,    3032,    3033,    3105,    3104
   18297,    3033,    3034,    3106,    3105
   18298,    3034,    3035,    3107,    3106
   18299,    3035,    3036,    3108,    3107
   18300,    3036,    3037,    3109,    3108
   18301,    3037,    3038,    3110,    3109
   18302,    3038,    3039,    3111,    3110
   18303,    3039,    3040,    3112,    3111
   18304,    3040,    3041,    3113,    3112
   18305,    3041,    3042,    3114,    3113
   18306,    3042,    3043,    3115,    3114
   18307,    3043,    3044,    3116,    3115
   18308,    3044,    3045,    3117,    3116
   18309,    3045,    3046,    3118,    3117
   18310,    3046,    3047,    3119,    3118
   18311,    3047,    3048,    3120,    3119
   18312,    3048,    3049,    3121,    3120
   18313,    3049,    3050,    3122,    3121
   18314,    3050,    3051,    3123,    3122
   18315,    3051,    3052,    3124,    3123
   18316,    3052,    3053,    3125,    3124
   18317,    3053,    3054,    3126,    3125
   18318,    3054,    3055,    3127,    3126
   18319,    3056,    3057,    3129,    3128
   18320,    3057,    3058,    3130,    3129
   18321,    3058,    3059,    3131,    3130
   18322,    3059,    3060,    3132,    3131
   18323,    3060,    3061,    3133,    3132
   18324,    3061,    3062,    3134,    3133
   18325,    3062,    3063,    3135,    3134
   18326,    3063,    3064,    3136,    3135
   18327,    3064,    3065,    3137,    3136
   18328,    3065,    3066,    3138,    3137
   18329,    3066,    3067,    3139,    3138
   18330,    3067,    3068,    3140,    3139
   18331,    3068,    3069,    3141,    3140
   18332,    3069,    3070,    3142,    3141
   18333,    3070,    3071,    3143,    3142
   18334,    3071,    3072,    3144,    3143
   18335,    3072,    3073,    3145,    3144
   18336,    3073,    3074,    3146,    3145
   18337,    3074,    3075,    3147,    3146
   18338,    3075,    3076,    3148,    3147
   18339,    3076,    3077,    3149,    3148
   18340,    3077,    3078,    3150,    3149
   18341,    3078,    3079,    3151,    3150
   18342,    3079,    3080,    3152,    3151
   18343,    3080,    3081,    3153,    3152
   18344,    3081,    3082,    3154,    3153
   18345,    3082,    3083,    3155,    3154
   18346,    3083,    3084,    3156,    3155
   18347,    3084,    3085,    3157,    3156
   18348,    3085,    3086,    3158,    3157
   18349,    3086,    3087,    3159,    3158
   18350,    3087,    3088,    3160,    3159
   18351,    3088,    3089,    3161,    3160
   18352,    3089,    3090,    3162,    3161
   18353,    3090,    3091,    3163,    3162
   18354,    3091,    3092,    3164,    3163
   18355,    3092,    3093,    3165,    3164
   18356,    3093,    3094,    3166,    3165
   18357,    3094,    3095,    3167,    3166
   18358,    3095,    3096,    3168,    3167
   18359,    3096,    3097,    3169,    3168
   18360,    3097,    3098,    3170,    3169
   18361,    3098,    3099,    3171,    3170
   18362,    3099,    3100,    3172,    3171
   18363,    3100,    3101,    3173,    3172
   18364,    3101,    3102,    3174,    3173
   18365,    3102,    3103,    3175,    3174
   18366,    3103,    3104,    3176,    3175
   18367,    3104,    3105,    3177,    3176
   18368,    3105,    3106,    3178,    3177
   18369,    3106,    3107,    3179,    3178
   18370,    3107,    3108,    3180,    3179
   18371,    3108,    3109,    3181,    3180
   18372,    3109,    3110,    3182,    3181
   18373,    3110,    3111,    3183,    3182
   18374,    3111,    3112,    3184,    3183
   18375,    3112,    3113,    3185,    3184
   18376,    3113,    3114,    3186,    3185
   18377,    3114,    3115,    3187,    3186
   18378,    3115,    3116,    3188,    3187
   18379,    3116,    3117,    3189,    3188
   18380,    3117,    3118,    3190,    3189
   18381,    3118,    3119,    3191,    3190
   18382,    3119,    3120,    3192,    3191
   18383,    3120,    3121,    3193,    3192
   18384,    3121,    3122,    3194,    3193
   18385,    3122,    3123,    3195,    3194
   18386,    3123,    3124,    3196,    3195
   18387,    3124,    3125,    3197,    3196
   18388,    3125,    3126,    3198,    3197
   18389,    3126,    3127,    3199,    3198
   18390,    3128,    3129,    3201,    3200
   18391,    3129,    3130,    3202,    3201
   18392,    3130,    3131,    3203,    3202
   18393,    3131,    3132,    3204,    3203
   18394,    3132,    3133,    3205,    3204
   18395,    3133,    3134,    3206,    3205
   18396,    3134,    3135,    3207,    3206
   18397,    3135,    3136,    3208,    3207
   18398,    3136,    3137,    3209,    3208
   18399,    3137,    3138,    3210,    3209
   18400,    3138,    3139,    3211,    3210
   18401,    3139,    3140,    3212,    3211
   18402,    3140,    3141,    3213,    3212
   18403,    3141,    3142,    3214,    3213
   18404,    3142,    3143,    3215,    3214
   18405,    3143,    3144,    3216,    3215
   18406,    3144,    3145,    3217,    3216
   18407,    3145,    3146,    3218,    3217
   18408,    3146,    3147,    3219,    3218
   18409,    3147,    3148,    3220,    3219
   18410,    3148,    3149,    3221,    3220
   18411,    3149,    3150,    3222,    3221
   18412,    3150,    3151,    3223,    3222
   18413,    3151,    3152,    3224,    3223
   18414,    3152,    3153,    3225,    3224
   18415,    3153,    3154,    3226,    3225
   18416,    3154,    3155,    3227,    3226
   18417,    3155,    3156,    3228,    3227
   18418,    3156,    3157,    3229,    3228
   18419,    3157,    3158,    3230,    3229
   18420,    3158,    3159,    3231,    3230
   18421,    3159,    3160,    3232,    3231
   18422,    3160,    3161,    3233,    3232
   18423,    3161,    3162,    3234,    3233
   18424,    3162,    3163,    3235,    3234
   18425,    3163,    3164,    3236,    3235
   18426,    3164,    3165,    3237,    3236
   18427,    3165,    3166,    3238,    3237
   18428,    3166,    3167,    3239,    3238
   18429,    3167,    3168,    3240,    3239
   18430,    3168,    3169,    3241,    3240
   18431,    3169,    3170,    3242,    3241
   18432,    3170,    3171,    3243,    3242
   18433,    3171,    3172,    3244,    3243
   18434,    3172,    3173,    3245,    3244
   18435,    3173,    3174,    3246,    3245
   18436,    3174,    3175,    3247,    3246
   18437,    3175,    3176,    3248,    3247
   18438,    3176,    3177,    3249,    3248
   18439,    3177,    3178,    3250,    3249
   18440,    3178,    3179,    3251,    3250
   18441,    3179,    3180,    3252,    3251
   18442,    3180,    3181,    3253,    3252
   18443,    3181,    3182,    3254,    3253
   18444,    3182,    3183,    3255,    3254
   18445,    3183,    3184,    3256,    3255
   18446,    3184,    3185,    3257,    3256
   18447,    3185,    3186,    3258,    3257
   18448,    3186,    3187,    3259,    3258
   18449,    3187,    3188,    3260,    3259
   18450,    3188,    3189,    3261,    3260
   18451,    3189,    3190,    3262,    3261
   18452,    3190,    3191,    3263,    3262
   18453,    3191,    3192,    3264,    3263
   18454,    3192,    3193,    3265,    3264
   18455,    3193,    3194,    3266,    3265
   18456,    3194,    3195,    3267,    3266
   18457,    3195,    3196,    3268,    3267
   18458,    3196,    3197,    3269,    3268
   18459,    3197,    3198,    3270,    3269
   18460,    3198,    3199,    3271,    3270
   18461,    3200,    3201,    3273,    3272
   18462,    3201,    3202,    3274,    3273
   18463,    3202,    3203,    3275,    3274
   18464,    3203,    3204,    3276,    3275
   18465,    3204,    3205,    3277,    3276
   18466,    3205,    3206,    3278,    3277
   18467,    3206,    3207,    3279,    3278
   18468,    3207,    3208,    3280,    3279
   18469,    3208,    3209,    3281,    3280
   18470,    3209,    3210,    3282,    3281
   18471,    3210,    3211,    3283,    3282
   18472,    3211,    3212,    3284,    3283
   18473,    3212,    3213,    3285,    3284
   18474,    3213,    3214,    3286,    3285
   18475,    3214,    3215,    3287,    3286
   18476,    3215,    3216,    3288,    3287
   18477,    3216,    3217,    3289,    3288
   18478,    3217,    3218,    3290,    3289
   18479,    3218,    3219,    3291,    3290
   18480,    3219,    3220,    3292,    3291
   18481,    3220,    3221,    3293,    3292
   18482,    3221,    3222,    3294,    3293
   18483,    3222,    3223,    3295,    3294
   18484,    3223,    3224,    3296,    3295
   18485,    3224,    3225,    3297,    3296
   18486,    3225,    3226,    3298,    3297
   18487,    3226,    3227,    3299,    3298
   18488,    3227,    3228,    3300,    3299
   18489,    3228,    3229,    3301,    3300
   18490,    3229,    3230,    3302,    3301
   18491,    3230,    3231,    3303,    3302
   18492,    3231,    3232,    3304,    3303
   18493,    3232,    3233,    3305,    3304
   18494,    3233,    3234,    3306,    3305
   18495,    3234,    3235,    3307,    3306
   18496,    3235,    3236,    3308,    3307
   18497,    3236,    3237,    3309,    3308
   18498,    3237,    3238,    3310,    3309
   18499,    3238,    3239,    3311,    3310
   18500,    3239,    3240,    3312,    3311
   18501,    3240,    3241,    3313,    3312
   18502,    3241,    3242,    3314,    3313
   18503,    3242,    3243,    3315,    3314
   18504,    3243,    3244,    3316,    3315
   18505,    3244,    3245,    3317,    3316
   18506,    3245,    3246,    3318,    3317
   18507,    3246,    3247,    3319,    3318
   18508,    3247,    3248,    3320,    3319
   18509,    3248,    3249,    3321,    3320
   18510,    3249,    3250,    3322,    3321
   18511,    3250,    3251,    3323,    3322
   18512,    3251,    3252,    3324,    3323
   18513,    3252,    3253,    3325,    3324
   18514,    3253,    3254,    3326,    3325
   18515,    3254,    3255,    3327,    3326
   18516,    3255,    3256,    3328,    3327
   18517,    3256,    3257,    3329,    3328
   18518,    3257,    3258,    3330,    3329
   18519,    3258,    3259,    3331,    3330
   18520,    3259,    3260,    3332,    3331
   18521,    3260,    3261,    3333,    3332
   18522,    3261,    3262,    3334,    3333
   18523,    3262,    3263,    3335,    3334
   18524,    3263,    3264,    3336,    3335
   18525,    3264,    3265,    3337,    3336
   18526,    3265,    3266,    3338,    3337
   18527,    3266,    3267,    3339,    3338
   18528,    3267,    3268,    3340,    3339
   18529,    3268,    3269,    3341,    3340
   18530,    3269,    3270,    3342,    3341
   18531,    3270,    3271,    3343,    3342
   18532,    3272,    3273,    3345,    3344
   18533,    3273,    3274,    3346,    3345
   18534,    3274,    3275,    3347,    3346
   18535,    3275,    3276,    3348,    3347
   18536,    3276,    3277,    3349,    3348
   18537,    3277,    3278,    3350,    3349
   18538,    3278,    3279,    3351,    3350
   18539,    3279,    3280,    3352,    3351
   18540,    3280,    3281,    3353,    3352
   18541,    3281,    3282,    3354,    3353
   18542,    3282,    3283,    3355,    3354
   18543,    3283,    3284,    3356,    3355
   18544,    3284,    3285,    3357,    3356
   18545,    3285,    3286,    3358,    3357
   18546,    3286,    3287,    3359,    3358
   18547,    3287,    3288,    3360,    3359
   18548,    3288,    3289,    3361,    3360
   18549,    3289,    3290,    3362,    3361
   18550,    3290,    3291,    3363,    3362
   18551,    3291,    3292,    3364,    3363
   18552,    3292,    3293,    3365,    3364
   18553,    3293,    3294,    3366,    3365
   18554,    3294,    3295,    3367,    3366
   18555,    3295,    3296,    3368,    3367
   18556,    3296,    3297,    3369,    3368
   18557,    3297,    3298,    3370,    3369
   18558,    3298,    3299,    3371,    3370
   18559,    3299,    3300,    3372,    3371
   18560,    3300,    3301,    3373,    3372
   18561,    3301,    3302,    3374,    3373
   18562,    3302,    3303,    3375,    3374
   18563,    3303,    3304,    3376,    3375
   18564,    3304,    3305,    3377,    3376
   18565,    3305,    3306,    3378,    3377
   18566,    3306,    3307,    3379,    3378
   18567,    3307,    3308,    3380,    3379
   18568,    3308,    3309,    3381,    3380
   18569,    3309,    3310,    3382,    3381
   18570,    3310,    3311,    3383,    3382
   18571,    3311,    3312,    3384,    3383
   18572,    3312,    3313,    3385,    3384
   18573,    3313,    3314,    3386,    3385
   18574,    3314,    3315,    3387,    3386
   18575,    3315,    3316,    3388,    3387
   18576,    3316,    3317,    3389,    3388
   18577,    3317,    3318,    3390,    3389
   18578,    3318,    3319,    3391,    3390
   18579,    3319,    3320,    3392,    3391
   18580,    3320,    3321,    3393,    3392
   18581,    3321,    3322,    3394,    3393
   18582,    3322,    3323,    3395,    3394
   18583,    3323,    3324,    3396,    3395
   18584,    3324,    3325,    3397,    3396
   18585,    3325,    3326,    3398,    3397
   18586,    3326,    3327,    3399,    3398
   18587,    3327,    3328,    3400,    3399
   18588,    3328,    3329,    3401,    3400
   18589,    3329,    3330,    3402,    3401
   18590,    3330,    3331,    3403,    3402
   18591,    3331,    3332,    3404,    3403
   18592,    3332,    3333,    3405,    3404
   18593,    3333,    3334,    3406,    3405
   18594,    3334,    3335,    3407,    3406
   18595,    3335,    3336,    3408,    3407
   18596,    3336,    3337,    3409,    3408
   18597,    3337,    3338,    3410,    3409
   18598,    3338,    3339,    3411,    3410
   18599,    3339,    3340,    3412,    3411
   18600,    3340,    3341,    3413,    3412
   18601,    3341,    3342,    3414,    3413
   18602,    3342,    3343,    3415,    3414
   18603,    3344,    3345,    3417,    3416
   18604,    3345,    3346,    3418,    3417
   18605,    3346,    3347,    3419,    3418
   18606,    3347,    3348,    3420,    3419
   18607,    3348,    3349,    3421,    3420
   18608,    3349,    3350,    3422,    3421
   18609,    3350,    3351,    3423,    3422
   18610,    3351,    3352,    3424,    3423
   18611,    3352,    3353,    3425,    3424
   18612,    3353,    3354,    3426,    3425
   18613,    3354,    3355,    3427,    3426
   18614,    3355,    3356,    3428,    3427
   18615,    3356,    3357,    3429,    3428
   18616,    3357,    3358,    3430,    3429
   18617,    3358,    3359,    3431,    3430
   18618,    3359,    3360,    3432,    3431
   18619,    3360,    3361,    3433,    3432
   18620,    3361,    3362,    3434,    3433
   18621,    3362,    3363,    3435,    3434
   18622,    3363,    3364,    3436,    3435
   18623,    3364,    3365,    3437,    3436
   18624,    3365,    3366,    3438,    3437
   18625,    3366,    3367,    3439,    3438
   18626,    3367,    3368,    3440,    3439
   18627,    3368,    3369,    3441,    3440
   18628,    3369,    3370,    3442,    3441
   18629,    3370,    3371,    3443,    3442
   18630,    3371,    3372,    3444,    3443
   18631,    3372,    3373,    3445,    3444
   18632,    3373,    3374,    3446,    3445
   18633,    3374,    3375,    3447,    3446
   18634,    3375,    3376,    3448,    3447
   18635,    3376,    3377,    3449,    3448
   18636,    3377,    3378,    3450,    3449
   18637,    3378,    3379,    3451,    3450
   18638,    3379,    3380,    3452,    3451
   18639,    3380,    3381,    3453,    3452
   18640,    3381,    3382,    3454,    3453
   18641,    3382,    3383,    3455,    3454
   18642,    3383,    3384,    3456,    3455
   18643,    3384,    3385,    3457,    3456
   18644,    3385,    3386,    3458,    3457
   18645,    3386,    3387,    3459,    3458
   18646,    3387,    3388,    3460,    3459
   18647,    3388,    3389,    3461,    3460
   18648,    3389,    3390,    3462,    3461
   18649,    3390,    3391,    3463,    3462
   18650,    3391,    3392,    3464,    3463
   18651,    3392,    3393,    3465,    3464
   18652,    3393,    3394,    3466,    3465
   18653,    3394,    3395,    3467,    3466
   18654,    3395,    3396,    3468,    3467
   18655,    3396,    3397,    3469,    3468
   18656,    3397,    3398,    3470,    3469
   18657,    3398,    3399,    3471,    3470
   18658,    3399,    3400,    3472,    3471
   18659,    3400,    3401,    3473,    3472
   18660,    3401,    3402,    3474,    3473
   18661,    3402,    3403,    3475,    3474
   18662,    3403,    3404,    3476,    3475
   18663,    3404,    3405,    3477,    3476
   18664,    3405,    3406,    3478,    3477
   18665,    3406,    3407,    3479,    3478
   18666,    3407,    3408,    3480,    3479
   18667,    3408,    3409,    3481,    3480
   18668,    3409,    3410,    3482,    3481
   18669,    3410,    3411,    3483,    3482
   18670,    3411,    3412,    3484,    3483
   18671,    3412,    3413,    3485,    3484
   18672,    3413,    3414,    3486,    3485
   18673,    3414,    3415,    3487,    3486
   18674,    3416,    3417,    3489,    3488
   18675,    3417,    3418,    3490,    3489
   18676,    3418,    3419,    3491,    3490
   18677,    3419,    3420,    3492,    3491
   18678,    3420,    3421,    3493,    3492
   18679,    3421,    3422,    3494,    3493
   18680,    3422,    3423,    3495,    3494
   18681,    3423,    3424,    3496,    3495
   18682,    3424,    3425,    3497,    3496
   18683,    3425,    3426,    3498,    3497
   18684,    3426,    3427,    3499,    3498
   18685,    3427,    3428,    3500,    3499
   18686,    3428,    3429,    3501,    3500
   18687,    3429,    3430,    3502,    3501
   18688,    3430,    3431,    3503,    3502
   18689,    3431,    3432,    3504,    3503
   18690,    3432,    3433,    3505,    3504
   18691,    3433,    3434,    3506,    3505
   18692,    3434,    3435,    3507,    3506
   18693,    3435,    3436,    3508,    3507
   18694,    3436,    3437,    3509,    3508
   18695,    3437,    3438,    3510,    3509
   18696,    3438,    3439,    3511,    3510
   18697,    3439,    3440,    3512,    3511
   18698,    3440,    3441,    3513,    3512
   18699,    3441,    3442,    3514,    3513
   18700,    3442,    3443,    3515,    3514
   18701,    3443,    3444,    3516,    3515
   18702,    3444,    3445,    3517,    3516
   18703,    3445,    3446,    3518,    3517
   18704,    3446,    3447,    3519,    3518
   18705,    3447,    3448,    3520,    3519
   18706,    3448,    3449,    3521,    3520
   18707,    3449,    3450,    3522,    3521
   18708,    3450,    3451,    3523,    3522
   18709,    3451,    3452,    3524,    3523
   18710,    3452,    3453,    3525,    3524
   18711,    3453,    3454,    3526,    3525
   18712,    3454,    3455,    3527,    3526
   18713,    3455,    3456,    3528,    3527
   18714,    3456,    3457,    3529,    3528
   18715,    3457,    3458,    3530,    3529
   18716,    3458,    3459,    3531,    3530
   18717,    3459,    3460,    3532,    3531
   18718,    3460,    3461,    3533,    3532
   18719,    3461,    3462,    3534,    3533
   18720,    3462,    3463,    3535,    3534
   18721,    3463,    3464,    3536,    3535
   18722,    3464,    3465,    3537,    3536
   18723,    3465,    3466,    3538,    3537
   18724,    3466,    3467,    3539,    3538
   18725,    3467,    3468,    3540,    3539
   18726,    3468,    3469,    3541,    3540
   18727,    3469,    3470,    3542,    3541
   18728,    3470,    3471,    3543,    3542
   18729,    3471,    3472,    3544,    3543
   18730,    3472,    3473,    3545,    3544
   18731,    3473,    3474,    3546,    3545
   18732,    3474,    3475,    3547,    3546
   18733,    3475,    3476,    3548,    3547
   18734,    3476,    3477,    3549,    3548
   18735,    3477,    3478,    3550,    3549
   18736,    3478,    3479,    3551,    3550
   18737,    3479,    3480,    3552,    3551
   18738,    3480,    3481,    3553,    3552
   18739,    3481,    3482,    3554,    3553
   18740,    3482,    3483,    3555,    3554
   18741,    3483,    3484,    3556,    3555
   18742,    3484,    3485,    3557,    3556
   18743,    3485,    3486,    3558,    3557
   18744,    3486,    3487,    3559,    3558
   18745,    3488,    3489,    3561,    3560
   18746,    3489,    3490,    3562,    3561
   18747,    3490,    3491,    3563,    3562
   18748,    3491,    3492,    3564,    3563
   18749,    3492,    3493,    3565,    3564
   18750,    3493,    3494,    3566,    3565
   18751,    3494,    3495,    3567,    3566
   18752,    3495,    3496,    3568,    3567
   18753,    3496,    3497,    3569,    3568
   18754,    3497,    3498,    3570,    3569
   18755,    3498,    3499,    3571,    3570
   18756,    3499,    3500,    3572,    3571
   18757,    3500,    3501,    3573,    3572
   18758,    3501,    3502,    3574,    3573
   18759,    3502,    3503,    3575,    3574
   18760,    3503,    3504,    3576,    3575
   18761,    3504,    3505,    3577,    3576
   18762,    3505,    3506,    3578,    3577
   18763,    3506,    3507,    3579,    3578
   18764,    3507,    3508,    3580,    3579
   18765,    3508,    3509,    3581,    3580
   18766,    3509,    3510,    3582,    3581
   18767,    3510,    3511,    3583,    3582
   18768,    3511,    3512,    3584,    3583
   18769,    3512,    3513,    3585,    3584
   18770,    3513,    3514,    3586,    3585
   18771,    3514,    3515,    3587,    3586
   18772,    3515,    3516,    3588,    3587
   18773,    3516,    3517,    3589,    3588
   18774,    3517,    3518,    3590,    3589
   18775,    3518,    3519,    3591,    3590
   18776,    3519,    3520,    3592,    3591
   18777,    3520,    3521,    3593,    3592
   18778,    3521,    3522,    3594,    3593
   18779,    3522,    3523,    3595,    3594
   18780,    3523,    3524,    3596,    3595
   18781,    3524,    3525,    3597,    3596
   18782,    3525,    3526,    3598,    3597
   18783,    3526,    3527,    3599,    3598
   18784,    3527,    3528,    3600,    3599
   18785,    3528,    3529,    3601,    3600
   18786,    3529,    3530,    3602,    3601
   18787,    3530,    3531,    3603,    3602
   18788,    3531,    3532,    3604,    3603
   18789,    3532,    3533,    3605,    3604
   18790,    3533,    3534,    3606,    3605
   18791,    3534,    3535,    3607,    3606
   18792,    3535,    3536,    3608,    3607
   18793,    3536,    3537,    3609,    3608
   18794,    3537,    3538,    3610,    3609
   18795,    3538,    3539,    3611,    3610
   18796,    3539,    3540,    3612,    3611
   18797,    3540,    3541,    3613,    3612
   18798,    3541,    3542,    3614,    3613
   18799,    3542,    3543,    3615,    3614
   18800,    3543,    3544,    3616,    3615
   18801,    3544,    3545,    3617,    3616
   18802,    3545,    3546,    3618,    3617
   18803,    3546,    3547,    3619,    3618
   18804,    3547,    3548,    3620,    3619
   18805,    3548,    3549,    3621,    3620
   18806,    3549,    3550,    3622,    3621
   18807,    3550,    3551,    3623,    3622
   18808,    3551,    3552,    3624,    3623
   18809,    3552,    3553,    3625,    3624
   18810,    3553,    3554,    3626,    3625
   18811,    3554,    3555,    3627,    3626
   18812,    3555,    3556,    3628,    3627
   18813,    3556,    3557,    3629,    3628
   18814,    3557,    3558,    3630,    3629
   18815,    3558,    3559,    3631,    3630
   18816,    3560,    3561,    3633,    3632
   18817,    3561,    3562,    3634,    3633
   18818,    3562,    3563,    3635,    3634
   18819,    3563,    3564,    3636,    3635
   18820,    3564,    3565,    3637,    3636
   18821,    3565,    3566,    3638,    3637
   18822,    3566,    3567,    3639,    3638
   18823,    3567,    3568,    3640,    3639
   18824,    3568,    3569,    3641,    3640
   18825,    3569,    3570,    3642,    3641
   18826,    3570,    3571,    3643,    3642
   18827,    3571,    3572,    3644,    3643
   18828,    3572,    3573,    3645,    3644
   18829,    3573,    3574,    3646,    3645
   18830,    3574,    3575,    3647,    3646
   18831,    3575,    3576,    3648,    3647
   18832,    3576,    3577,    3649,    3648
   18833,    3577,    3578,    3650,    3649
   18834,    3578,    3579,    3651,    3650
   18835,    3579,    3580,    3652,    3651
   18836,    3580,    3581,    3653,    3652
   18837,    3581,    3582,    3654,    3653
   18838,    3582,    3583,    3655,    3654
   18839,    3583,    3584,    3656,    3655
   18840,    3584,    3585,    3657,    3656
   18841,    3585,    3586,    3658,    3657
   18842,    3586,    3587,    3659,    3658
   18843,    3587,    3588,    3660,    3659
   18844,    3588,    3589,    3661,    3660
   18845,    3589,    3590,    3662,    3661
   18846,    3590,    3591,    3663,    3662
   18847,    3591,    3592,    3664,    3663
   18848,    3592,    3593,    3665,    3664
   18849,    3593,    3594,    3666,    3665
   18850,    3594,    3595,    3667,    3666
   18851,    3595,    3596,    3668,    3667
   18852,    3596,    3597,    3669,    3668
   18853,    3597,    3598,    3670,    3669
   18854,    3598,    3599,    3671,    3670
   18855,    3599,    3600,    3672,    3671
   18856,    3600,    3601,    3673,    3672
   18857,    3601,    3602,    3674,    3673
   18858,    3602,    3603,    3675,    3674
   18859,    3603,    3604,    3676,    3675
   18860,    3604,    3605,    3677,    3676
   18861,    3605,    3606,    3678,    3677
   18862,    3606,    3607,    3679,    3678
   18863,    3607,    3608,    3680,    3679
   18864,    3608,    3609,    3681,    3680
   18865,    3609,    3610,    3682,    3681
   18866,    3610,    3611,    3683,    3682
   18867,    3611,    3612,    3684,    3683
   18868,    3612,    3613,    3685,    3684
   18869,    3613,    3614,    3686,    3685
   18870,    3614,    3615,    3687,    3686
   18871,    3615,    3616,    3688,    3687
   18872,    3616,    3617,    3689,    3688
   18873,    3617,    3618,    3690,    3689
   18874,    3618,    3619,    3691,    3690
   18875,    3619,    3620,    3692,    3691
   18876,    3620,    3621,    3693,    3692
   18877,    3621,    3622,    3694,    3693
   18878,    3622,    3623,    3695,    3694
   18879,    3623,    3624,    3696,    3695
   18880,    3624,    3625,    3697,    3696
   18881,    3625,    3626,    3698,    3697
   18882,    3626,    3627,    3699,    3698
   18883,    3627,    3628,    3700,    3699
   18884,    3628,    3629,    3701,    3700
   18885,    3629,    3630,    3702,    3701
   18886,    3630,    3631,    3703,    3702
   18887,    3632,    3633,    3705,    3704
   18888,    3633,    3634,    3706,    3705
   18889,    3634,    3635,    3707,    3706
   18890,    3635,    3636,    3708,    3707
   18891,    3636,    3637,    3709,    3708
   18892,    3637,    3638,    3710,    3709
   18893,    3638,    3639,    3711,    3710
   18894,    3639,    3640,    3712,    3711
   18895,    3640,    3641,    3713,    3712
   18896,    3641,    3642,    3714,    3713
   18897,    3642,    3643,    3715,    3714
   18898,    3643,    3644,    3716,    3715
   18899,    3644,    3645,    3717,    3716
   18900,    3645,    3646,    3718,    3717
   18901,    3646,    3647,    3719,    3718
   18902,    3647,    3648,    3720,    3719
   18903,    3648,    3649,    3721,    3720
   18904,    3649,    3650,    3722,    3721
   18905,    3650,    3651,    3723,    3722
   18906,    3651,    3652,    3724,    3723
   18907,    3652,    3653,    3725,    3724
   18908,    3653,    3654,    3726,    3725
   18909,    3654,    3655,    3727,    3726
   18910,    3655,    3656,    3728,    3727
   18911,    3656,    3657,    3729,    3728
   18912,    3657,    3658,    3730,    3729
   18913,    3658,    3659,    3731,    3730
   18914,    3659,    3660,    3732,    3731
   18915,    3660,    3661,    3733,    3732
   18916,    3661,    3662,    3734,    3733
   18917,    3662,    3663,    3735,    3734
   18918,    3663,    3664,    3736,    3735
   18919,    3664,    3665,    3737,    3736
   18920,    3665,    3666,    3738,    3737
   18921,    3666,    3667,    3739,    3738
   18922,    3667,    3668,    3740,    3739
   18923,    3668,    3669,    3741,    3740
   18924,    3669,    3670,    3742,    3741
   18925,    3670,    3671,    3743,    3742
   18926,    3671,    3672,    3744,    3743
   18927,    3672,    3673,    3745,    3744
   18928,    3673,    3674,    3746,    3745
   18929,    3674,    3675,    3747,    3746
   18930,    3675,    3676,    3748,    3747
   18931,    3676,    3677,    3749,    3748
   18932,    3677,    3678,    3750,    3749
   18933,    3678,    3679,    3751,    3750
   18934,    3679,    3680,    3752,    3751
   18935,    3680,    3681,    3753,    3752
   18936,    3681,    3682,    3754,    3753
   18937,    3682,    3683,    3755,    3754
   18938,    3683,    3684,    3756,    3755
   18939,    3684,    3685,    3757,    3756
   18940,    3685,    3686,    3758,    3757
   18941,    3686,    3687,    3759,    3758
   18942,    3687,    3688,    3760,    3759
   18943,    3688,    3689,    3761,    3760
   18944,    3689,    3690,    3762,    3761
   18945,    3690,    3691,    3763,    3762
   18946,    3691,    3692,    3764,    3763
   18947,    3692,    3693,    3765,    3764
   18948,    3693,    3694,    3766,    3765
   18949,    3694,    3695,    3767,    3766
   18950,    3695,    3696,    3768,    3767
   18951,    3696,    3697,    3769,    3768
   18952,    3697,    3698,    3770,    3769
   18953,    3698,    3699,    3771,    3770
   18954,    3699,    3700,    3772,    3771
   18955,    3700,    3701,    3773,    3772
   18956,    3701,    3702,    3774,    3773
   18957,    3702,    3703,    3775,    3774
   18958,    3704,    3705,    3777,    3776
   18959,    3705,    3706,    3778,    3777
   18960,    3706,    3707,    3779,    3778
   18961,    3707,    3708,    3780,    3779
   18962,    3708,    3709,    3781,    3780
   18963,    3709,    3710,    3782,    3781
   18964,    3710,    3711,    3783,    3782
   18965,    3711,    3712,    3784,    3783
   18966,    3712,    3713,    3785,    3784
   18967,    3713,    3714,    3786,    3785
   18968,    3714,    3715,    3787,    3786
   18969,    3715,    3716,    3788,    3787
   18970,    3716,    3717,    3789,    3788
   18971,    3717,    3718,    3790,    3789
   18972,    3718,    3719,    3791,    3790
   18973,    3719,    3720,    3792,    3791
   18974,    3720,    3721,    3793,    3792
   18975,    3721,    3722,    3794,    3793
   18976,    3722,    3723,    3795,    3794
   18977,    3723,    3724,    3796,    3795
   18978,    3724,    3725,    3797,    3796
   18979,    3725,    3726,    3798,    3797
   18980,    3726,    3727,    3799,    3798
   18981,    3727,    3728,    3800,    3799
   18982,    3728,    3729,    3801,    3800
   18983,    3729,    3730,    3802,    3801
   18984,    3730,    3731,    3803,    3802
   18985,    3731,    3732,    3804,    3803
   18986,    3732,    3733,    3805,    3804
   18987,    3733,    3734,    3806,    3805
   18988,    3734,    3735,    3807,    3806
   18989,    3735,    3736,    3808,    3807
   18990,    3736,    3737,    3809,    3808
   18991,    3737,    3738,    3810,    3809
   18992,    3738,    3739,    3811,    3810
   18993,    3739,    3740,    3812,    3811
   18994,    3740,    3741,    3813,    3812
   18995,    3741,    3742,    3814,    3813
   18996,    3742,    3743,    3815,    3814
   18997,    3743,    3744,    3816,    3815
   18998,    3744,    3745,    3817,    3816
   18999,    3745,    3746,    3818,    3817
   19000,    3746,    3747,    3819,    3818
   19001,    3747,    3748,    3820,    3819
   19002,    3748,    3749,    3821,    3820
   19003,    3749,    3750,    3822,    3821
   19004,    3750,    3751,    3823,    3822
   19005,    3751,    3752,    3824,    3823
   19006,    3752,    3753,    3825,    3824
   19007,    3753,    3754,    3826,    3825
   19008,    3754,    3755,    3827,    3826
   19009,    3755,    3756,    3828,    3827
   19010,    3756,    3757,    3829,    3828
   19011,    3757,    3758,    3830,    3829
   19012,    3758,    3759,    3831,    3830
   19013,    3759,    3760,    3832,    3831
   19014,    3760,    3761,    3833,    3832
   19015,    3761,    3762,    3834,    3833
   19016,    3762,    3763,    3835,    3834
   19017,    3763,    3764,    3836,    3835
   19018,    3764,    3765,    3837,    3836
   19019,    3765,    3766,    3838,    3837
   19020,    3766,    3767,    3839,    3838
   19021,    3767,    3768,    3840,    3839
   19022,    3768,    3769,    3841,    3840
   19023,    3769,    3770,    3842,    3841
   19024,    3770,    3771,    3843,    3842
   19025,    3771,    3772,    3844,    3843
   19026,    3772,    3773,    3845,    3844
   19027,    3773,    3774,    3846,    3845
   19028,    3774,    3775,    3847,    3846
   19029,    3776,    3777,    3849,    3848
   19030,    3777,    3778,    3850,    3849
   19031,    3778,    3779,    3851,    3850
   19032,    3779,    3780,    3852,    3851
   19033,    3780,    3781,    3853,    3852
   19034,    3781,    3782,    3854,    3853
   19035,    3782,    3783,    3855,    3854
   19036,    3783,    3784,    3856,    3855
   19037,    3784,    3785,    3857,    3856
   19038,    3785,    3786,    3858,    3857
   19039,    3786,    3787,    3859,    3858
   19040,    3787,    3788,    3860,    3859
   19041,    3788,    3789,    3861,    3860
   19042,    3789,    3790,    3862,    3861
   19043,    3790,    3791,    3863,    3862
   19044,    3791,    3792,    3864,    3863
   19045,    3792,    3793,    3865,    3864
   19046,    3793,    3794,    3866,    3865
   19047,    3794,    3795,    3867,    3866
   19048,    3795,    3796,    3868,    3867
   19049,    3796,    3797,    3869,    3868
   19050,    3797,    3798,    3870,    3869
   19051,    3798,    3799,    3871,    3870
   19052,    3799,    3800,    3872,    3871
   19053,    3800,    3801,    3873,    3872
   19054,    3801,    3802,    3874,    3873
   19055,    3802,    3803,    3875,    3874
   19056,    3803,    3804,    3876,    3875
   19057,    3804,    3805,    3877,    3876
   19058,    3805,    3806,    3878,    3877
   19059,    3806,    3807,    3879,    3878
   19060,    3807,    3808,    3880,    3879
   19061,    3808,    3809,    3881,    3880
   19062,    3809,    3810,    3882,    3881
   19063,    3810,    3811,    3883,    3882
   19064,    3811,    3812,    3884,    3883
   19065,    3812,    3813,    3885,    3884
   19066,    3813,    3814,    3886,    3885
   19067,    3814,    3815,    3887,    3886
   19068,    3815,    3816,    3888,    3887
   19069,    3816,    3817,    3889,    3888
   19070,    3817,    3818,    3890,    3889
   19071,    3818,    3819,    3891,    3890
   19072,    3819,    3820,    3892,    3891
   19073,    3820,    3821,    3893,    3892
   19074,    3821,    3822,    3894,    3893
   19075,    3822,    3823,    3895,    3894
   19076,    3823,    3824,    3896,    3895
   19077,    3824,    3825,    3897,    3896
   19078,    3825,    3826,    3898,    3897
   19079,    3826,    3827,    3899,    3898
   19080,    3827,    3828,    3900,    3899
   19081,    3828,    3829,    3901,    3900
   19082,    3829,    3830,    3902,    3901
   19083,    3830,    3831,    3903,    3902
   19084,    3831,    3832,    3904,    3903
   19085,    3832,    3833,    3905,    3904
   19086,    3833,    3834,    3906,    3905
   19087,    3834,    3835,    3907,    3906
   19088,    3835,    3836,    3908,    3907
   19089,    3836,    3837,    3909,    3908
   19090,    3837,    3838,    3910,    3909
   19091,    3838,    3839,    3911,    3910
   19092,    3839,    3840,    3912,    3911
   19093,    3840,    3841,    3913,    3912
   19094,    3841,    3842,    3914,    3913
   19095,    3842,    3843,    3915,    3914
   19096,    3843,    3844,    3916,    3915
   19097,    3844,    3845,    3917,    3916
   19098,    3845,    3846,    3918,    3917
   19099,    3846,    3847,    3919,    3918
   19100,    3848,    3849,    3921,    3920
   19101,    3849,    3850,    3922,    3921
   19102,    3850,    3851,    3923,    3922
   19103,    3851,    3852,    3924,    3923
   19104,    3852,    3853,    3925,    3924
   19105,    3853,    3854,    3926,    3925
   19106,    3854,    3855,    3927,    3926
   19107,    3855,    3856,    3928,    3927
   19108,    3856,    3857,    3929,    3928
   19109,    3857,    3858,    3930,    3929
   19110,    3858,    3859,    3931,    3930
   19111,    3859,    3860,    3932,    3931
   19112,    3860,    3861,    3933,    3932
   19113,    3861,    3862,    3934,    3933
   19114,    3862,    3863,    3935,    3934
   19115,    3863,    3864,    3936,    3935
   19116,    3864,    3865,    3937,    3936
   19117,    3865,    3866,    3938,    3937
   19118,    3866,    3867,    3939,    3938
   19119,    3867,    3868,    3940,    3939
   19120,    3868,    3869,    3941,    3940
   19121,    3869,    3870,    3942,    3941
   19122,    3870,    3871,    3943,    3942
   19123,    3871,    3872,    3944,    3943
   19124,    3872,    3873,    3945,    3944
   19125,    3873,    3874,    3946,    3945
   19126,    3874,    3875,    3947,    3946
   19127,    3875,    3876,    3948,    3947
   19128,    3876,    3877,    3949,    3948
   19129,    3877,    3878,    3950,    3949
   19130,    3878,    3879,    3951,    3950
   19131,    3879,    3880,    3952,    3951
   19132,    3880,    3881,    3953,    3952
   19133,    3881,    3882,    3954,    3953
   19134,    3882,    3883,    3955,    3954
   19135,    3883,    3884,    3956,    3955
   19136,    3884,    3885,    3957,    3956
   19137,    3885,    3886,    3958,    3957
   19138,    3886,    3887,    3959,    3958
   19139,    3887,    3888,    3960,    3959
   19140,    3888,    3889,    3961,    3960
   19141,    3889,    3890,    3962,    3961
   19142,    3890,    3891,    3963,    3962
   19143,    3891,    3892,    3964,    3963
   19144,    3892,    3893,    3965,    3964
   19145,    3893,    3894,    3966,    3965
   19146,    3894,    3895,    3967,    3966
   19147,    3895,    3896,    3968,    3967
   19148,    3896,    3897,    3969,    3968
   19149,    3897,    3898,    3970,    3969
   19150,    3898,    3899,    3971,    3970
   19151,    3899,    3900,    3972,    3971
   19152,    3900,    3901,    3973,    3972
   19153,    3901,    3902,    3974,    3973
   19154,    3902,    3903,    3975,    3974
   19155,    3903,    3904,    3976,    3975
   19156,    3904,    3905,    3977,    3976
   19157,    3905,    3906,    3978,    3977
   19158,    3906,    3907,    3979,    3978
   19159,    3907,    3908,    3980,    3979
   19160,    3908,    3909,    3981,    3980
   19161,    3909,    3910,    3982,    3981
   19162,    3910,    3911,    3983,    3982
   19163,    3911,    3912,    3984,    3983
   19164,    3912,    3913,    3985,    3984
   19165,    3913,    3914,    3986,    3985
   19166,    3914,    3915,    3987,    3986
   19167,    3915,    3916,    3988,    3987
   19168,    3916,    3917,    3989,    3988
   19169,    3917,    3918,    3990,    3989
   19170,    3918,    3919,    3991,    3990
   19171,    3920,    3921,    3993,    3992
   19172,    3921,    3922,    3994,    3993
   19173,    3922,    3923,    3995,    3994
   19174,    3923,    3924,    3996,    3995
   19175,    3924,    3925,    3997,    3996
   19176,    3925,    3926,    3998,    3997
   19177,    3926,    3927,    3999,    3998
   19178,    3927,    3928,    4000,    3999
   19179,    3928,    3929,    4001,    4000
   19180,    3929,    3930,    4002,    4001
   19181,    3930,    3931,    4003,    4002
   19182,    3931,    3932,    4004,    4003
   19183,    3932,    3933,    4005,    4004
   19184,    3933,    3934,    4006,    4005
   19185,    3934,    3935,    4007,    4006
   19186,    3935,    3936,    4008,    4007
   19187,    3936,    3937,    4009,    4008
   19188,    3937,    3938,    4010,    4009
   19189,    3938,    3939,    4011,    4010
   19190,    3939,    3940,    4012,    4011
   19191,    3940,    3941,    4013,    4012
   19192,    3941,    3942,    4014,    4013
   19193,    3942,    3943,    4015,    4014
   19194,    3943,    3944,    4016,    4015
   19195,    3944,    3945,    4017,    4016
   19196,    3945,    3946,    4018,    4017
   19197,    3946,    3947,    4019,    4018
   19198,    3947,    3948,    4020,    4019
   19199,    3948,    3949,    4021,    4020
   19200,    3949,    3950,    4022,    4021
   19201,    3950,    3951,    4023,    4022
   19202,    3951,    3952,    4024,    4023
   19203,    3952,    3953,    4025,    4024
   19204,    3953,    3954,    4026,    4025
   19205,    3954,    3955,    4027,    4026
   19206,    3955,    3956,    4028,    4027
   19207,    3956,    3957,    4029,    4028
   19208,    3957,    3958,    4030,    4029
   19209,    3958,    3959,    4031,    4030
   19210,    3959,    3960,    4032,    4031
   19211,    3960,    3961,    4033,    4032
   19212,    3961,    3962,    4034,    4033
   19213,    3962,    3963,    4035,    4034
   19214,    3963,    3964,    4036,    4035
   19215,    3964,    3965,    4037,    4036
   19216,    3965,    3966,    4038,    4037
   19217,    3966,    3967,    4039,    4038
   19218,    3967,    3968,    4040,    4039
   19219,    3968,    3969,    4041,    4040
   19220,    3969,    3970,    4042,    4041
   19221,    3970,    3971,    4043,    4042
   19222,    3971,    3972,    4044,    4043
   19223,    3972,    3973,    4045,    4044
   19224,    3973,    3974,    4046,    4045
   19225,    3974,    3975,    4047,    4046
   19226,    3975,    3976,    4048,    4047
   19227,    3976,    3977,    4049,    4048
   19228,    3977,    3978,    4050,    4049
   19229,    3978,    3979,    4051,    4050
   19230,    3979,    3980,    4052,    4051
   19231,    3980,    3981,    4053,    4052
   19232,    3981,    3982,    4054,    4053
   19233,    3982,    3983,    4055,    4054
   19234,    3983,    3984,    4056,    4055
   19235,    3984,    3985,    4057,    4056
   19236,    3985,    3986,    4058,    4057
   19237,    3986,    3987,    4059,    4058
   19238,    3987,    3988,    4060,    4059
   19239,    3988,    3989,    4061,    4060
   19240,    3989,    3990,    4062,    4061
   19241,    3990,    3991,    4063,    4062
   19242,    3992,    3993,    4065,    4064
   19243,    3993,    3994,    4066,    4065
   19244,    3994,    3995,    4067,    4066
   19245,    3995,    3996,    4068,    4067
   19246,    3996,    3997,    4069,    4068
   19247,    3997,    3998,    4070,    4069
   19248,    3998,    3999,    4071,    4070
   19249,    3999,    4000,    4072,    4071
   19250,    4000,    4001,    4073,    4072
   19251,    4001,    4002,    4074,    4073
   19252,    4002,    4003,    4075,    4074
   19253,    4003,    4004,    4076,    4075
   19254,    4004,    4005,    4077,    4076
   19255,    4005,    4006,    4078,    4077
   19256,    4006,    4007,    4079,    4078
   19257,    4007,    4008,    4080,    4079
   19258,    4008,    4009,    4081,    4080
   19259,    4009,    4010,    4082,    4081
   19260,    4010,    4011,    4083,    4082
   19261,    4011,    4012,    4084,    4083
   19262,    4012,    4013,    4085,    4084
   19263,    4013,    4014,    4086,    4085
   19264,    4014,    4015,    4087,    4086
   19265,    4015,    4016,    4088,    4087
   19266,    4016,    4017,    4089,    4088
   19267,    4017,    4018,    4090,    4089
   19268,    4018,    4019,    4091,    4090
   19269,    4019,    4020,    4092,    4091
   19270,    4020,    4021,    4093,    4092
   19271,    4021,    4022,    4094,    4093
   19272,    4022,    4023,    4095,    4094
   19273,    4023,    4024,    4096,    4095
   19274,    4024,    4025,    4097,    4096
   19275,    4025,    4026,    4098,    4097
   19276,    4026,    4027,    4099,    4098
   19277,    4027,    4028,    4100,    4099
   19278,    4028,    4029,    4101,    4100
   19279,    4029,    4030,    4102,    4101
   19280,    4030,    4031,    4103,    4102
   19281,    4031,    4032,    4104,    4103
   19282,    4032,    4033,    4105,    4104
   19283,    4033,    4034,    4106,    4105
   19284,    4034,    4035,    4107,    4106
   19285,    4035,    4036,    4108,    4107
   19286,    4036,    4037,    4109,    4108
   19287,    4037,    4038,    4110,    4109
   19288,    4038,    4039,    4111,    4110
   19289,    4039,    4040,    4112,    4111
   19290,    4040,    4041,    4113,    4112
   19291,    4041,    4042,    4114,    4113
   19292,    4042,    4043,    4115,    4114
   19293,    4043,    4044,    4116,    4115
   19294,    4044,    4045,    4117,    4116
   19295,    4045,    4046,    4118,    4117
   19296,    4046,    4047,    4119,    4118
   19297,    4047,    4048,    4120,    4119
   19298,    4048,    4049,    4121,    4120
   19299,    4049,    4050,    4122,    4121
   19300,    4050,    4051,    4123,    4122
   19301,    4051,    4052,    4124,    4123
   19302,    4052,    4053,    4125,    4124
   19303,    4053,    4054,    4126,    4125
   19304,    4054,    4055,    4127,    4126
   19305,    4055,    4056,    4128,    4127
   19306,    4056,    4057,    4129,    4128
   19307,    4057,    4058,    4130,    4129
   19308,    4058,    4059,    4131,    4130
   19309,    4059,    4060,    4132,    4131
   19310,    4060,    4061,    4133,    4132
   19311,    4061,    4062,    4134,    4133
   19312,    4062,    4063,    4135,    4134
   19313,    4064,    4065,    4137,    4136
   19314,    4065,    4066,    4138,    4137
   19315,    4066,    4067,    4139,    4138
   19316,    4067,    4068,    4140,    4139
   19317,    4068,    4069,    4141,    4140
   19318,    4069,    4070,    4142,    4141
   19319,    4070,    4071,    4143,    4142
   19320,    4071,    4072,    4144,    4143
   19321,    4072,    4073,    4145,    4144
   19322,    4073,    4074,    4146,    4145
   19323,    4074,    4075,    4147,    4146
   19324,    4075,    4076,    4148,    4147
   19325,    4076,    4077,    4149,    4148
   19326,    4077,    4078,    4150,    4149
   19327,    4078,    4079,    4151,    4150
   19328,    4079,    4080,    4152,    4151
   19329,    4080,    4081,    4153,    4152
   19330,    4081,    4082,    4154,    4153
   19331,    4082,    4083,    4155,    4154
   19332,    4083,    4084,    4156,    4155
   19333,    4084,    4085,    4157,    4156
   19334,    4085,    4086,    4158,    4157
   19335,    4086,    4087,    4159,    4158
   19336,    4087,    4088,    4160,    4159
   19337,    4088,    4089,    4161,    4160
   19338,    4089,    4090,    4162,    4161
   19339,    4090,    4091,    4163,    4162
   19340,    4091,    4092,    4164,    4163
   19341,    4092,    4093,    4165,    4164
   19342,    4093,    4094,    4166,    4165
   19343,    4094,    4095,    4167,    4166
   19344,    4095,    4096,    4168,    4167
   19345,    4096,    4097,    4169,    4168
   19346,    4097,    4098,    4170,    4169
   19347,    4098,    4099,    4171,    4170
   19348,    4099,    4100,    4172,    4171
   19349,    4100,    4101,    4173,    4172
   19350,    4101,    4102,    4174,    4173
   19351,    4102,    4103,    4175,    4174
   19352,    4103,    4104,    4176,    4175
   19353,    4104,    4105,    4177,    4176
   19354,    4105,    4106,    4178,    4177
   19355,    4106,    4107,    4179,    4178
   19356,    4107,    4108,    4180,    4179
   19357,    4108,    4109,    4181,    4180
   19358,    4109,    4110,    4182,    4181
   19359,    4110,    4111,    4183,    4182
   19360,    4111,    4112,    4184,    4183
   19361,    4112,    4113,    4185,    4184
   19362,    4113,    4114,    4186,    4185
   19363,    4114,    4115,    4187,    4186
   19364,    4115,    4116,    4188,    4187
   19365,    4116,    4117,    4189,    4188
   19366,    4117,    4118,    4190,    4189
   19367,    4118,    4119,    4191,    4190
   19368,    4119,    4120,    4192,    4191
   19369,    4120,    4121,    4193,    4192
   19370,    4121,    4122,    4194,    4193
   19371,    4122,    4123,    4195,    4194
   19372,    4123,    4124,    4196,    4195
   19373,    4124,    4125,    4197,    4196
   19374,    4125,    4126,    4198,    4197
   19375,    4126,    4127,    4199,    4198
   19376,    4127,    4128,    4200,    4199
   19377,    4128,    4129,    4201,    4200
   19378,    4129,    4130,    4202,    4201
   19379,    4130,    4131,    4203,    4202
   19380,    4131,    4132,    4204,    4203
   19381,    4132,    4133,    4205,    4204
   19382,    4133,    4134,    4206,    4205
   19383,    4134,    4135,    4207,    4206
   19384,    4136,    4137,    4209,    4208
   19385,    4137,    4138,    4210,    4209
   19386,    4138,    4139,    4211,    4210
   19387,    4139,    4140,    4212,    4211
   19388,    4140,    4141,    4213,    4212
   19389,    4141,    4142,    4214,    4213
   19390,    4142,    4143,    4215,    4214
   19391,    4143,    4144,    4216,    4215
   19392,    4144,    4145,    4217,    4216
   19393,    4145,    4146,    4218,    4217
   19394,    4146,    4147,    4219,    4218
   19395,    4147,    4148,    4220,    4219
   19396,    4148,    4149,    4221,    4220
   19397,    4149,    4150,    4222,    4221
   19398,    4150,    4151,    4223,    4222
   19399,    4151,    4152,    4224,    4223
   19400,    4152,    4153,    4225,    4224
   19401,    4153,    4154,    4226,    4225
   19402,    4154,    4155,    4227,    4226
   19403,    4155,    4156,    4228,    4227
   19404,    4156,    4157,    4229,    4228
   19405,    4157,    4158,    4230,    4229
   19406,    4158,    4159,    4231,    4230
   19407,    4159,    4160,    4232,    4231
   19408,    4160,    4161,    4233,    4232
   19409,    4161,    4162,    4234,    4233
   19410,    4162,    4163,    4235,    4234
   19411,    4163,    4164,    4236,    4235
   19412,    4164,    4165,    4237,    4236
   19413,    4165,    4166,    4238,    4237
   19414,    4166,    4167,    4239,    4238
   19415,    4167,    4168,    4240,    4239
   19416,    4168,    4169,    4241,    4240
   19417,    4169,    4170,    4242,    4241
   19418,    4170,    4171,    4243,    4242
   19419,    4171,    4172,    4244,    4243
   19420,    4172,    4173,    4245,    4244
   19421,    4173,    4174,    4246,    4245
   19422,    4174,    4175,    4247,    4246
   19423,    4175,    4176,    4248,    4247
   19424,    4176,    4177,    4249,    4248
   19425,    4177,    4178,    4250,    4249
   19426,    4178,    4179,    4251,    4250
   19427,    4179,    4180,    4252,    4251
   19428,    4180,    4181,    4253,    4252
   19429,    4181,    4182,    4254,    4253
   19430,    4182,    4183,    4255,    4254
   19431,    4183,    4184,    4256,    4255
   19432,    4184,    4185,    4257,    4256
   19433,    4185,    4186,    4258,    4257
   19434,    4186,    4187,    4259,    4258
   19435,    4187,    4188,    4260,    4259
   19436,    4188,    4189,    4261,    4260
   19437,    4189,    4190,    4262,    4261
   19438,    4190,    4191,    4263,    4262
   19439,    4191,    4192,    4264,    4263
   19440,    4192,    4193,    4265,    4264
   19441,    4193,    4194,    4266,    4265
   19442,    4194,    4195,    4267,    4266
   19443,    4195,    4196,    4268,    4267
   19444,    4196,    4197,    4269,    4268
   19445,    4197,    4198,    4270,    4269
   19446,    4198,    4199,    4271,    4270
   19447,    4199,    4200,    4272,    4271
   19448,    4200,    4201,    4273,    4272
   19449,    4201,    4202,    4274,    4273
   19450,    4202,    4203,    4275,    4274
   19451,    4203,    4204,    4276,    4275
   19452,    4204,    4205,    4277,    4276
   19453,    4205,    4206,    4278,    4277
   19454,    4206,    4207,    4279,    4278
   19455,    4208,    4209,    4281,    4280
   19456,    4209,    4210,    4282,    4281
   19457,    4210,    4211,    4283,    4282
   19458,    4211,    4212,    4284,    4283
   19459,    4212,    4213,    4285,    4284
   19460,    4213,    4214,    4286,    4285
   19461,    4214,    4215,    4287,    4286
   19462,    4215,    4216,    4288,    4287
   19463,    4216,    4217,    4289,    4288
   19464,    4217,    4218,    4290,    4289
   19465,    4218,    4219,    4291,    4290
   19466,    4219,    4220,    4292,    4291
   19467,    4220,    4221,    4293,    4292
   19468,    4221,    4222,    4294,    4293
   19469,    4222,    4223,    4295,    4294
   19470,    4223,    4224,    4296,    4295
   19471,    4224,    4225,    4297,    4296
   19472,    4225,    4226,    4298,    4297
   19473,    4226,    4227,    4299,    4298
   19474,    4227,    4228,    4300,    4299
   19475,    4228,    4229,    4301,    4300
   19476,    4229,    4230,    4302,    4301
   19477,    4230,    4231,    4303,    4302
   19478,    4231,    4232,    4304,    4303
   19479,    4232,    4233,    4305,    4304
   19480,    4233,    4234,    4306,    4305
   19481,    4234,    4235,    4307,    4306
   19482,    4235,    4236,    4308,    4307
   19483,    4236,    4237,    4309,    4308
   19484,    4237,    4238,    4310,    4309
   19485,    4238,    4239,    4311,    4310
   19486,    4239,    4240,    4312,    4311
   19487,    4240,    4241,    4313,    4312
   19488,    4241,    4242,    4314,    4313
   19489,    4242,    4243,    4315,    4314
   19490,    4243,    4244,    4316,    4315
   19491,    4244,    4245,    4317,    4316
   19492,    4245,    4246,    4318,    4317
   19493,    4246,    4247,    4319,    4318
   19494,    4247,    4248,    4320,    4319
   19495,    4248,    4249,    4321,    4320
   19496,    4249,    4250,    4322,    4321
   19497,    4250,    4251,    4323,    4322
   19498,    4251,    4252,    4324,    4323
   19499,    4252,    4253,    4325,    4324
   19500,    4253,    4254,    4326,    4325
   19501,    4254,    4255,    4327,    4326
   19502,    4255,    4256,    4328,    4327
   19503,    4256,    4257,    4329,    4328
   19504,    4257,    4258,    4330,    4329
   19505,    4258,    4259,    4331,    4330
   19506,    4259,    4260,    4332,    4331
   19507,    4260,    4261,    4333,    4332
   19508,    4261,    4262,    4334,    4333
   19509,    4262,    4263,    4335,    4334
   19510,    4263,    4264,    4336,    4335
   19511,    4264,    4265,    4337,    4336
   19512,    4265,    4266,    4338,    4337
   19513,    4266,    4267,    4339,    4338
   19514,    4267,    4268,    4340,    4339
   19515,    4268,    4269,    4341,    4340
   19516,    4269,    4270,    4342,    4341
   19517,    4270,    4271,    4343,    4342
   19518,    4271,    4272,    4344,    4343
   19519,    4272,    4273,    4345,    4344
   19520,    4273,    4274,    4346,    4345
   19521,    4274,    4275,    4347,    4346
   19522,    4275,    4276,    4348,    4347
   19523,    4276,    4277,    4349,    4348
   19524,    4277,    4278,    4350,    4349
   19525,    4278,    4279,    4351,    4350
   19526,    4280,    4281,    4353,    4352
   19527,    4281,    4282,    4354,    4353
   19528,    4282,    4283,    4355,    4354
   19529,    4283,    4284,    4356,    4355
   19530,    4284,    4285,    4357,    4356
   19531,    4285,    4286,    4358,    4357
   19532,    4286,    4287,    4359,    4358
   19533,    4287,    4288,    4360,    4359
   19534,    4288,    4289,    4361,    4360
   19535,    4289,    4290,    4362,    4361
   19536,    4290,    4291,    4363,    4362
   19537,    4291,    4292,    4364,    4363
   19538,    4292,    4293,    4365,    4364
   19539,    4293,    4294,    4366,    4365
   19540,    4294,    4295,    4367,    4366
   19541,    4295,    4296,    4368,    4367
   19542,    4296,    4297,    4369,    4368
   19543,    4297,    4298,    4370,    4369
   19544,    4298,    4299,    4371,    4370
   19545,    4299,    4300,    4372,    4371
   19546,    4300,    4301,    4373,    4372
   19547,    4301,    4302,    4374,    4373
   19548,    4302,    4303,    4375,    4374
   19549,    4303,    4304,    4376,    4375
   19550,    4304,    4305,    4377,    4376
   19551,    4305,    4306,    4378,    4377
   19552,    4306,    4307,    4379,    4378
   19553,    4307,    4308,    4380,    4379
   19554,    4308,    4309,    4381,    4380
   19555,    4309,    4310,    4382,    4381
   19556,    4310,    4311,    4383,    4382
   19557,    4311,    4312,    4384,    4383
   19558,    4312,    4313,    4385,    4384
   19559,    4313,    4314,    4386,    4385
   19560,    4314,    4315,    4387,    4386
   19561,    4315,    4316,    4388,    4387
   19562,    4316,    4317,    4389,    4388
   19563,    4317,    4318,    4390,    4389
   19564,    4318,    4319,    4391,    4390
   19565,    4319,    4320,    4392,    4391
   19566,    4320,    4321,    4393,    4392
   19567,    4321,    4322,    4394,    4393
   19568,    4322,    4323,    4395,    4394
   19569,    4323,    4324,    4396,    4395
   19570,    4324,    4325,    4397,    4396
   19571,    4325,    4326,    4398,    4397
   19572,    4326,    4327,    4399,    4398
   19573,    4327,    4328,    4400,    4399
   19574,    4328,    4329,    4401,    4400
   19575,    4329,    4330,    4402,    4401
   19576,    4330,    4331,    4403,    4402
   19577,    4331,    4332,    4404,    4403
   19578,    4332,    4333,    4405,    4404
   19579,    4333,    4334,    4406,    4405
   19580,    4334,    4335,    4407,    4406
   19581,    4335,    4336,    4408,    4407
   19582,    4336,    4337,    4409,    4408
   19583,    4337,    4338,    4410,    4409
   19584,    4338,    4339,    4411,    4410
   19585,    4339,    4340,    4412,    4411
   19586,    4340,    4341,    4413,    4412
   19587,    4341,    4342,    4414,    4413
   19588,    4342,    4343,    4415,    4414
   19589,    4343,    4344,    4416,    4415
   19590,    4344,    4345,    4417,    4416
   19591,    4345,    4346,    4418,    4417
   19592,    4346,    4347,    4419,    4418
   19593,    4347,    4348,    4420,    4419
   19594,    4348,    4349,    4421,    4420
   19595,    4349,    4350,    4422,    4421
   19596,    4350,    4351,    4423,    4422
   19597,    4352,    4353,    4425,    4424
   19598,    4353,    4354,    4426,    4425
   19599,    4354,    4355,    4427,    4426
   19600,    4355,    4356,    4428,    4427
   19601,    4356,    4357,    4429,    4428
   19602,    4357,    4358,    4430,    4429
   19603,    4358,    4359,    4431,    4430
   19604,    4359,    4360,    4432,    4431
   19605,    4360,    4361,    4433,    4432
   19606,    4361,    4362,    4434,    4433
   19607,    4362,    4363,    4435,    4434
   19608,    4363,    4364,    4436,    4435
   19609,    4364,    4365,    4437,    4436
   19610,    4365,    4366,    4438,    4437
   19611,    4366,    4367,    4439,    4438
   19612,    4367,    4368,    4440,    4439
   19613,    4368,    4369,    4441,    4440
   19614,    4369,    4370,    4442,    4441
   19615,    4370,    4371,    4443,    4442
   19616,    4371,    4372,    4444,    4443
   19617,    4372,    4373,    4445,    4444
   19618,    4373,    4374,    4446,    4445
   19619,    4374,    4375,    4447,    4446
   19620,    4375,    4376,    4448,    4447
   19621,    4376,    4377,    4449,    4448
   19622,    4377,    4378,    4450,    4449
   19623,    4378,    4379,    4451,    4450
   19624,    4379,    4380,    4452,    4451
   19625,    4380,    4381,    4453,    4452
   19626,    4381,    4382,    4454,    4453
   19627,    4382,    4383,    4455,    4454
   19628,    4383,    4384,    4456,    4455
   19629,    4384,    4385,    4457,    4456
   19630,    4385,    4386,    4458,    4457
   19631,    4386,    4387,    4459,    4458
   19632,    4387,    4388,    4460,    4459
   19633,    4388,    4389,    4461,    4460
   19634,    4389,    4390,    4462,    4461
   19635,    4390,    4391,    4463,    4462
   19636,    4391,    4392,    4464,    4463
   19637,    4392,    4393,    4465,    4464
   19638,    4393,    4394,    4466,    4465
   19639,    4394,    4395,    4467,    4466
   19640,    4395,    4396,    4468,    4467
   19641,    4396,    4397,    4469,    4468
   19642,    4397,    4398,    4470,    4469
   19643,    4398,    4399,    4471,    4470
   19644,    4399,    4400,    4472,    4471
   19645,    4400,    4401,    4473,    4472
   19646,    4401,    4402,    4474,    4473
   19647,    4402,    4403,    4475,    4474
   19648,    4403,    4404,    4476,    4475
   19649,    4404,    4405,    4477,    4476
   19650,    4405,    4406,    4478,    4477
   19651,    4406,    4407,    4479,    4478
   19652,    4407,    4408,    4480,    4479
   19653,    4408,    4409,    4481,    4480
   19654,    4409,    4410,    4482,    4481
   19655,    4410,    4411,    4483,    4482
   19656,    4411,    4412,    4484,    4483
   19657,    4412,    4413,    4485,    4484
   19658,    4413,    4414,    4486,    4485
   19659,    4414,    4415,    4487,    4486
   19660,    4415,    4416,    4488,    4487
   19661,    4416,    4417,    4489,    4488
   19662,    4417,    4418,    4490,    4489
   19663,    4418,    4419,    4491,    4490
   19664,    4419,    4420,    4492,    4491
   19665,    4420,    4421,    4493,    4492
   19666,    4421,    4422,    4494,    4493
   19667,    4422,    4423,    4495,    4494
   19668,    4424,    4425,    4497,    4496
   19669,    4425,    4426,    4498,    4497
   19670,    4426,    4427,    4499,    4498
   19671,    4427,    4428,    4500,    4499
   19672,    4428,    4429,    4501,    4500
   19673,    4429,    4430,    4502,    4501
   19674,    4430,    4431,    4503,    4502
   19675,    4431,    4432,    4504,    4503
   19676,    4432,    4433,    4505,    4504
   19677,    4433,    4434,    4506,    4505
   19678,    4434,    4435,    4507,    4506
   19679,    4435,    4436,    4508,    4507
   19680,    4436,    4437,    4509,    4508
   19681,    4437,    4438,    4510,    4509
   19682,    4438,    4439,    4511,    4510
   19683,    4439,    4440,    4512,    4511
   19684,    4440,    4441,    4513,    4512
   19685,    4441,    4442,    4514,    4513
   19686,    4442,    4443,    4515,    4514
   19687,    4443,    4444,    4516,    4515
   19688,    4444,    4445,    4517,    4516
   19689,    4445,    4446,    4518,    4517
   19690,    4446,    4447,    4519,    4518
   19691,    4447,    4448,    4520,    4519
   19692,    4448,    4449,    4521,    4520
   19693,    4449,    4450,    4522,    4521
   19694,    4450,    4451,    4523,    4522
   19695,    4451,    4452,    4524,    4523
   19696,    4452,    4453,    4525,    4524
   19697,    4453,    4454,    4526,    4525
   19698,    4454,    4455,    4527,    4526
   19699,    4455,    4456,    4528,    4527
   19700,    4456,    4457,    4529,    4528
   19701,    4457,    4458,    4530,    4529
   19702,    4458,    4459,    4531,    4530
   19703,    4459,    4460,    4532,    4531
   19704,    4460,    4461,    4533,    4532
   19705,    4461,    4462,    4534,    4533
   19706,    4462,    4463,    4535,    4534
   19707,    4463,    4464,    4536,    4535
   19708,    4464,    4465,    4537,    4536
   19709,    4465,    4466,    4538,    4537
   19710,    4466,    4467,    4539,    4538
   19711,    4467,    4468,    4540,    4539
   19712,    4468,    4469,    4541,    4540
   19713,    4469,    4470,    4542,    4541
   19714,    4470,    4471,    4543,    4542
   19715,    4471,    4472,    4544,    4543
   19716,    4472,    4473,    4545,    4544
   19717,    4473,    4474,    4546,    4545
   19718,    4474,    4475,    4547,    4546
   19719,    4475,    4476,    4548,    4547
   19720,    4476,    4477,    4549,    4548
   19721,    4477,    4478,    4550,    4549
   19722,    4478,    4479,    4551,    4550
   19723,    4479,    4480,    4552,    4551
   19724,    4480,    4481,    4553,    4552
   19725,    4481,    4482,    4554,    4553
   19726,    4482,    4483,    4555,    4554
   19727,    4483,    4484,    4556,    4555
   19728,    4484,    4485,    4557,    4556
   19729,    4485,    4486,    4558,    4557
   19730,    4486,    4487,    4559,    4558
   19731,    4487,    4488,    4560,    4559
   19732,    4488,    4489,    4561,    4560
   19733,    4489,    4490,    4562,    4561
   19734,    4490,    4491,    4563,    4562
   19735,    4491,    4492,    4564,    4563
   19736,    4492,    4493,    4565,    4564
   19737,    4493,    4494,    4566,    4565
   19738,    4494,    4495,    4567,    4566
   19739,    4496,    4497,    4569,    4568
   19740,    4497,    4498,    4570,    4569
   19741,    4498,    4499,    4571,    4570
   19742,    4499,    4500,    4572,    4571
   19743,    4500,    4501,    4573,    4572
   19744,    4501,    4502,    4574,    4573
   19745,    4502,    4503,    4575,    4574
   19746,    4503,    4504,    4576,    4575
   19747,    4504,    4505,    4577,    4576
   19748,    4505,    4506,    4578,    4577
   19749,    4506,    4507,    4579,    4578
   19750,    4507,    4508,    4580,    4579
   19751,    4508,    4509,    4581,    4580
   19752,    4509,    4510,    4582,    4581
   19753,    4510,    4511,    4583,    4582
   19754,    4511,    4512,    4584,    4583
   19755,    4512,    4513,    4585,    4584
   19756,    4513,    4514,    4586,    4585
   19757,    4514,    4515,    4587,    4586
   19758,    4515,    4516,    4588,    4587
   19759,    4516,    4517,    4589,    4588
   19760,    4517,    4518,    4590,    4589
   19761,    4518,    4519,    4591,    4590
   19762,    4519,    4520,    4592,    4591
   19763,    4520,    4521,    4593,    4592
   19764,    4521,    4522,    4594,    4593
   19765,    4522,    4523,    4595,    4594
   19766,    4523,    4524,    4596,    4595
   19767,    4524,    4525,    4597,    4596
   19768,    4525,    4526,    4598,    4597
   19769,    4526,    4527,    4599,    4598
   19770,    4527,    4528,    4600,    4599
   19771,    4528,    4529,    4601,    4600
   19772,    4529,    4530,    4602,    4601
   19773,    4530,    4531,    4603,    4602
   19774,    4531,    4532,    4604,    4603
   19775,    4532,    4533,    4605,    4604
   19776,    4533,    4534,    4606,    4605
   19777,    4534,    4535,    4607,    4606
   19778,    4535,    4536,    4608,    4607
   19779,    4536,    4537,    4609,    4608
   19780,    4537,    4538,    4610,    4609
   19781,    4538,    4539,    4611,    4610
   19782,    4539,    4540,    4612,    4611
   19783,    4540,    4541,    4613,    4612
   19784,    4541,    4542,    4614,    4613
   19785,    4542,    4543,    4615,    4614
   19786,    4543,    4544,    4616,    4615
   19787,    4544,    4545,    4617,    4616
   19788,    4545,    4546,    4618,    4617
   19789,    4546,    4547,    4619,    4618
   19790,    4547,    4548,    4620,    4619
   19791,    4548,    4549,    4621,    4620
   19792,    4549,    4550,    4622,    4621
   19793,    4550,    4551,    4623,    4622
   19794,    4551,    4552,    4624,    4623
   19795,    4552,    4553,    4625,    4624
   19796,    4553,    4554,    4626,    4625
   19797,    4554,    4555,    4627,    4626
   19798,    4555,    4556,    4628,    4627
   19799,    4556,    4557,    4629,    4628
   19800,    4557,    4558,    4630,    4629
   19801,    4558,    4559,    4631,    4630
   19802,    4559,    4560,    4632,    4631
   19803,    4560,    4561,    4633,    4632
   19804,    4561,    4562,    4634,    4633
   19805,    4562,    4563,    4635,    4634
   19806,    4563,    4564,    4636,    4635
   19807,    4564,    4565,    4637,    4636
   19808,    4565,    4566,    4638,    4637
   19809,    4566,    4567,    4639,    4638
   19810,    4568,    4569,    4641,    4640
   19811,    4569,    4570,    4642,    4641
   19812,    4570,    4571,    4643,    4642
   19813,    4571,    4572,    4644,    4643
   19814,    4572,    4573,    4645,    4644
   19815,    4573,    4574,    4646,    4645
   19816,    4574,    4575,    4647,    4646
   19817,    4575,    4576,    4648,    4647
   19818,    4576,    4577,    4649,    4648
   19819,    4577,    4578,    4650,    4649
   19820,    4578,    4579,    4651,    4650
   19821,    4579,    4580,    4652,    4651
   19822,    4580,    4581,    4653,    4652
   19823,    4581,    4582,    4654,    4653
   19824,    4582,    4583,    4655,    4654
   19825,    4583,    4584,    4656,    4655
   19826,    4584,    4585,    4657,    4656
   19827,    4585,    4586,    4658,    4657
   19828,    4586,    4587,    4659,    4658
   19829,    4587,    4588,    4660,    4659
   19830,    4588,    4589,    4661,    4660
   19831,    4589,    4590,    4662,    4661
   19832,    4590,    4591,    4663,    4662
   19833,    4591,    4592,    4664,    4663
   19834,    4592,    4593,    4665,    4664
   19835,    4593,    4594,    4666,    4665
   19836,    4594,    4595,    4667,    4666
   19837,    4595,    4596,    4668,    4667
   19838,    4596,    4597,    4669,    4668
   19839,    4597,    4598,    4670,    4669
   19840,    4598,    4599,    4671,    4670
   19841,    4599,    4600,    4672,    4671
   19842,    4600,    4601,    4673,    4672
   19843,    4601,    4602,    4674,    4673
   19844,    4602,    4603,    4675,    4674
   19845,    4603,    4604,    4676,    4675
   19846,    4604,    4605,    4677,    4676
   19847,    4605,    4606,    4678,    4677
   19848,    4606,    4607,    4679,    4678
   19849,    4607,    4608,    4680,    4679
   19850,    4608,    4609,    4681,    4680
   19851,    4609,    4610,    4682,    4681
   19852,    4610,    4611,    4683,    4682
   19853,    4611,    4612,    4684,    4683
   19854,    4612,    4613,    4685,    4684
   19855,    4613,    4614,    4686,    4685
   19856,    4614,    4615,    4687,    4686
   19857,    4615,    4616,    4688,    4687
   19858,    4616,    4617,    4689,    4688
   19859,    4617,    4618,    4690,    4689
   19860,    4618,    4619,    4691,    4690
   19861,    4619,    4620,    4692,    4691
   19862,    4620,    4621,    4693,    4692
   19863,    4621,    4622,    4694,    4693
   19864,    4622,    4623,    4695,    4694
   19865,    4623,    4624,    4696,    4695
   19866,    4624,    4625,    4697,    4696
   19867,    4625,    4626,    4698,    4697
   19868,    4626,    4627,    4699,    4698
   19869,    4627,    4628,    4700,    4699
   19870,    4628,    4629,    4701,    4700
   19871,    4629,    4630,    4702,    4701
   19872,    4630,    4631,    4703,    4702
   19873,    4631,    4632,    4704,    4703
   19874,    4632,    4633,    4705,    4704
   19875,    4633,    4634,    4706,    4705
   19876,    4634,    4635,    4707,    4706
   19877,    4635,    4636,    4708,    4707
   19878,    4636,    4637,    4709,    4708
   19879,    4637,    4638,    4710,    4709
   19880,    4638,    4639,    4711,    4710
   19881,    4640,    4641,    4713,    4712
   19882,    4641,    4642,    4714,    4713
   19883,    4642,    4643,    4715,    4714
   19884,    4643,    4644,    4716,    4715
   19885,    4644,    4645,    4717,    4716
   19886,    4645,    4646,    4718,    4717
   19887,    4646,    4647,    4719,    4718
   19888,    4647,    4648,    4720,    4719
   19889,    4648,    4649,    4721,    4720
   19890,    4649,    4650,    4722,    4721
   19891,    4650,    4651,    4723,    4722
   19892,    4651,    4652,    4724,    4723
   19893,    4652,    4653,    4725,    4724
   19894,    4653,    4654,    4726,    4725
   19895,    4654,    4655,    4727,    4726
   19896,    4655,    4656,    4728,    4727
   19897,    4656,    4657,    4729,    4728
   19898,    4657,    4658,    4730,    4729
   19899,    4658,    4659,    4731,    4730
   19900,    4659,    4660,    4732,    4731
   19901,    4660,    4661,    4733,    4732
   19902,    4661,    4662,    4734,    4733
   19903,    4662,    4663,    4735,    4734
   19904,    4663,    4664,    4736,    4735
   19905,    4664,    4665,    4737,    4736
   19906,    4665,    4666,    4738,    4737
   19907,    4666,    4667,    4739,    4738
   19908,    4667,    4668,    4740,    4739
   19909,    4668,    4669,    4741,    4740
   19910,    4669,    4670,    4742,    4741
   19911,    4670,    4671,    4743,    4742
   19912,    4671,    4672,    4744,    4743
   19913,    4672,    4673,    4745,    4744
   19914,    4673,    4674,    4746,    4745
   19915,    4674,    4675,    4747,    4746
   19916,    4675,    4676,    4748,    4747
   19917,    4676,    4677,    4749,    4748
   19918,    4677,    4678,    4750,    4749
   19919,    4678,    4679,    4751,    4750
   19920,    4679,    4680,    4752,    4751
   19921,    4680,    4681,    4753,    4752
   19922,    4681,    4682,    4754,    4753
   19923,    4682,    4683,    4755,    4754
   19924,    4683,    4684,    4756,    4755
   19925,    4684,    4685,    4757,    4756
   19926,    4685,    4686,    4758,    4757
   19927,    4686,    4687,    4759,    4758
   19928,    4687,    4688,    4760,    4759
   19929,    4688,    4689,    4761,    4760
   19930,    4689,    4690,    4762,    4761
   19931,    4690,    4691,    4763,    4762
   19932,    4691,    4692,    4764,    4763
   19933,    4692,    4693,    4765,    4764
   19934,    4693,    4694,    4766,    4765
   19935,    4694,    4695,    4767,    4766
   19936,    4695,    4696,    4768,    4767
   19937,    4696,    4697,    4769,    4768
   19938,    4697,    4698,    4770,    4769
   19939,    4698,    4699,    4771,    4770
   19940,    4699,    4700,    4772,    4771
   19941,    4700,    4701,    4773,    4772
   19942,    4701,    4702,    4774,    4773
   19943,    4702,    4703,    4775,    4774
   19944,    4703,    4704,    4776,    4775
   19945,    4704,    4705,    4777,    4776
   19946,    4705,    4706,    4778,    4777
   19947,    4706,    4707,    4779,    4778
   19948,    4707,    4708,    4780,    4779
   19949,    4708,    4709,    4781,    4780
   19950,    4709,    4710,    4782,    4781
   19951,    4710,    4711,    4783,    4782
   19952,    4712,    4713,    4785,    4784
   19953,    4713,    4714,    4786,    4785
   19954,    4714,    4715,    4787,    4786
   19955,    4715,    4716,    4788,    4787
   19956,    4716,    4717,    4789,    4788
   19957,    4717,    4718,    4790,    4789
   19958,    4718,    4719,    4791,    4790
   19959,    4719,    4720,    4792,    4791
   19960,    4720,    4721,    4793,    4792
   19961,    4721,    4722,    4794,    4793
   19962,    4722,    4723,    4795,    4794
   19963,    4723,    4724,    4796,    4795
   19964,    4724,    4725,    4797,    4796
   19965,    4725,    4726,    4798,    4797
   19966,    4726,    4727,    4799,    4798
   19967,    4727,    4728,    4800,    4799
   19968,    4728,    4729,    4801,    4800
   19969,    4729,    4730,    4802,    4801
   19970,    4730,    4731,    4803,    4802
   19971,    4731,    4732,    4804,    4803
   19972,    4732,    4733,    4805,    4804
   19973,    4733,    4734,    4806,    4805
   19974,    4734,    4735,    4807,    4806
   19975,    4735,    4736,    4808,    4807
   19976,    4736,    4737,    4809,    4808
   19977,    4737,    4738,    4810,    4809
   19978,    4738,    4739,    4811,    4810
   19979,    4739,    4740,    4812,    4811
   19980,    4740,    4741,    4813,    4812
   19981,    4741,    4742,    4814,    4813
   19982,    4742,    4743,    4815,    4814
   19983,    4743,    4744,    4816,    4815
   19984,    4744,    4745,    4817,    4816
   19985,    4745,    4746,    4818,    4817
   19986,    4746,    4747,    4819,    4818
   19987,    4747,    4748,    4820,    4819
   19988,    4748,    4749,    4821,    4820
   19989,    4749,    4750,    4822,    4821
   19990,    4750,    4751,    4823,    4822
   19991,    4751,    4752,    4824,    4823
   19992,    4752,    4753,    4825,    4824
   19993,    4753,    4754,    4826,    4825
   19994,    4754,    4755,    4827,    4826
   19995,    4755,    4756,    4828,    4827
   19996,    4756,    4757,    4829,    4828
   19997,    4757,    4758,    4830,    4829
   19998,    4758,    4759,    4831,    4830
   19999,    4759,    4760,    4832,    4831
   20000,    4760,    4761,    4833,    4832
   20001,    4761,    4762,    4834,    4833
   20002,    4762,    4763,    4835,    4834
   20003,    4763,    4764,    4836,    4835
   20004,    4764,    4765,    4837,    4836
   20005,    4765,    4766,    4838,    4837
   20006,    4766,    4767,    4839,    4838
   20007,    4767,    4768,    4840,    4839
   20008,    4768,    4769,    4841,    4840
   20009,    4769,    4770,    4842,    4841
   20010,    4770,    4771,    4843,    4842
   20011,    4771,    4772,    4844,    4843
   20012,    4772,    4773,    4845,    4844
   20013,    4773,    4774,    4846,    4845
   20014,    4774,    4775,    4847,    4846
   20015,    4775,    4776,    4848,    4847
   20016,    4776,    4777,    4849,    4848
   20017,    4777,    4778,    4850,    4849
   20018,    4778,    4779,    4851,    4850
   20019,    4779,    4780,    4852,    4851
   20020,    4780,    4781,    4853,    4852
   20021,    4781,    4782,    4854,    4853
   20022,    4782,    4783,    4855,    4854
   20023,    4784,    4785,    4857,    4856
   20024,    4785,    4786,    4858,    4857
   20025,    4786,    4787,    4859,    4858
   20026,    4787,    4788,    4860,    4859
   20027,    4788,    4789,    4861,    4860
   20028,    4789,    4790,    4862,    4861
   20029,    4790,    4791,    4863,    4862
   20030,    4791,    4792,    4864,    4863
   20031,    4792,    4793,    4865,    4864
   20032,    4793,    4794,    4866,    4865
   20033,    4794,    4795,    4867,    4866
   20034,    4795,    4796,    4868,    4867
   20035,    4796,    4797,    4869,    4868
   20036,    4797,    4798,    4870,    4869
   20037,    4798,    4799,    4871,    4870
   20038,    4799,    4800,    4872,    4871
   20039,    4800,    4801,    4873,    4872
   20040,    4801,    4802,    4874,    4873
   20041,    4802,    4803,    4875,    4874
   20042,    4803,    4804,    4876,    4875
   20043,    4804,    4805,    4877,    4876
   20044,    4805,    4806,    4878,    4877
   20045,    4806,    4807,    4879,    4878
   20046,    4807,    4808,    4880,    4879
   20047,    4808,    4809,    4881,    4880
   20048,    4809,    4810,    4882,    4881
   20049,    4810,    4811,    4883,    4882
   20050,    4811,    4812,    4884,    4883
   20051,    4812,    4813,    4885,    4884
   20052,    4813,    4814,    4886,    4885
   20053,    4814,    4815,    4887,    4886
   20054,    4815,    4816,    4888,    4887
   20055,    4816,    4817,    4889,    4888
   20056,    4817,    4818,    4890,    4889
   20057,    4818,    4819,    4891,    4890
   20058,    4819,    4820,    4892,    4891
   20059,    4820,    4821,    4893,    4892
   20060,    4821,    4822,    4894,    4893
   20061,    4822,    4823,    4895,    4894
   20062,    4823,    4824,    4896,    4895
   20063,    4824,    4825,    4897,    4896
   20064,    4825,    4826,    4898,    4897
   20065,    4826,    4827,    4899,    4898
   20066,    4827,    4828,    4900,    4899
   20067,    4828,    4829,    4901,    4900
   20068,    4829,    4830,    4902,    4901
   20069,    4830,    4831,    4903,    4902
   20070,    4831,    4832,    4904,    4903
   20071,    4832,    4833,    4905,    4904
   20072,    4833,    4834,    4906,    4905
   20073,    4834,    4835,    4907,    4906
   20074,    4835,    4836,    4908,    4907
   20075,    4836,    4837,    4909,    4908
   20076,    4837,    4838,    4910,    4909
   20077,    4838,    4839,    4911,    4910
   20078,    4839,    4840,    4912,    4911
   20079,    4840,    4841,    4913,    4912
   20080,    4841,    4842,    4914,    4913
   20081,    4842,    4843,    4915,    4914
   20082,    4843,    4844,    4916,    4915
   20083,    4844,    4845,    4917,    4916
   20084,    4845,    4846,    4918,    4917
   20085,    4846,    4847,    4919,    4918
   20086,    4847,    4848,    4920,    4919
   20087,    4848,    4849,    4921,    4920
   20088,    4849,    4850,    4922,    4921
   20089,    4850,    4851,    4923,    4922
   20090,    4851,    4852,    4924,    4923
   20091,    4852,    4853,    4925,    4924
   20092,    4853,    4854,    4926,    4925
   20093,    4854,    4855,    4927,    4926
   20094,    4856,    4857,    4929,    4928
   20095,    4857,    4858,    4930,    4929
   20096,    4858,    4859,    4931,    4930
   20097,    4859,    4860,    4932,    4931
   20098,    4860,    4861,    4933,    4932
   20099,    4861,    4862,    4934,    4933
   20100,    4862,    4863,    4935,    4934
   20101,    4863,    4864,    4936,    4935
   20102,    4864,    4865,    4937,    4936
   20103,    4865,    4866,    4938,    4937
   20104,    4866,    4867,    4939,    4938
   20105,    4867,    4868,    4940,    4939
   20106,    4868,    4869,    4941,    4940
   20107,    4869,    4870,    4942,    4941
   20108,    4870,    4871,    4943,    4942
   20109,    4871,    4872,    4944,    4943
   20110,    4872,    4873,    4945,    4944
   20111,    4873,    4874,    4946,    4945
   20112,    4874,    4875,    4947,    4946
   20113,    4875,    4876,    4948,    4947
   20114,    4876,    4877,    4949,    4948
   20115,    4877,    4878,    4950,    4949
   20116,    4878,    4879,    4951,    4950
   20117,    4879,    4880,    4952,    4951
   20118,    4880,    4881,    4953,    4952
   20119,    4881,    4882,    4954,    4953
   20120,    4882,    4883,    4955,    4954
   20121,    4883,    4884,    4956,    4955
   20122,    4884,    4885,    4957,    4956
   20123,    4885,    4886,    4958,    4957
   20124,    4886,    4887,    4959,    4958
   20125,    4887,    4888,    4960,    4959
   20126,    4888,    4889,    4961,    4960
   20127,    4889,    4890,    4962,    4961
   20128,    4890,    4891,    4963,    4962
   20129,    4891,    4892,    4964,    4963
   20130,    4892,    4893,    4965,    4964
   20131,    4893,    4894,    4966,    4965
   20132,    4894,    4895,    4967,    4966
   20133,    4895,    4896,    4968,    4967
   20134,    4896,    4897,    4969,    4968
   20135,    4897,    4898,    4970,    4969
   20136,    4898,    4899,    4971,    4970
   20137,    4899,    4900,    4972,    4971
   20138,    4900,    4901,    4973,    4972
   20139,    4901,    4902,    4974,    4973
   20140,    4902,    4903,    4975,    4974
   20141,    4903,    4904,    4976,    4975
   20142,    4904,    4905,    4977,    4976
   20143,    4905,    4906,    4978,    4977
   20144,    4906,    4907,    4979,    4978
   20145,    4907,    4908,    4980,    4979
   20146,    4908,    4909,    4981,    4980
   20147,    4909,    4910,    4982,    4981
   20148,    4910,    4911,    4983,    4982
   20149,    4911,    4912,    4984,    4983
   20150,    4912,    4913,    4985,    4984
   20151,    4913,    4914,    4986,    4985
   20152,    4914,    4915,    4987,    4986
   20153,    4915,    4916,    4988,    4987
   20154,    4916,    4917,    4989,    4988
   20155,    4917,    4918,    4990,    4989
   20156,    4918,    4919,    4991,    4990
   20157,    4919,    4920,    4992,    4991
   20158,    4920,    4921,    4993,    4992
   20159,    4921,    4922,    4994,    4993
   20160,    4922,    4923,    4995,    4994
   20161,    4923,    4924,    4996,    4995
   20162,    4924,    4925,    4997,    4996
   20163,    4925,    4926,    4998,    4997
   20164,    4926,    4927,    4999,    4998
   20165,    4928,    4929,    5001,    5000
   20166,    4929,    4930,    5002,    5001
   20167,    4930,    4931,    5003,    5002
   20168,    4931,    4932,    5004,    5003
   20169,    4932,    4933,    5005,    5004
   20170,    4933,    4934,    5006,    5005
   20171,    4934,    4935,    5007,    5006
   20172,    4935,    4936,    5008,    5007
   20173,    4936,    4937,    5009,    5008
   20174,    4937,    4938,    5010,    5009
   20175,    4938,    4939,    5011,    5010
   20176,    4939,    4940,    5012,    5011
   20177,    4940,    4941,    5013,    5012
   20178,    4941,    4942,    5014,    5013
   20179,    4942,    4943,    5015,    5014
   20180,    4943,    4944,    5016,    5015
   20181,    4944,    4945,    5017,    5016
   20182,    4945,    4946,    5018,    5017
   20183,    4946,    4947,    5019,    5018
   20184,    4947,    4948,    5020,    5019
   20185,    4948,    4949,    5021,    5020
   20186,    4949,    4950,    5022,    5021
   20187,    4950,    4951,    5023,    5022
   20188,    4951,    4952,    5024,    5023
   20189,    4952,    4953,    5025,    5024
   20190,    4953,    4954,    5026,    5025
   20191,    4954,    4955,    5027,    5026
   20192,    4955,    4956,    5028,    5027
   20193,    4956,    4957,    5029,    5028
   20194,    4957,    4958,    5030,    5029
   20195,    4958,    4959,    5031,    5030
   20196,    4959,    4960,    5032,    5031
   20197,    4960,    4961,    5033,    5032
   20198,    4961,    4962,    5034,    5033
   20199,    4962,    4963,    5035,    5034
   20200,    4963,    4964,    5036,    5035
   20201,    4964,    4965,    5037,    5036
   20202,    4965,    4966,    5038,    5037
   20203,    4966,    4967,    5039,    5038
   20204,    4967,    4968,    5040,    5039
   20205,    4968,    4969,    5041,    5040
   20206,    4969,    4970,    5042,    5041
   20207,    4970,    4971,    5043,    5042
   20208,    4971,    4972,    5044,    5043
   20209,    4972,    4973,    5045,    5044
   20210,    4973,    4974,    5046,    5045
   20211,    4974,    4975,    5047,    5046
   20212,    4975,    4976,    5048,    5047
   20213,    4976,    4977,    5049,    5048
   20214,    4977,    4978,    5050,    5049
   20215,    4978,    4979,    5051,    5050
   20216,    4979,    4980,    5052,    5051
   20217,    4980,    4981,    5053,    5052
   20218,    4981,    4982,    5054,    5053
   20219,    4982,    4983,    5055,    5054
   20220,    4983,    4984,    5056,    5055
   20221,    4984,    4985,    5057,    5056
   20222,    4985,    4986,    5058,    5057
   20223,    4986,    4987,    5059,    5058
   20224,    4987,    4988,    5060,    5059
   20225,    4988,    4989,    5061,    5060
   20226,    4989,    4990,    5062,    5061
   20227,    4990,    4991,    5063,    5062
   20228,    4991,    4992,    5064,    5063
   20229,    4992,    4993,    5065,    5064
   20230,    4993,    4994,    5066,    5065
   20231,    4994,    4995,    5067,    5066
   20232,    4995,    4996,    5068,    5067
   20233,    4996,    4997,    5069,    5068
   20234,    4997,    4998,    5070,    5069
   20235,    4998,    4999,    5071,    5070
   20236,    5000,    5001,    5073,    5072
   20237,    5001,    5002,    5074,    5073
   20238,    5002,    5003,    5075,    5074
   20239,    5003,    5004,    5076,    5075
   20240,    5004,    5005,    5077,    5076
   20241,    5005,    5006,    5078,    5077
   20242,    5006,    5007,    5079,    5078
   20243,    5007,    5008,    5080,    5079
   20244,    5008,    5009,    5081,    5080
   20245,    5009,    5010,    5082,    5081
   20246,    5010,    5011,    5083,    5082
   20247,    5011,    5012,    5084,    5083
   20248,    5012,    5013,    5085,    5084
   20249,    5013,    5014,    5086,    5085
   20250,    5014,    5015,    5087,    5086
   20251,    5015,    5016,    5088,    5087
   20252,    5016,    5017,    5089,    5088
   20253,    5017,    5018,    5090,    5089
   20254,    5018,    5019,    5091,    5090
   20255,    5019,    5020,    5092,    5091
   20256,    5020,    5021,    5093,    5092
   20257,    5021,    5022,    5094,    5093
   20258,    5022,    5023,    5095,    5094
   20259,    5023,    5024,    5096,    5095
   20260,    5024,    5025,    5097,    5096
   20261,    5025,    5026,    5098,    5097
   20262,    5026,    5027,    5099,    5098
   20263,    5027,    5028,    5100,    5099
   20264,    5028,    5029,    5101,    5100
   20265,    5029,    5030,    5102,    5101
   20266,    5030,    5031,    5103,    5102
   20267,    5031,    5032,    5104,    5103
   20268,    5032,    5033,    5105,    5104
   20269,    5033,    5034,    5106,    5105
   20270,    5034,    5035,    5107,    5106
   20271,    5035,    5036,    5108,    5107
   20272,    5036,    5037,    5109,    5108
   20273,    5037,    5038,    5110,    5109
   20274,    5038,    5039,    5111,    5110
   20275,    5039,    5040,    5112,    5111
   20276,    5040,    5041,    5113,    5112
   20277,    5041,    5042,    5114,    5113
   20278,    5042,    5043,    5115,    5114
   20279,    5043,    5044,    5116,    5115
   20280,    5044,    5045,    5117,    5116
   20281,    5045,    5046,    5118,    5117
   20282,    5046,    5047,    5119,    5118
   20283,    5047,    5048,    5120,    5119
   20284,    5048,    5049,    5121,    5120
   20285,    5049,    5050,    5122,    5121
   20286,    5050,    5051,    5123,    5122
   20287,    5051,    5052,    5124,    5123
   20288,    5052,    5053,    5125,    5124
   20289,    5053,    5054,    5126,    5125
   20290,    5054,    5055,    5127,    5126
   20291,    5055,    5056,    5128,    5127
   20292,    5056,    5057,    5129,    5128
   20293,    5057,    5058,    5130,    5129
   20294,    5058,    5059,    5131,    5130
   20295,    5059,    5060,    5132,    5131
   20296,    5060,    5061,    5133,    5132
   20297,    5061,    5062,    5134,    5133
   20298,    5062,    5063,    5135,    5134
   20299,    5063,    5064,    5136,    5135
   20300,    5064,    5065,    5137,    5136
   20301,    5065,    5066,    5138,    5137
   20302,    5066,    5067,    5139,    5138
   20303,    5067,    5068,    5140,    5139
   20304,    5068,    5069,    5141,    5140
   20305,    5069,    5070,    5142,    5141
   20306,    5070,    5071,    5143,    5142
   20307,    5072,    5073,    5145,    5144
   20308,    5073,    5074,    5146,    5145
   20309,    5074,    5075,    5147,    5146
   20310,    5075,    5076,    5148,    5147
   20311,    5076,    5077,    5149,    5148
   20312,    5077,    5078,    5150,    5149
   20313,    5078,    5079,    5151,    5150
   20314,    5079,    5080,    5152,    5151
   20315,    5080,    5081,    5153,    5152
   20316,    5081,    5082,    5154,    5153
   20317,    5082,    5083,    5155,    5154
   20318,    5083,    5084,    5156,    5155
   20319,    5084,    5085,    5157,    5156
   20320,    5085,    5086,    5158,    5157
   20321,    5086,    5087,    5159,    5158
   20322,    5087,    5088,    5160,    5159
   20323,    5088,    5089,    5161,    5160
   20324,    5089,    5090,    5162,    5161
   20325,    5090,    5091,    5163,    5162
   20326,    5091,    5092,    5164,    5163
   20327,    5092,    5093,    5165,    5164
   20328,    5093,    5094,    5166,    5165
   20329,    5094,    5095,    5167,    5166
   20330,    5095,    5096,    5168,    5167
   20331,    5096,    5097,    5169,    5168
   20332,    5097,    5098,    5170,    5169
   20333,    5098,    5099,    5171,    5170
   20334,    5099,    5100,    5172,    5171
   20335,    5100,    5101,    5173,    5172
   20336,    5101,    5102,    5174,    5173
   20337,    5102,    5103,    5175,    5174
   20338,    5103,    5104,    5176,    5175
   20339,    5104,    5105,    5177,    5176
   20340,    5105,    5106,    5178,    5177
   20341,    5106,    5107,    5179,    5178
   20342,    5107,    5108,    5180,    5179
   20343,    5108,    5109,    5181,    5180
   20344,    5109,    5110,    5182,    5181
   20345,    5110,    5111,    5183,    5182
   20346,    5111,    5112,    5184,    5183
   20347,    5112,    5113,    5185,    5184
   20348,    5113,    5114,    5186,    5185
   20349,    5114,    5115,    5187,    5186
   20350,    5115,    5116,    5188,    5187
   20351,    5116,    5117,    5189,    5188
   20352,    5117,    5118,    5190,    5189
   20353,    5118,    5119,    5191,    5190
   20354,    5119,    5120,    5192,    5191
   20355,    5120,    5121,    5193,    5192
   20356,    5121,    5122,    5194,    5193
   20357,    5122,    5123,    5195,    5194
   20358,    5123,    5124,    5196,    5195
   20359,    5124,    5125,    5197,    5196
   20360,    5125,    5126,    5198,    5197
   20361,    5126,    5127,    5199,    5198
   20362,    5127,    5128,    5200,    5199
   20363,    5128,    5129,    5201,    5200
   20364,    5129,    5130,    5202,    5201
   20365,    5130,    5131,    5203,    5202
   20366,    5131,    5132,    5204,    5203
   20367,    5132,    5133,    5205,    5204
   20368,    5133,    5134,    5206,    5205
   20369,    5134,    5135,    5207,    5206
   20370,    5135,    5136,    5208,    5207
   20371,    5136,    5137,    5209,    5208
   20372,    5137,    5138,    5210,    5209
   20373,    5138,    5139,    5211,    5210
   20374,    5139,    5140,    5212,    5211
   20375,    5140,    5141,    5213,    5212
   20376,    5141,    5142,    5214,    5213
   20377,    5142,    5143,    5215,    5214
   20378,    5144,    5145,    5217,    5216
   20379,    5145,    5146,    5218,    5217
   20380,    5146,    5147,    5219,    5218
   20381,    5147,    5148,    5220,    5219
   20382,    5148,    5149,    5221,    5220
   20383,    5149,    5150,    5222,    5221
   20384,    5150,    5151,    5223,    5222
   20385,    5151,    5152,    5224,    5223
   20386,    5152,    5153,    5225,    5224
   20387,    5153,    5154,    5226,    5225
   20388,    5154,    5155,    5227,    5226
   20389,    5155,    5156,    5228,    5227
   20390,    5156,    5157,    5229,    5228
   20391,    5157,    5158,    5230,    5229
   20392,    5158,    5159,    5231,    5230
   20393,    5159,    5160,    5232,    5231
   20394,    5160,    5161,    5233,    5232
   20395,    5161,    5162,    5234,    5233
   20396,    5162,    5163,    5235,    5234
   20397,    5163,    5164,    5236,    5235
   20398,    5164,    5165,    5237,    5236
   20399,    5165,    5166,    5238,    5237
   20400,    5166,    5167,    5239,    5238
   20401,    5167,    5168,    5240,    5239
   20402,    5168,    5169,    5241,    5240
   20403,    5169,    5170,    5242,    5241
   20404,    5170,    5171,    5243,    5242
   20405,    5171,    5172,    5244,    5243
   20406,    5172,    5173,    5245,    5244
   20407,    5173,    5174,    5246,    5245
   20408,    5174,    5175,    5247,    5246
   20409,    5175,    5176,    5248,    5247
   20410,    5176,    5177,    5249,    5248
   20411,    5177,    5178,    5250,    5249
   20412,    5178,    5179,    5251,    5250
   20413,    5179,    5180,    5252,    5251
   20414,    5180,    5181,    5253,    5252
   20415,    5181,    5182,    5254,    5253
   20416,    5182,    5183,    5255,    5254
   20417,    5183,    5184,    5256,    5255
   20418,    5184,    5185,    5257,    5256
   20419,    5185,    5186,    5258,    5257
   20420,    5186,    5187,    5259,    5258
   20421,    5187,    5188,    5260,    5259
   20422,    5188,    5189,    5261,    5260
   20423,    5189,    5190,    5262,    5261
   20424,    5190,    5191,    5263,    5262
   20425,    5191,    5192,    5264,    5263
   20426,    5192,    5193,    5265,    5264
   20427,    5193,    5194,    5266,    5265
   20428,    5194,    5195,    5267,    5266
   20429,    5195,    5196,    5268,    5267
   20430,    5196,    5197,    5269,    5268
   20431,    5197,    5198,    5270,    5269
   20432,    5198,    5199,    5271,    5270
   20433,    5199,    5200,    5272,    5271
   20434,    5200,    5201,    5273,    5272
   20435,    5201,    5202,    5274,    5273
   20436,    5202,    5203,    5275,    5274
   20437,    5203,    5204,    5276,    5275
   20438,    5204,    5205,    5277,    5276
   20439,    5205,    5206,    5278,    5277
   20440,    5206,    5207,    5279,    5278
   20441,    5207,    5208,    5280,    5279
   20442,    5208,    5209,    5281,    5280
   20443,    5209,    5210,    5282,    5281
   20444,    5210,    5211,    5283,    5282
   20445,    5211,    5212,    5284,    5283
   20446,    5212,    5213,    5285,    5284
   20447,    5213,    5214,    5286,    5285
   20448,    5214,    5215,    5287,    5286
** Layer 3: Companion Facsimile Output Elements (10225 .. 15336)
*Element, type=CPE4, elset=UMAT_QUAD
   20449,       1,       2,      74,      73
   20450,       2,       3,      75,      74
   20451,       3,       4,      76,      75
   20452,       4,       5,      77,      76
   20453,       5,       6,      78,      77
   20454,       6,       7,      79,      78
   20455,       7,       8,      80,      79
   20456,       8,       9,      81,      80
   20457,       9,      10,      82,      81
   20458,      10,      11,      83,      82
   20459,      11,      12,      84,      83
   20460,      12,      13,      85,      84
   20461,      13,      14,      86,      85
   20462,      14,      15,      87,      86
   20463,      15,      16,      88,      87
   20464,      16,      17,      89,      88
   20465,      17,      18,      90,      89
   20466,      18,      19,      91,      90
   20467,      19,      20,      92,      91
   20468,      20,      21,      93,      92
   20469,      21,      22,      94,      93
   20470,      22,      23,      95,      94
   20471,      23,      24,      96,      95
   20472,      24,      25,      97,      96
   20473,      25,      26,      98,      97
   20474,      26,      27,      99,      98
   20475,      27,      28,     100,      99
   20476,      28,      29,     101,     100
   20477,      29,      30,     102,     101
   20478,      30,      31,     103,     102
   20479,      31,      32,     104,     103
   20480,      32,      33,     105,     104
   20481,      33,      34,     106,     105
   20482,      34,      35,     107,     106
   20483,      35,      36,     108,     107
   20484,      36,      37,     109,     108
   20485,      37,      38,     110,     109
   20486,      38,      39,     111,     110
   20487,      39,      40,     112,     111
   20488,      40,      41,     113,     112
   20489,      41,      42,     114,     113
   20490,      42,      43,     115,     114
   20491,      43,      44,     116,     115
   20492,      44,      45,     117,     116
   20493,      45,      46,     118,     117
   20494,      46,      47,     119,     118
   20495,      47,      48,     120,     119
   20496,      48,      49,     121,     120
   20497,      49,      50,     122,     121
   20498,      50,      51,     123,     122
   20499,      51,      52,     124,     123
   20500,      52,      53,     125,     124
   20501,      53,      54,     126,     125
   20502,      54,      55,     127,     126
   20503,      55,      56,     128,     127
   20504,      56,      57,     129,     128
   20505,      57,      58,     130,     129
   20506,      58,      59,     131,     130
   20507,      59,      60,     132,     131
   20508,      60,      61,     133,     132
   20509,      61,      62,     134,     133
   20510,      62,      63,     135,     134
   20511,      63,      64,     136,     135
   20512,      64,      65,     137,     136
   20513,      65,      66,     138,     137
   20514,      66,      67,     139,     138
   20515,      67,      68,     140,     139
   20516,      68,      69,     141,     140
   20517,      69,      70,     142,     141
   20518,      70,      71,     143,     142
   20519,      71,      72,     144,     143
   20520,      73,      74,     146,     145
   20521,      74,      75,     147,     146
   20522,      75,      76,     148,     147
   20523,      76,      77,     149,     148
   20524,      77,      78,     150,     149
   20525,      78,      79,     151,     150
   20526,      79,      80,     152,     151
   20527,      80,      81,     153,     152
   20528,      81,      82,     154,     153
   20529,      82,      83,     155,     154
   20530,      83,      84,     156,     155
   20531,      84,      85,     157,     156
   20532,      85,      86,     158,     157
   20533,      86,      87,     159,     158
   20534,      87,      88,     160,     159
   20535,      88,      89,     161,     160
   20536,      89,      90,     162,     161
   20537,      90,      91,     163,     162
   20538,      91,      92,     164,     163
   20539,      92,      93,     165,     164
   20540,      93,      94,     166,     165
   20541,      94,      95,     167,     166
   20542,      95,      96,     168,     167
   20543,      96,      97,     169,     168
   20544,      97,      98,     170,     169
   20545,      98,      99,     171,     170
   20546,      99,     100,     172,     171
   20547,     100,     101,     173,     172
   20548,     101,     102,     174,     173
   20549,     102,     103,     175,     174
   20550,     103,     104,     176,     175
   20551,     104,     105,     177,     176
   20552,     105,     106,     178,     177
   20553,     106,     107,     179,     178
   20554,     107,     108,     180,     179
   20555,     108,     109,     181,     180
   20556,     109,     110,     182,     181
   20557,     110,     111,     183,     182
   20558,     111,     112,     184,     183
   20559,     112,     113,     185,     184
   20560,     113,     114,     186,     185
   20561,     114,     115,     187,     186
   20562,     115,     116,     188,     187
   20563,     116,     117,     189,     188
   20564,     117,     118,     190,     189
   20565,     118,     119,     191,     190
   20566,     119,     120,     192,     191
   20567,     120,     121,     193,     192
   20568,     121,     122,     194,     193
   20569,     122,     123,     195,     194
   20570,     123,     124,     196,     195
   20571,     124,     125,     197,     196
   20572,     125,     126,     198,     197
   20573,     126,     127,     199,     198
   20574,     127,     128,     200,     199
   20575,     128,     129,     201,     200
   20576,     129,     130,     202,     201
   20577,     130,     131,     203,     202
   20578,     131,     132,     204,     203
   20579,     132,     133,     205,     204
   20580,     133,     134,     206,     205
   20581,     134,     135,     207,     206
   20582,     135,     136,     208,     207
   20583,     136,     137,     209,     208
   20584,     137,     138,     210,     209
   20585,     138,     139,     211,     210
   20586,     139,     140,     212,     211
   20587,     140,     141,     213,     212
   20588,     141,     142,     214,     213
   20589,     142,     143,     215,     214
   20590,     143,     144,     216,     215
   20591,     145,     146,     218,     217
   20592,     146,     147,     219,     218
   20593,     147,     148,     220,     219
   20594,     148,     149,     221,     220
   20595,     149,     150,     222,     221
   20596,     150,     151,     223,     222
   20597,     151,     152,     224,     223
   20598,     152,     153,     225,     224
   20599,     153,     154,     226,     225
   20600,     154,     155,     227,     226
   20601,     155,     156,     228,     227
   20602,     156,     157,     229,     228
   20603,     157,     158,     230,     229
   20604,     158,     159,     231,     230
   20605,     159,     160,     232,     231
   20606,     160,     161,     233,     232
   20607,     161,     162,     234,     233
   20608,     162,     163,     235,     234
   20609,     163,     164,     236,     235
   20610,     164,     165,     237,     236
   20611,     165,     166,     238,     237
   20612,     166,     167,     239,     238
   20613,     167,     168,     240,     239
   20614,     168,     169,     241,     240
   20615,     169,     170,     242,     241
   20616,     170,     171,     243,     242
   20617,     171,     172,     244,     243
   20618,     172,     173,     245,     244
   20619,     173,     174,     246,     245
   20620,     174,     175,     247,     246
   20621,     175,     176,     248,     247
   20622,     176,     177,     249,     248
   20623,     177,     178,     250,     249
   20624,     178,     179,     251,     250
   20625,     179,     180,     252,     251
   20626,     180,     181,     253,     252
   20627,     181,     182,     254,     253
   20628,     182,     183,     255,     254
   20629,     183,     184,     256,     255
   20630,     184,     185,     257,     256
   20631,     185,     186,     258,     257
   20632,     186,     187,     259,     258
   20633,     187,     188,     260,     259
   20634,     188,     189,     261,     260
   20635,     189,     190,     262,     261
   20636,     190,     191,     263,     262
   20637,     191,     192,     264,     263
   20638,     192,     193,     265,     264
   20639,     193,     194,     266,     265
   20640,     194,     195,     267,     266
   20641,     195,     196,     268,     267
   20642,     196,     197,     269,     268
   20643,     197,     198,     270,     269
   20644,     198,     199,     271,     270
   20645,     199,     200,     272,     271
   20646,     200,     201,     273,     272
   20647,     201,     202,     274,     273
   20648,     202,     203,     275,     274
   20649,     203,     204,     276,     275
   20650,     204,     205,     277,     276
   20651,     205,     206,     278,     277
   20652,     206,     207,     279,     278
   20653,     207,     208,     280,     279
   20654,     208,     209,     281,     280
   20655,     209,     210,     282,     281
   20656,     210,     211,     283,     282
   20657,     211,     212,     284,     283
   20658,     212,     213,     285,     284
   20659,     213,     214,     286,     285
   20660,     214,     215,     287,     286
   20661,     215,     216,     288,     287
   20662,     217,     218,     290,     289
   20663,     218,     219,     291,     290
   20664,     219,     220,     292,     291
   20665,     220,     221,     293,     292
   20666,     221,     222,     294,     293
   20667,     222,     223,     295,     294
   20668,     223,     224,     296,     295
   20669,     224,     225,     297,     296
   20670,     225,     226,     298,     297
   20671,     226,     227,     299,     298
   20672,     227,     228,     300,     299
   20673,     228,     229,     301,     300
   20674,     229,     230,     302,     301
   20675,     230,     231,     303,     302
   20676,     231,     232,     304,     303
   20677,     232,     233,     305,     304
   20678,     233,     234,     306,     305
   20679,     234,     235,     307,     306
   20680,     235,     236,     308,     307
   20681,     236,     237,     309,     308
   20682,     237,     238,     310,     309
   20683,     238,     239,     311,     310
   20684,     239,     240,     312,     311
   20685,     240,     241,     313,     312
   20686,     241,     242,     314,     313
   20687,     242,     243,     315,     314
   20688,     243,     244,     316,     315
   20689,     244,     245,     317,     316
   20690,     245,     246,     318,     317
   20691,     246,     247,     319,     318
   20692,     247,     248,     320,     319
   20693,     248,     249,     321,     320
   20694,     249,     250,     322,     321
   20695,     250,     251,     323,     322
   20696,     251,     252,     324,     323
   20697,     252,     253,     325,     324
   20698,     253,     254,     326,     325
   20699,     254,     255,     327,     326
   20700,     255,     256,     328,     327
   20701,     256,     257,     329,     328
   20702,     257,     258,     330,     329
   20703,     258,     259,     331,     330
   20704,     259,     260,     332,     331
   20705,     260,     261,     333,     332
   20706,     261,     262,     334,     333
   20707,     262,     263,     335,     334
   20708,     263,     264,     336,     335
   20709,     264,     265,     337,     336
   20710,     265,     266,     338,     337
   20711,     266,     267,     339,     338
   20712,     267,     268,     340,     339
   20713,     268,     269,     341,     340
   20714,     269,     270,     342,     341
   20715,     270,     271,     343,     342
   20716,     271,     272,     344,     343
   20717,     272,     273,     345,     344
   20718,     273,     274,     346,     345
   20719,     274,     275,     347,     346
   20720,     275,     276,     348,     347
   20721,     276,     277,     349,     348
   20722,     277,     278,     350,     349
   20723,     278,     279,     351,     350
   20724,     279,     280,     352,     351
   20725,     280,     281,     353,     352
   20726,     281,     282,     354,     353
   20727,     282,     283,     355,     354
   20728,     283,     284,     356,     355
   20729,     284,     285,     357,     356
   20730,     285,     286,     358,     357
   20731,     286,     287,     359,     358
   20732,     287,     288,     360,     359
   20733,     289,     290,     362,     361
   20734,     290,     291,     363,     362
   20735,     291,     292,     364,     363
   20736,     292,     293,     365,     364
   20737,     293,     294,     366,     365
   20738,     294,     295,     367,     366
   20739,     295,     296,     368,     367
   20740,     296,     297,     369,     368
   20741,     297,     298,     370,     369
   20742,     298,     299,     371,     370
   20743,     299,     300,     372,     371
   20744,     300,     301,     373,     372
   20745,     301,     302,     374,     373
   20746,     302,     303,     375,     374
   20747,     303,     304,     376,     375
   20748,     304,     305,     377,     376
   20749,     305,     306,     378,     377
   20750,     306,     307,     379,     378
   20751,     307,     308,     380,     379
   20752,     308,     309,     381,     380
   20753,     309,     310,     382,     381
   20754,     310,     311,     383,     382
   20755,     311,     312,     384,     383
   20756,     312,     313,     385,     384
   20757,     313,     314,     386,     385
   20758,     314,     315,     387,     386
   20759,     315,     316,     388,     387
   20760,     316,     317,     389,     388
   20761,     317,     318,     390,     389
   20762,     318,     319,     391,     390
   20763,     319,     320,     392,     391
   20764,     320,     321,     393,     392
   20765,     321,     322,     394,     393
   20766,     322,     323,     395,     394
   20767,     323,     324,     396,     395
   20768,     324,     325,     397,     396
   20769,     325,     326,     398,     397
   20770,     326,     327,     399,     398
   20771,     327,     328,     400,     399
   20772,     328,     329,     401,     400
   20773,     329,     330,     402,     401
   20774,     330,     331,     403,     402
   20775,     331,     332,     404,     403
   20776,     332,     333,     405,     404
   20777,     333,     334,     406,     405
   20778,     334,     335,     407,     406
   20779,     335,     336,     408,     407
   20780,     336,     337,     409,     408
   20781,     337,     338,     410,     409
   20782,     338,     339,     411,     410
   20783,     339,     340,     412,     411
   20784,     340,     341,     413,     412
   20785,     341,     342,     414,     413
   20786,     342,     343,     415,     414
   20787,     343,     344,     416,     415
   20788,     344,     345,     417,     416
   20789,     345,     346,     418,     417
   20790,     346,     347,     419,     418
   20791,     347,     348,     420,     419
   20792,     348,     349,     421,     420
   20793,     349,     350,     422,     421
   20794,     350,     351,     423,     422
   20795,     351,     352,     424,     423
   20796,     352,     353,     425,     424
   20797,     353,     354,     426,     425
   20798,     354,     355,     427,     426
   20799,     355,     356,     428,     427
   20800,     356,     357,     429,     428
   20801,     357,     358,     430,     429
   20802,     358,     359,     431,     430
   20803,     359,     360,     432,     431
   20804,     361,     362,     434,     433
   20805,     362,     363,     435,     434
   20806,     363,     364,     436,     435
   20807,     364,     365,     437,     436
   20808,     365,     366,     438,     437
   20809,     366,     367,     439,     438
   20810,     367,     368,     440,     439
   20811,     368,     369,     441,     440
   20812,     369,     370,     442,     441
   20813,     370,     371,     443,     442
   20814,     371,     372,     444,     443
   20815,     372,     373,     445,     444
   20816,     373,     374,     446,     445
   20817,     374,     375,     447,     446
   20818,     375,     376,     448,     447
   20819,     376,     377,     449,     448
   20820,     377,     378,     450,     449
   20821,     378,     379,     451,     450
   20822,     379,     380,     452,     451
   20823,     380,     381,     453,     452
   20824,     381,     382,     454,     453
   20825,     382,     383,     455,     454
   20826,     383,     384,     456,     455
   20827,     384,     385,     457,     456
   20828,     385,     386,     458,     457
   20829,     386,     387,     459,     458
   20830,     387,     388,     460,     459
   20831,     388,     389,     461,     460
   20832,     389,     390,     462,     461
   20833,     390,     391,     463,     462
   20834,     391,     392,     464,     463
   20835,     392,     393,     465,     464
   20836,     393,     394,     466,     465
   20837,     394,     395,     467,     466
   20838,     395,     396,     468,     467
   20839,     396,     397,     469,     468
   20840,     397,     398,     470,     469
   20841,     398,     399,     471,     470
   20842,     399,     400,     472,     471
   20843,     400,     401,     473,     472
   20844,     401,     402,     474,     473
   20845,     402,     403,     475,     474
   20846,     403,     404,     476,     475
   20847,     404,     405,     477,     476
   20848,     405,     406,     478,     477
   20849,     406,     407,     479,     478
   20850,     407,     408,     480,     479
   20851,     408,     409,     481,     480
   20852,     409,     410,     482,     481
   20853,     410,     411,     483,     482
   20854,     411,     412,     484,     483
   20855,     412,     413,     485,     484
   20856,     413,     414,     486,     485
   20857,     414,     415,     487,     486
   20858,     415,     416,     488,     487
   20859,     416,     417,     489,     488
   20860,     417,     418,     490,     489
   20861,     418,     419,     491,     490
   20862,     419,     420,     492,     491
   20863,     420,     421,     493,     492
   20864,     421,     422,     494,     493
   20865,     422,     423,     495,     494
   20866,     423,     424,     496,     495
   20867,     424,     425,     497,     496
   20868,     425,     426,     498,     497
   20869,     426,     427,     499,     498
   20870,     427,     428,     500,     499
   20871,     428,     429,     501,     500
   20872,     429,     430,     502,     501
   20873,     430,     431,     503,     502
   20874,     431,     432,     504,     503
   20875,     433,     434,     506,     505
   20876,     434,     435,     507,     506
   20877,     435,     436,     508,     507
   20878,     436,     437,     509,     508
   20879,     437,     438,     510,     509
   20880,     438,     439,     511,     510
   20881,     439,     440,     512,     511
   20882,     440,     441,     513,     512
   20883,     441,     442,     514,     513
   20884,     442,     443,     515,     514
   20885,     443,     444,     516,     515
   20886,     444,     445,     517,     516
   20887,     445,     446,     518,     517
   20888,     446,     447,     519,     518
   20889,     447,     448,     520,     519
   20890,     448,     449,     521,     520
   20891,     449,     450,     522,     521
   20892,     450,     451,     523,     522
   20893,     451,     452,     524,     523
   20894,     452,     453,     525,     524
   20895,     453,     454,     526,     525
   20896,     454,     455,     527,     526
   20897,     455,     456,     528,     527
   20898,     456,     457,     529,     528
   20899,     457,     458,     530,     529
   20900,     458,     459,     531,     530
   20901,     459,     460,     532,     531
   20902,     460,     461,     533,     532
   20903,     461,     462,     534,     533
   20904,     462,     463,     535,     534
   20905,     463,     464,     536,     535
   20906,     464,     465,     537,     536
   20907,     465,     466,     538,     537
   20908,     466,     467,     539,     538
   20909,     467,     468,     540,     539
   20910,     468,     469,     541,     540
   20911,     469,     470,     542,     541
   20912,     470,     471,     543,     542
   20913,     471,     472,     544,     543
   20914,     472,     473,     545,     544
   20915,     473,     474,     546,     545
   20916,     474,     475,     547,     546
   20917,     475,     476,     548,     547
   20918,     476,     477,     549,     548
   20919,     477,     478,     550,     549
   20920,     478,     479,     551,     550
   20921,     479,     480,     552,     551
   20922,     480,     481,     553,     552
   20923,     481,     482,     554,     553
   20924,     482,     483,     555,     554
   20925,     483,     484,     556,     555
   20926,     484,     485,     557,     556
   20927,     485,     486,     558,     557
   20928,     486,     487,     559,     558
   20929,     487,     488,     560,     559
   20930,     488,     489,     561,     560
   20931,     489,     490,     562,     561
   20932,     490,     491,     563,     562
   20933,     491,     492,     564,     563
   20934,     492,     493,     565,     564
   20935,     493,     494,     566,     565
   20936,     494,     495,     567,     566
   20937,     495,     496,     568,     567
   20938,     496,     497,     569,     568
   20939,     497,     498,     570,     569
   20940,     498,     499,     571,     570
   20941,     499,     500,     572,     571
   20942,     500,     501,     573,     572
   20943,     501,     502,     574,     573
   20944,     502,     503,     575,     574
   20945,     503,     504,     576,     575
   20946,     505,     506,     578,     577
   20947,     506,     507,     579,     578
   20948,     507,     508,     580,     579
   20949,     508,     509,     581,     580
   20950,     509,     510,     582,     581
   20951,     510,     511,     583,     582
   20952,     511,     512,     584,     583
   20953,     512,     513,     585,     584
   20954,     513,     514,     586,     585
   20955,     514,     515,     587,     586
   20956,     515,     516,     588,     587
   20957,     516,     517,     589,     588
   20958,     517,     518,     590,     589
   20959,     518,     519,     591,     590
   20960,     519,     520,     592,     591
   20961,     520,     521,     593,     592
   20962,     521,     522,     594,     593
   20963,     522,     523,     595,     594
   20964,     523,     524,     596,     595
   20965,     524,     525,     597,     596
   20966,     525,     526,     598,     597
   20967,     526,     527,     599,     598
   20968,     527,     528,     600,     599
   20969,     528,     529,     601,     600
   20970,     529,     530,     602,     601
   20971,     530,     531,     603,     602
   20972,     531,     532,     604,     603
   20973,     532,     533,     605,     604
   20974,     533,     534,     606,     605
   20975,     534,     535,     607,     606
   20976,     535,     536,     608,     607
   20977,     536,     537,     609,     608
   20978,     537,     538,     610,     609
   20979,     538,     539,     611,     610
   20980,     539,     540,     612,     611
   20981,     540,     541,     613,     612
   20982,     541,     542,     614,     613
   20983,     542,     543,     615,     614
   20984,     543,     544,     616,     615
   20985,     544,     545,     617,     616
   20986,     545,     546,     618,     617
   20987,     546,     547,     619,     618
   20988,     547,     548,     620,     619
   20989,     548,     549,     621,     620
   20990,     549,     550,     622,     621
   20991,     550,     551,     623,     622
   20992,     551,     552,     624,     623
   20993,     552,     553,     625,     624
   20994,     553,     554,     626,     625
   20995,     554,     555,     627,     626
   20996,     555,     556,     628,     627
   20997,     556,     557,     629,     628
   20998,     557,     558,     630,     629
   20999,     558,     559,     631,     630
   21000,     559,     560,     632,     631
   21001,     560,     561,     633,     632
   21002,     561,     562,     634,     633
   21003,     562,     563,     635,     634
   21004,     563,     564,     636,     635
   21005,     564,     565,     637,     636
   21006,     565,     566,     638,     637
   21007,     566,     567,     639,     638
   21008,     567,     568,     640,     639
   21009,     568,     569,     641,     640
   21010,     569,     570,     642,     641
   21011,     570,     571,     643,     642
   21012,     571,     572,     644,     643
   21013,     572,     573,     645,     644
   21014,     573,     574,     646,     645
   21015,     574,     575,     647,     646
   21016,     575,     576,     648,     647
   21017,     577,     578,     650,     649
   21018,     578,     579,     651,     650
   21019,     579,     580,     652,     651
   21020,     580,     581,     653,     652
   21021,     581,     582,     654,     653
   21022,     582,     583,     655,     654
   21023,     583,     584,     656,     655
   21024,     584,     585,     657,     656
   21025,     585,     586,     658,     657
   21026,     586,     587,     659,     658
   21027,     587,     588,     660,     659
   21028,     588,     589,     661,     660
   21029,     589,     590,     662,     661
   21030,     590,     591,     663,     662
   21031,     591,     592,     664,     663
   21032,     592,     593,     665,     664
   21033,     593,     594,     666,     665
   21034,     594,     595,     667,     666
   21035,     595,     596,     668,     667
   21036,     596,     597,     669,     668
   21037,     597,     598,     670,     669
   21038,     598,     599,     671,     670
   21039,     599,     600,     672,     671
   21040,     600,     601,     673,     672
   21041,     601,     602,     674,     673
   21042,     602,     603,     675,     674
   21043,     603,     604,     676,     675
   21044,     604,     605,     677,     676
   21045,     605,     606,     678,     677
   21046,     606,     607,     679,     678
   21047,     607,     608,     680,     679
   21048,     608,     609,     681,     680
   21049,     609,     610,     682,     681
   21050,     610,     611,     683,     682
   21051,     611,     612,     684,     683
   21052,     612,     613,     685,     684
   21053,     613,     614,     686,     685
   21054,     614,     615,     687,     686
   21055,     615,     616,     688,     687
   21056,     616,     617,     689,     688
   21057,     617,     618,     690,     689
   21058,     618,     619,     691,     690
   21059,     619,     620,     692,     691
   21060,     620,     621,     693,     692
   21061,     621,     622,     694,     693
   21062,     622,     623,     695,     694
   21063,     623,     624,     696,     695
   21064,     624,     625,     697,     696
   21065,     625,     626,     698,     697
   21066,     626,     627,     699,     698
   21067,     627,     628,     700,     699
   21068,     628,     629,     701,     700
   21069,     629,     630,     702,     701
   21070,     630,     631,     703,     702
   21071,     631,     632,     704,     703
   21072,     632,     633,     705,     704
   21073,     633,     634,     706,     705
   21074,     634,     635,     707,     706
   21075,     635,     636,     708,     707
   21076,     636,     637,     709,     708
   21077,     637,     638,     710,     709
   21078,     638,     639,     711,     710
   21079,     639,     640,     712,     711
   21080,     640,     641,     713,     712
   21081,     641,     642,     714,     713
   21082,     642,     643,     715,     714
   21083,     643,     644,     716,     715
   21084,     644,     645,     717,     716
   21085,     645,     646,     718,     717
   21086,     646,     647,     719,     718
   21087,     647,     648,     720,     719
   21088,     649,     650,     722,     721
   21089,     650,     651,     723,     722
   21090,     651,     652,     724,     723
   21091,     652,     653,     725,     724
   21092,     653,     654,     726,     725
   21093,     654,     655,     727,     726
   21094,     655,     656,     728,     727
   21095,     656,     657,     729,     728
   21096,     657,     658,     730,     729
   21097,     658,     659,     731,     730
   21098,     659,     660,     732,     731
   21099,     660,     661,     733,     732
   21100,     661,     662,     734,     733
   21101,     662,     663,     735,     734
   21102,     663,     664,     736,     735
   21103,     664,     665,     737,     736
   21104,     665,     666,     738,     737
   21105,     666,     667,     739,     738
   21106,     667,     668,     740,     739
   21107,     668,     669,     741,     740
   21108,     669,     670,     742,     741
   21109,     670,     671,     743,     742
   21110,     671,     672,     744,     743
   21111,     672,     673,     745,     744
   21112,     673,     674,     746,     745
   21113,     674,     675,     747,     746
   21114,     675,     676,     748,     747
   21115,     676,     677,     749,     748
   21116,     677,     678,     750,     749
   21117,     678,     679,     751,     750
   21118,     679,     680,     752,     751
   21119,     680,     681,     753,     752
   21120,     681,     682,     754,     753
   21121,     682,     683,     755,     754
   21122,     683,     684,     756,     755
   21123,     684,     685,     757,     756
   21124,     685,     686,     758,     757
   21125,     686,     687,     759,     758
   21126,     687,     688,     760,     759
   21127,     688,     689,     761,     760
   21128,     689,     690,     762,     761
   21129,     690,     691,     763,     762
   21130,     691,     692,     764,     763
   21131,     692,     693,     765,     764
   21132,     693,     694,     766,     765
   21133,     694,     695,     767,     766
   21134,     695,     696,     768,     767
   21135,     696,     697,     769,     768
   21136,     697,     698,     770,     769
   21137,     698,     699,     771,     770
   21138,     699,     700,     772,     771
   21139,     700,     701,     773,     772
   21140,     701,     702,     774,     773
   21141,     702,     703,     775,     774
   21142,     703,     704,     776,     775
   21143,     704,     705,     777,     776
   21144,     705,     706,     778,     777
   21145,     706,     707,     779,     778
   21146,     707,     708,     780,     779
   21147,     708,     709,     781,     780
   21148,     709,     710,     782,     781
   21149,     710,     711,     783,     782
   21150,     711,     712,     784,     783
   21151,     712,     713,     785,     784
   21152,     713,     714,     786,     785
   21153,     714,     715,     787,     786
   21154,     715,     716,     788,     787
   21155,     716,     717,     789,     788
   21156,     717,     718,     790,     789
   21157,     718,     719,     791,     790
   21158,     719,     720,     792,     791
   21159,     721,     722,     794,     793
   21160,     722,     723,     795,     794
   21161,     723,     724,     796,     795
   21162,     724,     725,     797,     796
   21163,     725,     726,     798,     797
   21164,     726,     727,     799,     798
   21165,     727,     728,     800,     799
   21166,     728,     729,     801,     800
   21167,     729,     730,     802,     801
   21168,     730,     731,     803,     802
   21169,     731,     732,     804,     803
   21170,     732,     733,     805,     804
   21171,     733,     734,     806,     805
   21172,     734,     735,     807,     806
   21173,     735,     736,     808,     807
   21174,     736,     737,     809,     808
   21175,     737,     738,     810,     809
   21176,     738,     739,     811,     810
   21177,     739,     740,     812,     811
   21178,     740,     741,     813,     812
   21179,     741,     742,     814,     813
   21180,     742,     743,     815,     814
   21181,     743,     744,     816,     815
   21182,     744,     745,     817,     816
   21183,     745,     746,     818,     817
   21184,     746,     747,     819,     818
   21185,     747,     748,     820,     819
   21186,     748,     749,     821,     820
   21187,     749,     750,     822,     821
   21188,     750,     751,     823,     822
   21189,     751,     752,     824,     823
   21190,     752,     753,     825,     824
   21191,     753,     754,     826,     825
   21192,     754,     755,     827,     826
   21193,     755,     756,     828,     827
   21194,     756,     757,     829,     828
   21195,     757,     758,     830,     829
   21196,     758,     759,     831,     830
   21197,     759,     760,     832,     831
   21198,     760,     761,     833,     832
   21199,     761,     762,     834,     833
   21200,     762,     763,     835,     834
   21201,     763,     764,     836,     835
   21202,     764,     765,     837,     836
   21203,     765,     766,     838,     837
   21204,     766,     767,     839,     838
   21205,     767,     768,     840,     839
   21206,     768,     769,     841,     840
   21207,     769,     770,     842,     841
   21208,     770,     771,     843,     842
   21209,     771,     772,     844,     843
   21210,     772,     773,     845,     844
   21211,     773,     774,     846,     845
   21212,     774,     775,     847,     846
   21213,     775,     776,     848,     847
   21214,     776,     777,     849,     848
   21215,     777,     778,     850,     849
   21216,     778,     779,     851,     850
   21217,     779,     780,     852,     851
   21218,     780,     781,     853,     852
   21219,     781,     782,     854,     853
   21220,     782,     783,     855,     854
   21221,     783,     784,     856,     855
   21222,     784,     785,     857,     856
   21223,     785,     786,     858,     857
   21224,     786,     787,     859,     858
   21225,     787,     788,     860,     859
   21226,     788,     789,     861,     860
   21227,     789,     790,     862,     861
   21228,     790,     791,     863,     862
   21229,     791,     792,     864,     863
   21230,     793,     794,     866,     865
   21231,     794,     795,     867,     866
   21232,     795,     796,     868,     867
   21233,     796,     797,     869,     868
   21234,     797,     798,     870,     869
   21235,     798,     799,     871,     870
   21236,     799,     800,     872,     871
   21237,     800,     801,     873,     872
   21238,     801,     802,     874,     873
   21239,     802,     803,     875,     874
   21240,     803,     804,     876,     875
   21241,     804,     805,     877,     876
   21242,     805,     806,     878,     877
   21243,     806,     807,     879,     878
   21244,     807,     808,     880,     879
   21245,     808,     809,     881,     880
   21246,     809,     810,     882,     881
   21247,     810,     811,     883,     882
   21248,     811,     812,     884,     883
   21249,     812,     813,     885,     884
   21250,     813,     814,     886,     885
   21251,     814,     815,     887,     886
   21252,     815,     816,     888,     887
   21253,     816,     817,     889,     888
   21254,     817,     818,     890,     889
   21255,     818,     819,     891,     890
   21256,     819,     820,     892,     891
   21257,     820,     821,     893,     892
   21258,     821,     822,     894,     893
   21259,     822,     823,     895,     894
   21260,     823,     824,     896,     895
   21261,     824,     825,     897,     896
   21262,     825,     826,     898,     897
   21263,     826,     827,     899,     898
   21264,     827,     828,     900,     899
   21265,     828,     829,     901,     900
   21266,     829,     830,     902,     901
   21267,     830,     831,     903,     902
   21268,     831,     832,     904,     903
   21269,     832,     833,     905,     904
   21270,     833,     834,     906,     905
   21271,     834,     835,     907,     906
   21272,     835,     836,     908,     907
   21273,     836,     837,     909,     908
   21274,     837,     838,     910,     909
   21275,     838,     839,     911,     910
   21276,     839,     840,     912,     911
   21277,     840,     841,     913,     912
   21278,     841,     842,     914,     913
   21279,     842,     843,     915,     914
   21280,     843,     844,     916,     915
   21281,     844,     845,     917,     916
   21282,     845,     846,     918,     917
   21283,     846,     847,     919,     918
   21284,     847,     848,     920,     919
   21285,     848,     849,     921,     920
   21286,     849,     850,     922,     921
   21287,     850,     851,     923,     922
   21288,     851,     852,     924,     923
   21289,     852,     853,     925,     924
   21290,     853,     854,     926,     925
   21291,     854,     855,     927,     926
   21292,     855,     856,     928,     927
   21293,     856,     857,     929,     928
   21294,     857,     858,     930,     929
   21295,     858,     859,     931,     930
   21296,     859,     860,     932,     931
   21297,     860,     861,     933,     932
   21298,     861,     862,     934,     933
   21299,     862,     863,     935,     934
   21300,     863,     864,     936,     935
   21301,     865,     866,     938,     937
   21302,     866,     867,     939,     938
   21303,     867,     868,     940,     939
   21304,     868,     869,     941,     940
   21305,     869,     870,     942,     941
   21306,     870,     871,     943,     942
   21307,     871,     872,     944,     943
   21308,     872,     873,     945,     944
   21309,     873,     874,     946,     945
   21310,     874,     875,     947,     946
   21311,     875,     876,     948,     947
   21312,     876,     877,     949,     948
   21313,     877,     878,     950,     949
   21314,     878,     879,     951,     950
   21315,     879,     880,     952,     951
   21316,     880,     881,     953,     952
   21317,     881,     882,     954,     953
   21318,     882,     883,     955,     954
   21319,     883,     884,     956,     955
   21320,     884,     885,     957,     956
   21321,     885,     886,     958,     957
   21322,     886,     887,     959,     958
   21323,     887,     888,     960,     959
   21324,     888,     889,     961,     960
   21325,     889,     890,     962,     961
   21326,     890,     891,     963,     962
   21327,     891,     892,     964,     963
   21328,     892,     893,     965,     964
   21329,     893,     894,     966,     965
   21330,     894,     895,     967,     966
   21331,     895,     896,     968,     967
   21332,     896,     897,     969,     968
   21333,     897,     898,     970,     969
   21334,     898,     899,     971,     970
   21335,     899,     900,     972,     971
   21336,     900,     901,     973,     972
   21337,     901,     902,     974,     973
   21338,     902,     903,     975,     974
   21339,     903,     904,     976,     975
   21340,     904,     905,     977,     976
   21341,     905,     906,     978,     977
   21342,     906,     907,     979,     978
   21343,     907,     908,     980,     979
   21344,     908,     909,     981,     980
   21345,     909,     910,     982,     981
   21346,     910,     911,     983,     982
   21347,     911,     912,     984,     983
   21348,     912,     913,     985,     984
   21349,     913,     914,     986,     985
   21350,     914,     915,     987,     986
   21351,     915,     916,     988,     987
   21352,     916,     917,     989,     988
   21353,     917,     918,     990,     989
   21354,     918,     919,     991,     990
   21355,     919,     920,     992,     991
   21356,     920,     921,     993,     992
   21357,     921,     922,     994,     993
   21358,     922,     923,     995,     994
   21359,     923,     924,     996,     995
   21360,     924,     925,     997,     996
   21361,     925,     926,     998,     997
   21362,     926,     927,     999,     998
   21363,     927,     928,    1000,     999
   21364,     928,     929,    1001,    1000
   21365,     929,     930,    1002,    1001
   21366,     930,     931,    1003,    1002
   21367,     931,     932,    1004,    1003
   21368,     932,     933,    1005,    1004
   21369,     933,     934,    1006,    1005
   21370,     934,     935,    1007,    1006
   21371,     935,     936,    1008,    1007
   21372,     937,     938,    1010,    1009
   21373,     938,     939,    1011,    1010
   21374,     939,     940,    1012,    1011
   21375,     940,     941,    1013,    1012
   21376,     941,     942,    1014,    1013
   21377,     942,     943,    1015,    1014
   21378,     943,     944,    1016,    1015
   21379,     944,     945,    1017,    1016
   21380,     945,     946,    1018,    1017
   21381,     946,     947,    1019,    1018
   21382,     947,     948,    1020,    1019
   21383,     948,     949,    1021,    1020
   21384,     949,     950,    1022,    1021
   21385,     950,     951,    1023,    1022
   21386,     951,     952,    1024,    1023
   21387,     952,     953,    1025,    1024
   21388,     953,     954,    1026,    1025
   21389,     954,     955,    1027,    1026
   21390,     955,     956,    1028,    1027
   21391,     956,     957,    1029,    1028
   21392,     957,     958,    1030,    1029
   21393,     958,     959,    1031,    1030
   21394,     959,     960,    1032,    1031
   21395,     960,     961,    1033,    1032
   21396,     961,     962,    1034,    1033
   21397,     962,     963,    1035,    1034
   21398,     963,     964,    1036,    1035
   21399,     964,     965,    1037,    1036
   21400,     965,     966,    1038,    1037
   21401,     966,     967,    1039,    1038
   21402,     967,     968,    1040,    1039
   21403,     968,     969,    1041,    1040
   21404,     969,     970,    1042,    1041
   21405,     970,     971,    1043,    1042
   21406,     971,     972,    1044,    1043
   21407,     972,     973,    1045,    1044
   21408,     973,     974,    1046,    1045
   21409,     974,     975,    1047,    1046
   21410,     975,     976,    1048,    1047
   21411,     976,     977,    1049,    1048
   21412,     977,     978,    1050,    1049
   21413,     978,     979,    1051,    1050
   21414,     979,     980,    1052,    1051
   21415,     980,     981,    1053,    1052
   21416,     981,     982,    1054,    1053
   21417,     982,     983,    1055,    1054
   21418,     983,     984,    1056,    1055
   21419,     984,     985,    1057,    1056
   21420,     985,     986,    1058,    1057
   21421,     986,     987,    1059,    1058
   21422,     987,     988,    1060,    1059
   21423,     988,     989,    1061,    1060
   21424,     989,     990,    1062,    1061
   21425,     990,     991,    1063,    1062
   21426,     991,     992,    1064,    1063
   21427,     992,     993,    1065,    1064
   21428,     993,     994,    1066,    1065
   21429,     994,     995,    1067,    1066
   21430,     995,     996,    1068,    1067
   21431,     996,     997,    1069,    1068
   21432,     997,     998,    1070,    1069
   21433,     998,     999,    1071,    1070
   21434,     999,    1000,    1072,    1071
   21435,    1000,    1001,    1073,    1072
   21436,    1001,    1002,    1074,    1073
   21437,    1002,    1003,    1075,    1074
   21438,    1003,    1004,    1076,    1075
   21439,    1004,    1005,    1077,    1076
   21440,    1005,    1006,    1078,    1077
   21441,    1006,    1007,    1079,    1078
   21442,    1007,    1008,    1080,    1079
   21443,    1009,    1010,    1082,    1081
   21444,    1010,    1011,    1083,    1082
   21445,    1011,    1012,    1084,    1083
   21446,    1012,    1013,    1085,    1084
   21447,    1013,    1014,    1086,    1085
   21448,    1014,    1015,    1087,    1086
   21449,    1015,    1016,    1088,    1087
   21450,    1016,    1017,    1089,    1088
   21451,    1017,    1018,    1090,    1089
   21452,    1018,    1019,    1091,    1090
   21453,    1019,    1020,    1092,    1091
   21454,    1020,    1021,    1093,    1092
   21455,    1021,    1022,    1094,    1093
   21456,    1022,    1023,    1095,    1094
   21457,    1023,    1024,    1096,    1095
   21458,    1024,    1025,    1097,    1096
   21459,    1025,    1026,    1098,    1097
   21460,    1026,    1027,    1099,    1098
   21461,    1027,    1028,    1100,    1099
   21462,    1028,    1029,    1101,    1100
   21463,    1029,    1030,    1102,    1101
   21464,    1030,    1031,    1103,    1102
   21465,    1031,    1032,    1104,    1103
   21466,    1032,    1033,    1105,    1104
   21467,    1033,    1034,    1106,    1105
   21468,    1034,    1035,    1107,    1106
   21469,    1035,    1036,    1108,    1107
   21470,    1036,    1037,    1109,    1108
   21471,    1037,    1038,    1110,    1109
   21472,    1038,    1039,    1111,    1110
   21473,    1039,    1040,    1112,    1111
   21474,    1040,    1041,    1113,    1112
   21475,    1041,    1042,    1114,    1113
   21476,    1042,    1043,    1115,    1114
   21477,    1043,    1044,    1116,    1115
   21478,    1044,    1045,    1117,    1116
   21479,    1045,    1046,    1118,    1117
   21480,    1046,    1047,    1119,    1118
   21481,    1047,    1048,    1120,    1119
   21482,    1048,    1049,    1121,    1120
   21483,    1049,    1050,    1122,    1121
   21484,    1050,    1051,    1123,    1122
   21485,    1051,    1052,    1124,    1123
   21486,    1052,    1053,    1125,    1124
   21487,    1053,    1054,    1126,    1125
   21488,    1054,    1055,    1127,    1126
   21489,    1055,    1056,    1128,    1127
   21490,    1056,    1057,    1129,    1128
   21491,    1057,    1058,    1130,    1129
   21492,    1058,    1059,    1131,    1130
   21493,    1059,    1060,    1132,    1131
   21494,    1060,    1061,    1133,    1132
   21495,    1061,    1062,    1134,    1133
   21496,    1062,    1063,    1135,    1134
   21497,    1063,    1064,    1136,    1135
   21498,    1064,    1065,    1137,    1136
   21499,    1065,    1066,    1138,    1137
   21500,    1066,    1067,    1139,    1138
   21501,    1067,    1068,    1140,    1139
   21502,    1068,    1069,    1141,    1140
   21503,    1069,    1070,    1142,    1141
   21504,    1070,    1071,    1143,    1142
   21505,    1071,    1072,    1144,    1143
   21506,    1072,    1073,    1145,    1144
   21507,    1073,    1074,    1146,    1145
   21508,    1074,    1075,    1147,    1146
   21509,    1075,    1076,    1148,    1147
   21510,    1076,    1077,    1149,    1148
   21511,    1077,    1078,    1150,    1149
   21512,    1078,    1079,    1151,    1150
   21513,    1079,    1080,    1152,    1151
   21514,    1081,    1082,    1154,    1153
   21515,    1082,    1083,    1155,    1154
   21516,    1083,    1084,    1156,    1155
   21517,    1084,    1085,    1157,    1156
   21518,    1085,    1086,    1158,    1157
   21519,    1086,    1087,    1159,    1158
   21520,    1087,    1088,    1160,    1159
   21521,    1088,    1089,    1161,    1160
   21522,    1089,    1090,    1162,    1161
   21523,    1090,    1091,    1163,    1162
   21524,    1091,    1092,    1164,    1163
   21525,    1092,    1093,    1165,    1164
   21526,    1093,    1094,    1166,    1165
   21527,    1094,    1095,    1167,    1166
   21528,    1095,    1096,    1168,    1167
   21529,    1096,    1097,    1169,    1168
   21530,    1097,    1098,    1170,    1169
   21531,    1098,    1099,    1171,    1170
   21532,    1099,    1100,    1172,    1171
   21533,    1100,    1101,    1173,    1172
   21534,    1101,    1102,    1174,    1173
   21535,    1102,    1103,    1175,    1174
   21536,    1103,    1104,    1176,    1175
   21537,    1104,    1105,    1177,    1176
   21538,    1105,    1106,    1178,    1177
   21539,    1106,    1107,    1179,    1178
   21540,    1107,    1108,    1180,    1179
   21541,    1108,    1109,    1181,    1180
   21542,    1109,    1110,    1182,    1181
   21543,    1110,    1111,    1183,    1182
   21544,    1111,    1112,    1184,    1183
   21545,    1112,    1113,    1185,    1184
   21546,    1113,    1114,    1186,    1185
   21547,    1114,    1115,    1187,    1186
   21548,    1115,    1116,    1188,    1187
   21549,    1116,    1117,    1189,    1188
   21550,    1117,    1118,    1190,    1189
   21551,    1118,    1119,    1191,    1190
   21552,    1119,    1120,    1192,    1191
   21553,    1120,    1121,    1193,    1192
   21554,    1121,    1122,    1194,    1193
   21555,    1122,    1123,    1195,    1194
   21556,    1123,    1124,    1196,    1195
   21557,    1124,    1125,    1197,    1196
   21558,    1125,    1126,    1198,    1197
   21559,    1126,    1127,    1199,    1198
   21560,    1127,    1128,    1200,    1199
   21561,    1128,    1129,    1201,    1200
   21562,    1129,    1130,    1202,    1201
   21563,    1130,    1131,    1203,    1202
   21564,    1131,    1132,    1204,    1203
   21565,    1132,    1133,    1205,    1204
   21566,    1133,    1134,    1206,    1205
   21567,    1134,    1135,    1207,    1206
   21568,    1135,    1136,    1208,    1207
   21569,    1136,    1137,    1209,    1208
   21570,    1137,    1138,    1210,    1209
   21571,    1138,    1139,    1211,    1210
   21572,    1139,    1140,    1212,    1211
   21573,    1140,    1141,    1213,    1212
   21574,    1141,    1142,    1214,    1213
   21575,    1142,    1143,    1215,    1214
   21576,    1143,    1144,    1216,    1215
   21577,    1144,    1145,    1217,    1216
   21578,    1145,    1146,    1218,    1217
   21579,    1146,    1147,    1219,    1218
   21580,    1147,    1148,    1220,    1219
   21581,    1148,    1149,    1221,    1220
   21582,    1149,    1150,    1222,    1221
   21583,    1150,    1151,    1223,    1222
   21584,    1151,    1152,    1224,    1223
   21585,    1153,    1154,    1226,    1225
   21586,    1154,    1155,    1227,    1226
   21587,    1155,    1156,    1228,    1227
   21588,    1156,    1157,    1229,    1228
   21589,    1157,    1158,    1230,    1229
   21590,    1158,    1159,    1231,    1230
   21591,    1159,    1160,    1232,    1231
   21592,    1160,    1161,    1233,    1232
   21593,    1161,    1162,    1234,    1233
   21594,    1162,    1163,    1235,    1234
   21595,    1163,    1164,    1236,    1235
   21596,    1164,    1165,    1237,    1236
   21597,    1165,    1166,    1238,    1237
   21598,    1166,    1167,    1239,    1238
   21599,    1167,    1168,    1240,    1239
   21600,    1168,    1169,    1241,    1240
   21601,    1169,    1170,    1242,    1241
   21602,    1170,    1171,    1243,    1242
   21603,    1171,    1172,    1244,    1243
   21604,    1172,    1173,    1245,    1244
   21605,    1173,    1174,    1246,    1245
   21606,    1174,    1175,    1247,    1246
   21607,    1175,    1176,    1248,    1247
   21608,    1176,    1177,    1249,    1248
   21609,    1177,    1178,    1250,    1249
   21610,    1178,    1179,    1251,    1250
   21611,    1179,    1180,    1252,    1251
   21612,    1180,    1181,    1253,    1252
   21613,    1181,    1182,    1254,    1253
   21614,    1182,    1183,    1255,    1254
   21615,    1183,    1184,    1256,    1255
   21616,    1184,    1185,    1257,    1256
   21617,    1185,    1186,    1258,    1257
   21618,    1186,    1187,    1259,    1258
   21619,    1187,    1188,    1260,    1259
   21620,    1188,    1189,    1261,    1260
   21621,    1189,    1190,    1262,    1261
   21622,    1190,    1191,    1263,    1262
   21623,    1191,    1192,    1264,    1263
   21624,    1192,    1193,    1265,    1264
   21625,    1193,    1194,    1266,    1265
   21626,    1194,    1195,    1267,    1266
   21627,    1195,    1196,    1268,    1267
   21628,    1196,    1197,    1269,    1268
   21629,    1197,    1198,    1270,    1269
   21630,    1198,    1199,    1271,    1270
   21631,    1199,    1200,    1272,    1271
   21632,    1200,    1201,    1273,    1272
   21633,    1201,    1202,    1274,    1273
   21634,    1202,    1203,    1275,    1274
   21635,    1203,    1204,    1276,    1275
   21636,    1204,    1205,    1277,    1276
   21637,    1205,    1206,    1278,    1277
   21638,    1206,    1207,    1279,    1278
   21639,    1207,    1208,    1280,    1279
   21640,    1208,    1209,    1281,    1280
   21641,    1209,    1210,    1282,    1281
   21642,    1210,    1211,    1283,    1282
   21643,    1211,    1212,    1284,    1283
   21644,    1212,    1213,    1285,    1284
   21645,    1213,    1214,    1286,    1285
   21646,    1214,    1215,    1287,    1286
   21647,    1215,    1216,    1288,    1287
   21648,    1216,    1217,    1289,    1288
   21649,    1217,    1218,    1290,    1289
   21650,    1218,    1219,    1291,    1290
   21651,    1219,    1220,    1292,    1291
   21652,    1220,    1221,    1293,    1292
   21653,    1221,    1222,    1294,    1293
   21654,    1222,    1223,    1295,    1294
   21655,    1223,    1224,    1296,    1295
   21656,    1225,    1226,    1298,    1297
   21657,    1226,    1227,    1299,    1298
   21658,    1227,    1228,    1300,    1299
   21659,    1228,    1229,    1301,    1300
   21660,    1229,    1230,    1302,    1301
   21661,    1230,    1231,    1303,    1302
   21662,    1231,    1232,    1304,    1303
   21663,    1232,    1233,    1305,    1304
   21664,    1233,    1234,    1306,    1305
   21665,    1234,    1235,    1307,    1306
   21666,    1235,    1236,    1308,    1307
   21667,    1236,    1237,    1309,    1308
   21668,    1237,    1238,    1310,    1309
   21669,    1238,    1239,    1311,    1310
   21670,    1239,    1240,    1312,    1311
   21671,    1240,    1241,    1313,    1312
   21672,    1241,    1242,    1314,    1313
   21673,    1242,    1243,    1315,    1314
   21674,    1243,    1244,    1316,    1315
   21675,    1244,    1245,    1317,    1316
   21676,    1245,    1246,    1318,    1317
   21677,    1246,    1247,    1319,    1318
   21678,    1247,    1248,    1320,    1319
   21679,    1248,    1249,    1321,    1320
   21680,    1249,    1250,    1322,    1321
   21681,    1250,    1251,    1323,    1322
   21682,    1251,    1252,    1324,    1323
   21683,    1252,    1253,    1325,    1324
   21684,    1253,    1254,    1326,    1325
   21685,    1254,    1255,    1327,    1326
   21686,    1255,    1256,    1328,    1327
   21687,    1256,    1257,    1329,    1328
   21688,    1257,    1258,    1330,    1329
   21689,    1258,    1259,    1331,    1330
   21690,    1259,    1260,    1332,    1331
   21691,    1260,    1261,    1333,    1332
   21692,    1261,    1262,    1334,    1333
   21693,    1262,    1263,    1335,    1334
   21694,    1263,    1264,    1336,    1335
   21695,    1264,    1265,    1337,    1336
   21696,    1265,    1266,    1338,    1337
   21697,    1266,    1267,    1339,    1338
   21698,    1267,    1268,    1340,    1339
   21699,    1268,    1269,    1341,    1340
   21700,    1269,    1270,    1342,    1341
   21701,    1270,    1271,    1343,    1342
   21702,    1271,    1272,    1344,    1343
   21703,    1272,    1273,    1345,    1344
   21704,    1273,    1274,    1346,    1345
   21705,    1274,    1275,    1347,    1346
   21706,    1275,    1276,    1348,    1347
   21707,    1276,    1277,    1349,    1348
   21708,    1277,    1278,    1350,    1349
   21709,    1278,    1279,    1351,    1350
   21710,    1279,    1280,    1352,    1351
   21711,    1280,    1281,    1353,    1352
   21712,    1281,    1282,    1354,    1353
   21713,    1282,    1283,    1355,    1354
   21714,    1283,    1284,    1356,    1355
   21715,    1284,    1285,    1357,    1356
   21716,    1285,    1286,    1358,    1357
   21717,    1286,    1287,    1359,    1358
   21718,    1287,    1288,    1360,    1359
   21719,    1288,    1289,    1361,    1360
   21720,    1289,    1290,    1362,    1361
   21721,    1290,    1291,    1363,    1362
   21722,    1291,    1292,    1364,    1363
   21723,    1292,    1293,    1365,    1364
   21724,    1293,    1294,    1366,    1365
   21725,    1294,    1295,    1367,    1366
   21726,    1295,    1296,    1368,    1367
   21727,    1297,    1298,    1370,    1369
   21728,    1298,    1299,    1371,    1370
   21729,    1299,    1300,    1372,    1371
   21730,    1300,    1301,    1373,    1372
   21731,    1301,    1302,    1374,    1373
   21732,    1302,    1303,    1375,    1374
   21733,    1303,    1304,    1376,    1375
   21734,    1304,    1305,    1377,    1376
   21735,    1305,    1306,    1378,    1377
   21736,    1306,    1307,    1379,    1378
   21737,    1307,    1308,    1380,    1379
   21738,    1308,    1309,    1381,    1380
   21739,    1309,    1310,    1382,    1381
   21740,    1310,    1311,    1383,    1382
   21741,    1311,    1312,    1384,    1383
   21742,    1312,    1313,    1385,    1384
   21743,    1313,    1314,    1386,    1385
   21744,    1314,    1315,    1387,    1386
   21745,    1315,    1316,    1388,    1387
   21746,    1316,    1317,    1389,    1388
   21747,    1317,    1318,    1390,    1389
   21748,    1318,    1319,    1391,    1390
   21749,    1319,    1320,    1392,    1391
   21750,    1320,    1321,    1393,    1392
   21751,    1321,    1322,    1394,    1393
   21752,    1322,    1323,    1395,    1394
   21753,    1323,    1324,    1396,    1395
   21754,    1324,    1325,    1397,    1396
   21755,    1325,    1326,    1398,    1397
   21756,    1326,    1327,    1399,    1398
   21757,    1327,    1328,    1400,    1399
   21758,    1328,    1329,    1401,    1400
   21759,    1329,    1330,    1402,    1401
   21760,    1330,    1331,    1403,    1402
   21761,    1331,    1332,    1404,    1403
   21762,    1332,    1333,    1405,    1404
   21763,    1333,    1334,    1406,    1405
   21764,    1334,    1335,    1407,    1406
   21765,    1335,    1336,    1408,    1407
   21766,    1336,    1337,    1409,    1408
   21767,    1337,    1338,    1410,    1409
   21768,    1338,    1339,    1411,    1410
   21769,    1339,    1340,    1412,    1411
   21770,    1340,    1341,    1413,    1412
   21771,    1341,    1342,    1414,    1413
   21772,    1342,    1343,    1415,    1414
   21773,    1343,    1344,    1416,    1415
   21774,    1344,    1345,    1417,    1416
   21775,    1345,    1346,    1418,    1417
   21776,    1346,    1347,    1419,    1418
   21777,    1347,    1348,    1420,    1419
   21778,    1348,    1349,    1421,    1420
   21779,    1349,    1350,    1422,    1421
   21780,    1350,    1351,    1423,    1422
   21781,    1351,    1352,    1424,    1423
   21782,    1352,    1353,    1425,    1424
   21783,    1353,    1354,    1426,    1425
   21784,    1354,    1355,    1427,    1426
   21785,    1355,    1356,    1428,    1427
   21786,    1356,    1357,    1429,    1428
   21787,    1357,    1358,    1430,    1429
   21788,    1358,    1359,    1431,    1430
   21789,    1359,    1360,    1432,    1431
   21790,    1360,    1361,    1433,    1432
   21791,    1361,    1362,    1434,    1433
   21792,    1362,    1363,    1435,    1434
   21793,    1363,    1364,    1436,    1435
   21794,    1364,    1365,    1437,    1436
   21795,    1365,    1366,    1438,    1437
   21796,    1366,    1367,    1439,    1438
   21797,    1367,    1368,    1440,    1439
   21798,    1369,    1370,    1442,    1441
   21799,    1370,    1371,    1443,    1442
   21800,    1371,    1372,    1444,    1443
   21801,    1372,    1373,    1445,    1444
   21802,    1373,    1374,    1446,    1445
   21803,    1374,    1375,    1447,    1446
   21804,    1375,    1376,    1448,    1447
   21805,    1376,    1377,    1449,    1448
   21806,    1377,    1378,    1450,    1449
   21807,    1378,    1379,    1451,    1450
   21808,    1379,    1380,    1452,    1451
   21809,    1380,    1381,    1453,    1452
   21810,    1381,    1382,    1454,    1453
   21811,    1382,    1383,    1455,    1454
   21812,    1383,    1384,    1456,    1455
   21813,    1384,    1385,    1457,    1456
   21814,    1385,    1386,    1458,    1457
   21815,    1386,    1387,    1459,    1458
   21816,    1387,    1388,    1460,    1459
   21817,    1388,    1389,    1461,    1460
   21818,    1389,    1390,    1462,    1461
   21819,    1390,    1391,    1463,    1462
   21820,    1391,    1392,    1464,    1463
   21821,    1392,    1393,    1465,    1464
   21822,    1393,    1394,    1466,    1465
   21823,    1394,    1395,    1467,    1466
   21824,    1395,    1396,    1468,    1467
   21825,    1396,    1397,    1469,    1468
   21826,    1397,    1398,    1470,    1469
   21827,    1398,    1399,    1471,    1470
   21828,    1399,    1400,    1472,    1471
   21829,    1400,    1401,    1473,    1472
   21830,    1401,    1402,    1474,    1473
   21831,    1402,    1403,    1475,    1474
   21832,    1403,    1404,    1476,    1475
   21833,    1404,    1405,    1477,    1476
   21834,    1405,    1406,    1478,    1477
   21835,    1406,    1407,    1479,    1478
   21836,    1407,    1408,    1480,    1479
   21837,    1408,    1409,    1481,    1480
   21838,    1409,    1410,    1482,    1481
   21839,    1410,    1411,    1483,    1482
   21840,    1411,    1412,    1484,    1483
   21841,    1412,    1413,    1485,    1484
   21842,    1413,    1414,    1486,    1485
   21843,    1414,    1415,    1487,    1486
   21844,    1415,    1416,    1488,    1487
   21845,    1416,    1417,    1489,    1488
   21846,    1417,    1418,    1490,    1489
   21847,    1418,    1419,    1491,    1490
   21848,    1419,    1420,    1492,    1491
   21849,    1420,    1421,    1493,    1492
   21850,    1421,    1422,    1494,    1493
   21851,    1422,    1423,    1495,    1494
   21852,    1423,    1424,    1496,    1495
   21853,    1424,    1425,    1497,    1496
   21854,    1425,    1426,    1498,    1497
   21855,    1426,    1427,    1499,    1498
   21856,    1427,    1428,    1500,    1499
   21857,    1428,    1429,    1501,    1500
   21858,    1429,    1430,    1502,    1501
   21859,    1430,    1431,    1503,    1502
   21860,    1431,    1432,    1504,    1503
   21861,    1432,    1433,    1505,    1504
   21862,    1433,    1434,    1506,    1505
   21863,    1434,    1435,    1507,    1506
   21864,    1435,    1436,    1508,    1507
   21865,    1436,    1437,    1509,    1508
   21866,    1437,    1438,    1510,    1509
   21867,    1438,    1439,    1511,    1510
   21868,    1439,    1440,    1512,    1511
   21869,    1441,    1442,    1514,    1513
   21870,    1442,    1443,    1515,    1514
   21871,    1443,    1444,    1516,    1515
   21872,    1444,    1445,    1517,    1516
   21873,    1445,    1446,    1518,    1517
   21874,    1446,    1447,    1519,    1518
   21875,    1447,    1448,    1520,    1519
   21876,    1448,    1449,    1521,    1520
   21877,    1449,    1450,    1522,    1521
   21878,    1450,    1451,    1523,    1522
   21879,    1451,    1452,    1524,    1523
   21880,    1452,    1453,    1525,    1524
   21881,    1453,    1454,    1526,    1525
   21882,    1454,    1455,    1527,    1526
   21883,    1455,    1456,    1528,    1527
   21884,    1456,    1457,    1529,    1528
   21885,    1457,    1458,    1530,    1529
   21886,    1458,    1459,    1531,    1530
   21887,    1459,    1460,    1532,    1531
   21888,    1460,    1461,    1533,    1532
   21889,    1461,    1462,    1534,    1533
   21890,    1462,    1463,    1535,    1534
   21891,    1463,    1464,    1536,    1535
   21892,    1464,    1465,    1537,    1536
   21893,    1465,    1466,    1538,    1537
   21894,    1466,    1467,    1539,    1538
   21895,    1467,    1468,    1540,    1539
   21896,    1468,    1469,    1541,    1540
   21897,    1469,    1470,    1542,    1541
   21898,    1470,    1471,    1543,    1542
   21899,    1471,    1472,    1544,    1543
   21900,    1472,    1473,    1545,    1544
   21901,    1473,    1474,    1546,    1545
   21902,    1474,    1475,    1547,    1546
   21903,    1475,    1476,    1548,    1547
   21904,    1476,    1477,    1549,    1548
   21905,    1477,    1478,    1550,    1549
   21906,    1478,    1479,    1551,    1550
   21907,    1479,    1480,    1552,    1551
   21908,    1480,    1481,    1553,    1552
   21909,    1481,    1482,    1554,    1553
   21910,    1482,    1483,    1555,    1554
   21911,    1483,    1484,    1556,    1555
   21912,    1484,    1485,    1557,    1556
   21913,    1485,    1486,    1558,    1557
   21914,    1486,    1487,    1559,    1558
   21915,    1487,    1488,    1560,    1559
   21916,    1488,    1489,    1561,    1560
   21917,    1489,    1490,    1562,    1561
   21918,    1490,    1491,    1563,    1562
   21919,    1491,    1492,    1564,    1563
   21920,    1492,    1493,    1565,    1564
   21921,    1493,    1494,    1566,    1565
   21922,    1494,    1495,    1567,    1566
   21923,    1495,    1496,    1568,    1567
   21924,    1496,    1497,    1569,    1568
   21925,    1497,    1498,    1570,    1569
   21926,    1498,    1499,    1571,    1570
   21927,    1499,    1500,    1572,    1571
   21928,    1500,    1501,    1573,    1572
   21929,    1501,    1502,    1574,    1573
   21930,    1502,    1503,    1575,    1574
   21931,    1503,    1504,    1576,    1575
   21932,    1504,    1505,    1577,    1576
   21933,    1505,    1506,    1578,    1577
   21934,    1506,    1507,    1579,    1578
   21935,    1507,    1508,    1580,    1579
   21936,    1508,    1509,    1581,    1580
   21937,    1509,    1510,    1582,    1581
   21938,    1510,    1511,    1583,    1582
   21939,    1511,    1512,    1584,    1583
   21940,    1513,    1514,    1586,    1585
   21941,    1514,    1515,    1587,    1586
   21942,    1515,    1516,    1588,    1587
   21943,    1516,    1517,    1589,    1588
   21944,    1517,    1518,    1590,    1589
   21945,    1518,    1519,    1591,    1590
   21946,    1519,    1520,    1592,    1591
   21947,    1520,    1521,    1593,    1592
   21948,    1521,    1522,    1594,    1593
   21949,    1522,    1523,    1595,    1594
   21950,    1523,    1524,    1596,    1595
   21951,    1524,    1525,    1597,    1596
   21952,    1525,    1526,    1598,    1597
   21953,    1526,    1527,    1599,    1598
   21954,    1527,    1528,    1600,    1599
   21955,    1528,    1529,    1601,    1600
   21956,    1529,    1530,    1602,    1601
   21957,    1530,    1531,    1603,    1602
   21958,    1531,    1532,    1604,    1603
   21959,    1532,    1533,    1605,    1604
   21960,    1533,    1534,    1606,    1605
   21961,    1534,    1535,    1607,    1606
   21962,    1535,    1536,    1608,    1607
   21963,    1536,    1537,    1609,    1608
   21964,    1537,    1538,    1610,    1609
   21965,    1538,    1539,    1611,    1610
   21966,    1539,    1540,    1612,    1611
   21967,    1540,    1541,    1613,    1612
   21968,    1541,    1542,    1614,    1613
   21969,    1542,    1543,    1615,    1614
   21970,    1543,    1544,    1616,    1615
   21971,    1544,    1545,    1617,    1616
   21972,    1545,    1546,    1618,    1617
   21973,    1546,    1547,    1619,    1618
   21974,    1547,    1548,    1620,    1619
   21975,    1548,    1549,    1621,    1620
   21976,    1549,    1550,    1622,    1621
   21977,    1550,    1551,    1623,    1622
   21978,    1551,    1552,    1624,    1623
   21979,    1552,    1553,    1625,    1624
   21980,    1553,    1554,    1626,    1625
   21981,    1554,    1555,    1627,    1626
   21982,    1555,    1556,    1628,    1627
   21983,    1556,    1557,    1629,    1628
   21984,    1557,    1558,    1630,    1629
   21985,    1558,    1559,    1631,    1630
   21986,    1559,    1560,    1632,    1631
   21987,    1560,    1561,    1633,    1632
   21988,    1561,    1562,    1634,    1633
   21989,    1562,    1563,    1635,    1634
   21990,    1563,    1564,    1636,    1635
   21991,    1564,    1565,    1637,    1636
   21992,    1565,    1566,    1638,    1637
   21993,    1566,    1567,    1639,    1638
   21994,    1567,    1568,    1640,    1639
   21995,    1568,    1569,    1641,    1640
   21996,    1569,    1570,    1642,    1641
   21997,    1570,    1571,    1643,    1642
   21998,    1571,    1572,    1644,    1643
   21999,    1572,    1573,    1645,    1644
   22000,    1573,    1574,    1646,    1645
   22001,    1574,    1575,    1647,    1646
   22002,    1575,    1576,    1648,    1647
   22003,    1576,    1577,    1649,    1648
   22004,    1577,    1578,    1650,    1649
   22005,    1578,    1579,    1651,    1650
   22006,    1579,    1580,    1652,    1651
   22007,    1580,    1581,    1653,    1652
   22008,    1581,    1582,    1654,    1653
   22009,    1582,    1583,    1655,    1654
   22010,    1583,    1584,    1656,    1655
   22011,    1585,    1586,    1658,    1657
   22012,    1586,    1587,    1659,    1658
   22013,    1587,    1588,    1660,    1659
   22014,    1588,    1589,    1661,    1660
   22015,    1589,    1590,    1662,    1661
   22016,    1590,    1591,    1663,    1662
   22017,    1591,    1592,    1664,    1663
   22018,    1592,    1593,    1665,    1664
   22019,    1593,    1594,    1666,    1665
   22020,    1594,    1595,    1667,    1666
   22021,    1595,    1596,    1668,    1667
   22022,    1596,    1597,    1669,    1668
   22023,    1597,    1598,    1670,    1669
   22024,    1598,    1599,    1671,    1670
   22025,    1599,    1600,    1672,    1671
   22026,    1600,    1601,    1673,    1672
   22027,    1601,    1602,    1674,    1673
   22028,    1602,    1603,    1675,    1674
   22029,    1603,    1604,    1676,    1675
   22030,    1604,    1605,    1677,    1676
   22031,    1605,    1606,    1678,    1677
   22032,    1606,    1607,    1679,    1678
   22033,    1607,    1608,    1680,    1679
   22034,    1608,    1609,    1681,    1680
   22035,    1609,    1610,    1682,    1681
   22036,    1610,    1611,    1683,    1682
   22037,    1611,    1612,    1684,    1683
   22038,    1612,    1613,    1685,    1684
   22039,    1613,    1614,    1686,    1685
   22040,    1614,    1615,    1687,    1686
   22041,    1615,    1616,    1688,    1687
   22042,    1616,    1617,    1689,    1688
   22043,    1617,    1618,    1690,    1689
   22044,    1618,    1619,    1691,    1690
   22045,    1619,    1620,    1692,    1691
   22046,    1620,    1621,    1693,    1692
   22047,    1621,    1622,    1694,    1693
   22048,    1622,    1623,    1695,    1694
   22049,    1623,    1624,    1696,    1695
   22050,    1624,    1625,    1697,    1696
   22051,    1625,    1626,    1698,    1697
   22052,    1626,    1627,    1699,    1698
   22053,    1627,    1628,    1700,    1699
   22054,    1628,    1629,    1701,    1700
   22055,    1629,    1630,    1702,    1701
   22056,    1630,    1631,    1703,    1702
   22057,    1631,    1632,    1704,    1703
   22058,    1632,    1633,    1705,    1704
   22059,    1633,    1634,    1706,    1705
   22060,    1634,    1635,    1707,    1706
   22061,    1635,    1636,    1708,    1707
   22062,    1636,    1637,    1709,    1708
   22063,    1637,    1638,    1710,    1709
   22064,    1638,    1639,    1711,    1710
   22065,    1639,    1640,    1712,    1711
   22066,    1640,    1641,    1713,    1712
   22067,    1641,    1642,    1714,    1713
   22068,    1642,    1643,    1715,    1714
   22069,    1643,    1644,    1716,    1715
   22070,    1644,    1645,    1717,    1716
   22071,    1645,    1646,    1718,    1717
   22072,    1646,    1647,    1719,    1718
   22073,    1647,    1648,    1720,    1719
   22074,    1648,    1649,    1721,    1720
   22075,    1649,    1650,    1722,    1721
   22076,    1650,    1651,    1723,    1722
   22077,    1651,    1652,    1724,    1723
   22078,    1652,    1653,    1725,    1724
   22079,    1653,    1654,    1726,    1725
   22080,    1654,    1655,    1727,    1726
   22081,    1655,    1656,    1728,    1727
   22082,    1657,    1658,    1730,    1729
   22083,    1658,    1659,    1731,    1730
   22084,    1659,    1660,    1732,    1731
   22085,    1660,    1661,    1733,    1732
   22086,    1661,    1662,    1734,    1733
   22087,    1662,    1663,    1735,    1734
   22088,    1663,    1664,    1736,    1735
   22089,    1664,    1665,    1737,    1736
   22090,    1665,    1666,    1738,    1737
   22091,    1666,    1667,    1739,    1738
   22092,    1667,    1668,    1740,    1739
   22093,    1668,    1669,    1741,    1740
   22094,    1669,    1670,    1742,    1741
   22095,    1670,    1671,    1743,    1742
   22096,    1671,    1672,    1744,    1743
   22097,    1672,    1673,    1745,    1744
   22098,    1673,    1674,    1746,    1745
   22099,    1674,    1675,    1747,    1746
   22100,    1675,    1676,    1748,    1747
   22101,    1676,    1677,    1749,    1748
   22102,    1677,    1678,    1750,    1749
   22103,    1678,    1679,    1751,    1750
   22104,    1679,    1680,    1752,    1751
   22105,    1680,    1681,    1753,    1752
   22106,    1681,    1682,    1754,    1753
   22107,    1682,    1683,    1755,    1754
   22108,    1683,    1684,    1756,    1755
   22109,    1684,    1685,    1757,    1756
   22110,    1685,    1686,    1758,    1757
   22111,    1686,    1687,    1759,    1758
   22112,    1687,    1688,    1760,    1759
   22113,    1688,    1689,    1761,    1760
   22114,    1689,    1690,    1762,    1761
   22115,    1690,    1691,    1763,    1762
   22116,    1691,    1692,    1764,    1763
   22117,    1692,    1693,    1765,    1764
   22118,    1693,    1694,    1766,    1765
   22119,    1694,    1695,    1767,    1766
   22120,    1695,    1696,    1768,    1767
   22121,    1696,    1697,    1769,    1768
   22122,    1697,    1698,    1770,    1769
   22123,    1698,    1699,    1771,    1770
   22124,    1699,    1700,    1772,    1771
   22125,    1700,    1701,    1773,    1772
   22126,    1701,    1702,    1774,    1773
   22127,    1702,    1703,    1775,    1774
   22128,    1703,    1704,    1776,    1775
   22129,    1704,    1705,    1777,    1776
   22130,    1705,    1706,    1778,    1777
   22131,    1706,    1707,    1779,    1778
   22132,    1707,    1708,    1780,    1779
   22133,    1708,    1709,    1781,    1780
   22134,    1709,    1710,    1782,    1781
   22135,    1710,    1711,    1783,    1782
   22136,    1711,    1712,    1784,    1783
   22137,    1712,    1713,    1785,    1784
   22138,    1713,    1714,    1786,    1785
   22139,    1714,    1715,    1787,    1786
   22140,    1715,    1716,    1788,    1787
   22141,    1716,    1717,    1789,    1788
   22142,    1717,    1718,    1790,    1789
   22143,    1718,    1719,    1791,    1790
   22144,    1719,    1720,    1792,    1791
   22145,    1720,    1721,    1793,    1792
   22146,    1721,    1722,    1794,    1793
   22147,    1722,    1723,    1795,    1794
   22148,    1723,    1724,    1796,    1795
   22149,    1724,    1725,    1797,    1796
   22150,    1725,    1726,    1798,    1797
   22151,    1726,    1727,    1799,    1798
   22152,    1727,    1728,    1800,    1799
   22153,    1729,    1730,    1802,    1801
   22154,    1730,    1731,    1803,    1802
   22155,    1731,    1732,    1804,    1803
   22156,    1732,    1733,    1805,    1804
   22157,    1733,    1734,    1806,    1805
   22158,    1734,    1735,    1807,    1806
   22159,    1735,    1736,    1808,    1807
   22160,    1736,    1737,    1809,    1808
   22161,    1737,    1738,    1810,    1809
   22162,    1738,    1739,    1811,    1810
   22163,    1739,    1740,    1812,    1811
   22164,    1740,    1741,    1813,    1812
   22165,    1741,    1742,    1814,    1813
   22166,    1742,    1743,    1815,    1814
   22167,    1743,    1744,    1816,    1815
   22168,    1744,    1745,    1817,    1816
   22169,    1745,    1746,    1818,    1817
   22170,    1746,    1747,    1819,    1818
   22171,    1747,    1748,    1820,    1819
   22172,    1748,    1749,    1821,    1820
   22173,    1749,    1750,    1822,    1821
   22174,    1750,    1751,    1823,    1822
   22175,    1751,    1752,    1824,    1823
   22176,    1752,    1753,    1825,    1824
   22177,    1753,    1754,    1826,    1825
   22178,    1754,    1755,    1827,    1826
   22179,    1755,    1756,    1828,    1827
   22180,    1756,    1757,    1829,    1828
   22181,    1757,    1758,    1830,    1829
   22182,    1758,    1759,    1831,    1830
   22183,    1759,    1760,    1832,    1831
   22184,    1760,    1761,    1833,    1832
   22185,    1761,    1762,    1834,    1833
   22186,    1762,    1763,    1835,    1834
   22187,    1763,    1764,    1836,    1835
   22188,    1764,    1765,    1837,    1836
   22189,    1765,    1766,    1838,    1837
   22190,    1766,    1767,    1839,    1838
   22191,    1767,    1768,    1840,    1839
   22192,    1768,    1769,    1841,    1840
   22193,    1769,    1770,    1842,    1841
   22194,    1770,    1771,    1843,    1842
   22195,    1771,    1772,    1844,    1843
   22196,    1772,    1773,    1845,    1844
   22197,    1773,    1774,    1846,    1845
   22198,    1774,    1775,    1847,    1846
   22199,    1775,    1776,    1848,    1847
   22200,    1776,    1777,    1849,    1848
   22201,    1777,    1778,    1850,    1849
   22202,    1778,    1779,    1851,    1850
   22203,    1779,    1780,    1852,    1851
   22204,    1780,    1781,    1853,    1852
   22205,    1781,    1782,    1854,    1853
   22206,    1782,    1783,    1855,    1854
   22207,    1783,    1784,    1856,    1855
   22208,    1784,    1785,    1857,    1856
   22209,    1785,    1786,    1858,    1857
   22210,    1786,    1787,    1859,    1858
   22211,    1787,    1788,    1860,    1859
   22212,    1788,    1789,    1861,    1860
   22213,    1789,    1790,    1862,    1861
   22214,    1790,    1791,    1863,    1862
   22215,    1791,    1792,    1864,    1863
   22216,    1792,    1793,    1865,    1864
   22217,    1793,    1794,    1866,    1865
   22218,    1794,    1795,    1867,    1866
   22219,    1795,    1796,    1868,    1867
   22220,    1796,    1797,    1869,    1868
   22221,    1797,    1798,    1870,    1869
   22222,    1798,    1799,    1871,    1870
   22223,    1799,    1800,    1872,    1871
   22224,    1801,    1802,    1874,    1873
   22225,    1802,    1803,    1875,    1874
   22226,    1803,    1804,    1876,    1875
   22227,    1804,    1805,    1877,    1876
   22228,    1805,    1806,    1878,    1877
   22229,    1806,    1807,    1879,    1878
   22230,    1807,    1808,    1880,    1879
   22231,    1808,    1809,    1881,    1880
   22232,    1809,    1810,    1882,    1881
   22233,    1810,    1811,    1883,    1882
   22234,    1811,    1812,    1884,    1883
   22235,    1812,    1813,    1885,    1884
   22236,    1813,    1814,    1886,    1885
   22237,    1814,    1815,    1887,    1886
   22238,    1815,    1816,    1888,    1887
   22239,    1816,    1817,    1889,    1888
   22240,    1817,    1818,    1890,    1889
   22241,    1818,    1819,    1891,    1890
   22242,    1819,    1820,    1892,    1891
   22243,    1820,    1821,    1893,    1892
   22244,    1821,    1822,    1894,    1893
   22245,    1822,    1823,    1895,    1894
   22246,    1823,    1824,    1896,    1895
   22247,    1824,    1825,    1897,    1896
   22248,    1825,    1826,    1898,    1897
   22249,    1826,    1827,    1899,    1898
   22250,    1827,    1828,    1900,    1899
   22251,    1828,    1829,    1901,    1900
   22252,    1829,    1830,    1902,    1901
   22253,    1830,    1831,    1903,    1902
   22254,    1831,    1832,    1904,    1903
   22255,    1832,    1833,    1905,    1904
   22256,    1833,    1834,    1906,    1905
   22257,    1834,    1835,    1907,    1906
   22258,    1835,    1836,    1908,    1907
   22259,    1836,    1837,    1909,    1908
   22260,    1837,    1838,    1910,    1909
   22261,    1838,    1839,    1911,    1910
   22262,    1839,    1840,    1912,    1911
   22263,    1840,    1841,    1913,    1912
   22264,    1841,    1842,    1914,    1913
   22265,    1842,    1843,    1915,    1914
   22266,    1843,    1844,    1916,    1915
   22267,    1844,    1845,    1917,    1916
   22268,    1845,    1846,    1918,    1917
   22269,    1846,    1847,    1919,    1918
   22270,    1847,    1848,    1920,    1919
   22271,    1848,    1849,    1921,    1920
   22272,    1849,    1850,    1922,    1921
   22273,    1850,    1851,    1923,    1922
   22274,    1851,    1852,    1924,    1923
   22275,    1852,    1853,    1925,    1924
   22276,    1853,    1854,    1926,    1925
   22277,    1854,    1855,    1927,    1926
   22278,    1855,    1856,    1928,    1927
   22279,    1856,    1857,    1929,    1928
   22280,    1857,    1858,    1930,    1929
   22281,    1858,    1859,    1931,    1930
   22282,    1859,    1860,    1932,    1931
   22283,    1860,    1861,    1933,    1932
   22284,    1861,    1862,    1934,    1933
   22285,    1862,    1863,    1935,    1934
   22286,    1863,    1864,    1936,    1935
   22287,    1864,    1865,    1937,    1936
   22288,    1865,    1866,    1938,    1937
   22289,    1866,    1867,    1939,    1938
   22290,    1867,    1868,    1940,    1939
   22291,    1868,    1869,    1941,    1940
   22292,    1869,    1870,    1942,    1941
   22293,    1870,    1871,    1943,    1942
   22294,    1871,    1872,    1944,    1943
   22295,    1873,    1874,    1946,    1945
   22296,    1874,    1875,    1947,    1946
   22297,    1875,    1876,    1948,    1947
   22298,    1876,    1877,    1949,    1948
   22299,    1877,    1878,    1950,    1949
   22300,    1878,    1879,    1951,    1950
   22301,    1879,    1880,    1952,    1951
   22302,    1880,    1881,    1953,    1952
   22303,    1881,    1882,    1954,    1953
   22304,    1882,    1883,    1955,    1954
   22305,    1883,    1884,    1956,    1955
   22306,    1884,    1885,    1957,    1956
   22307,    1885,    1886,    1958,    1957
   22308,    1886,    1887,    1959,    1958
   22309,    1887,    1888,    1960,    1959
   22310,    1888,    1889,    1961,    1960
   22311,    1889,    1890,    1962,    1961
   22312,    1890,    1891,    1963,    1962
   22313,    1891,    1892,    1964,    1963
   22314,    1892,    1893,    1965,    1964
   22315,    1893,    1894,    1966,    1965
   22316,    1894,    1895,    1967,    1966
   22317,    1895,    1896,    1968,    1967
   22318,    1896,    1897,    1969,    1968
   22319,    1897,    1898,    1970,    1969
   22320,    1898,    1899,    1971,    1970
   22321,    1899,    1900,    1972,    1971
   22322,    1900,    1901,    1973,    1972
   22323,    1901,    1902,    1974,    1973
   22324,    1902,    1903,    1975,    1974
   22325,    1903,    1904,    1976,    1975
   22326,    1904,    1905,    1977,    1976
   22327,    1905,    1906,    1978,    1977
   22328,    1906,    1907,    1979,    1978
   22329,    1907,    1908,    1980,    1979
   22330,    1908,    1909,    1981,    1980
   22331,    1909,    1910,    1982,    1981
   22332,    1910,    1911,    1983,    1982
   22333,    1911,    1912,    1984,    1983
   22334,    1912,    1913,    1985,    1984
   22335,    1913,    1914,    1986,    1985
   22336,    1914,    1915,    1987,    1986
   22337,    1915,    1916,    1988,    1987
   22338,    1916,    1917,    1989,    1988
   22339,    1917,    1918,    1990,    1989
   22340,    1918,    1919,    1991,    1990
   22341,    1919,    1920,    1992,    1991
   22342,    1920,    1921,    1993,    1992
   22343,    1921,    1922,    1994,    1993
   22344,    1922,    1923,    1995,    1994
   22345,    1923,    1924,    1996,    1995
   22346,    1924,    1925,    1997,    1996
   22347,    1925,    1926,    1998,    1997
   22348,    1926,    1927,    1999,    1998
   22349,    1927,    1928,    2000,    1999
   22350,    1928,    1929,    2001,    2000
   22351,    1929,    1930,    2002,    2001
   22352,    1930,    1931,    2003,    2002
   22353,    1931,    1932,    2004,    2003
   22354,    1932,    1933,    2005,    2004
   22355,    1933,    1934,    2006,    2005
   22356,    1934,    1935,    2007,    2006
   22357,    1935,    1936,    2008,    2007
   22358,    1936,    1937,    2009,    2008
   22359,    1937,    1938,    2010,    2009
   22360,    1938,    1939,    2011,    2010
   22361,    1939,    1940,    2012,    2011
   22362,    1940,    1941,    2013,    2012
   22363,    1941,    1942,    2014,    2013
   22364,    1942,    1943,    2015,    2014
   22365,    1943,    1944,    2016,    2015
   22366,    1945,    1946,    2018,    2017
   22367,    1946,    1947,    2019,    2018
   22368,    1947,    1948,    2020,    2019
   22369,    1948,    1949,    2021,    2020
   22370,    1949,    1950,    2022,    2021
   22371,    1950,    1951,    2023,    2022
   22372,    1951,    1952,    2024,    2023
   22373,    1952,    1953,    2025,    2024
   22374,    1953,    1954,    2026,    2025
   22375,    1954,    1955,    2027,    2026
   22376,    1955,    1956,    2028,    2027
   22377,    1956,    1957,    2029,    2028
   22378,    1957,    1958,    2030,    2029
   22379,    1958,    1959,    2031,    2030
   22380,    1959,    1960,    2032,    2031
   22381,    1960,    1961,    2033,    2032
   22382,    1961,    1962,    2034,    2033
   22383,    1962,    1963,    2035,    2034
   22384,    1963,    1964,    2036,    2035
   22385,    1964,    1965,    2037,    2036
   22386,    1965,    1966,    2038,    2037
   22387,    1966,    1967,    2039,    2038
   22388,    1967,    1968,    2040,    2039
   22389,    1968,    1969,    2041,    2040
   22390,    1969,    1970,    2042,    2041
   22391,    1970,    1971,    2043,    2042
   22392,    1971,    1972,    2044,    2043
   22393,    1972,    1973,    2045,    2044
   22394,    1973,    1974,    2046,    2045
   22395,    1974,    1975,    2047,    2046
   22396,    1975,    1976,    2048,    2047
   22397,    1976,    1977,    2049,    2048
   22398,    1977,    1978,    2050,    2049
   22399,    1978,    1979,    2051,    2050
   22400,    1979,    1980,    2052,    2051
   22401,    1980,    1981,    2053,    2052
   22402,    1981,    1982,    2054,    2053
   22403,    1982,    1983,    2055,    2054
   22404,    1983,    1984,    2056,    2055
   22405,    1984,    1985,    2057,    2056
   22406,    1985,    1986,    2058,    2057
   22407,    1986,    1987,    2059,    2058
   22408,    1987,    1988,    2060,    2059
   22409,    1988,    1989,    2061,    2060
   22410,    1989,    1990,    2062,    2061
   22411,    1990,    1991,    2063,    2062
   22412,    1991,    1992,    2064,    2063
   22413,    1992,    1993,    2065,    2064
   22414,    1993,    1994,    2066,    2065
   22415,    1994,    1995,    2067,    2066
   22416,    1995,    1996,    2068,    2067
   22417,    1996,    1997,    2069,    2068
   22418,    1997,    1998,    2070,    2069
   22419,    1998,    1999,    2071,    2070
   22420,    1999,    2000,    2072,    2071
   22421,    2000,    2001,    2073,    2072
   22422,    2001,    2002,    2074,    2073
   22423,    2002,    2003,    2075,    2074
   22424,    2003,    2004,    2076,    2075
   22425,    2004,    2005,    2077,    2076
   22426,    2005,    2006,    2078,    2077
   22427,    2006,    2007,    2079,    2078
   22428,    2007,    2008,    2080,    2079
   22429,    2008,    2009,    2081,    2080
   22430,    2009,    2010,    2082,    2081
   22431,    2010,    2011,    2083,    2082
   22432,    2011,    2012,    2084,    2083
   22433,    2012,    2013,    2085,    2084
   22434,    2013,    2014,    2086,    2085
   22435,    2014,    2015,    2087,    2086
   22436,    2015,    2016,    2088,    2087
   22437,    2017,    2018,    2090,    2089
   22438,    2018,    2019,    2091,    2090
   22439,    2019,    2020,    2092,    2091
   22440,    2020,    2021,    2093,    2092
   22441,    2021,    2022,    2094,    2093
   22442,    2022,    2023,    2095,    2094
   22443,    2023,    2024,    2096,    2095
   22444,    2024,    2025,    2097,    2096
   22445,    2025,    2026,    2098,    2097
   22446,    2026,    2027,    2099,    2098
   22447,    2027,    2028,    2100,    2099
   22448,    2028,    2029,    2101,    2100
   22449,    2029,    2030,    2102,    2101
   22450,    2030,    2031,    2103,    2102
   22451,    2031,    2032,    2104,    2103
   22452,    2032,    2033,    2105,    2104
   22453,    2033,    2034,    2106,    2105
   22454,    2034,    2035,    2107,    2106
   22455,    2035,    2036,    2108,    2107
   22456,    2036,    2037,    2109,    2108
   22457,    2037,    2038,    2110,    2109
   22458,    2038,    2039,    2111,    2110
   22459,    2039,    2040,    2112,    2111
   22460,    2040,    2041,    2113,    2112
   22461,    2041,    2042,    2114,    2113
   22462,    2042,    2043,    2115,    2114
   22463,    2043,    2044,    2116,    2115
   22464,    2044,    2045,    2117,    2116
   22465,    2045,    2046,    2118,    2117
   22466,    2046,    2047,    2119,    2118
   22467,    2047,    2048,    2120,    2119
   22468,    2048,    2049,    2121,    2120
   22469,    2049,    2050,    2122,    2121
   22470,    2050,    2051,    2123,    2122
   22471,    2051,    2052,    2124,    2123
   22472,    2052,    2053,    2125,    2124
   22473,    2053,    2054,    2126,    2125
   22474,    2054,    2055,    2127,    2126
   22475,    2055,    2056,    2128,    2127
   22476,    2056,    2057,    2129,    2128
   22477,    2057,    2058,    2130,    2129
   22478,    2058,    2059,    2131,    2130
   22479,    2059,    2060,    2132,    2131
   22480,    2060,    2061,    2133,    2132
   22481,    2061,    2062,    2134,    2133
   22482,    2062,    2063,    2135,    2134
   22483,    2063,    2064,    2136,    2135
   22484,    2064,    2065,    2137,    2136
   22485,    2065,    2066,    2138,    2137
   22486,    2066,    2067,    2139,    2138
   22487,    2067,    2068,    2140,    2139
   22488,    2068,    2069,    2141,    2140
   22489,    2069,    2070,    2142,    2141
   22490,    2070,    2071,    2143,    2142
   22491,    2071,    2072,    2144,    2143
   22492,    2072,    2073,    2145,    2144
   22493,    2073,    2074,    2146,    2145
   22494,    2074,    2075,    2147,    2146
   22495,    2075,    2076,    2148,    2147
   22496,    2076,    2077,    2149,    2148
   22497,    2077,    2078,    2150,    2149
   22498,    2078,    2079,    2151,    2150
   22499,    2079,    2080,    2152,    2151
   22500,    2080,    2081,    2153,    2152
   22501,    2081,    2082,    2154,    2153
   22502,    2082,    2083,    2155,    2154
   22503,    2083,    2084,    2156,    2155
   22504,    2084,    2085,    2157,    2156
   22505,    2085,    2086,    2158,    2157
   22506,    2086,    2087,    2159,    2158
   22507,    2087,    2088,    2160,    2159
   22508,    2089,    2090,    2162,    2161
   22509,    2090,    2091,    2163,    2162
   22510,    2091,    2092,    2164,    2163
   22511,    2092,    2093,    2165,    2164
   22512,    2093,    2094,    2166,    2165
   22513,    2094,    2095,    2167,    2166
   22514,    2095,    2096,    2168,    2167
   22515,    2096,    2097,    2169,    2168
   22516,    2097,    2098,    2170,    2169
   22517,    2098,    2099,    2171,    2170
   22518,    2099,    2100,    2172,    2171
   22519,    2100,    2101,    2173,    2172
   22520,    2101,    2102,    2174,    2173
   22521,    2102,    2103,    2175,    2174
   22522,    2103,    2104,    2176,    2175
   22523,    2104,    2105,    2177,    2176
   22524,    2105,    2106,    2178,    2177
   22525,    2106,    2107,    2179,    2178
   22526,    2107,    2108,    2180,    2179
   22527,    2108,    2109,    2181,    2180
   22528,    2109,    2110,    2182,    2181
   22529,    2110,    2111,    2183,    2182
   22530,    2111,    2112,    2184,    2183
   22531,    2112,    2113,    2185,    2184
   22532,    2113,    2114,    2186,    2185
   22533,    2114,    2115,    2187,    2186
   22534,    2115,    2116,    2188,    2187
   22535,    2116,    2117,    2189,    2188
   22536,    2117,    2118,    2190,    2189
   22537,    2118,    2119,    2191,    2190
   22538,    2119,    2120,    2192,    2191
   22539,    2120,    2121,    2193,    2192
   22540,    2121,    2122,    2194,    2193
   22541,    2122,    2123,    2195,    2194
   22542,    2123,    2124,    2196,    2195
   22543,    2124,    2125,    2197,    2196
   22544,    2125,    2126,    2198,    2197
   22545,    2126,    2127,    2199,    2198
   22546,    2127,    2128,    2200,    2199
   22547,    2128,    2129,    2201,    2200
   22548,    2129,    2130,    2202,    2201
   22549,    2130,    2131,    2203,    2202
   22550,    2131,    2132,    2204,    2203
   22551,    2132,    2133,    2205,    2204
   22552,    2133,    2134,    2206,    2205
   22553,    2134,    2135,    2207,    2206
   22554,    2135,    2136,    2208,    2207
   22555,    2136,    2137,    2209,    2208
   22556,    2137,    2138,    2210,    2209
   22557,    2138,    2139,    2211,    2210
   22558,    2139,    2140,    2212,    2211
   22559,    2140,    2141,    2213,    2212
   22560,    2141,    2142,    2214,    2213
   22561,    2142,    2143,    2215,    2214
   22562,    2143,    2144,    2216,    2215
   22563,    2144,    2145,    2217,    2216
   22564,    2145,    2146,    2218,    2217
   22565,    2146,    2147,    2219,    2218
   22566,    2147,    2148,    2220,    2219
   22567,    2148,    2149,    2221,    2220
   22568,    2149,    2150,    2222,    2221
   22569,    2150,    2151,    2223,    2222
   22570,    2151,    2152,    2224,    2223
   22571,    2152,    2153,    2225,    2224
   22572,    2153,    2154,    2226,    2225
   22573,    2154,    2155,    2227,    2226
   22574,    2155,    2156,    2228,    2227
   22575,    2156,    2157,    2229,    2228
   22576,    2157,    2158,    2230,    2229
   22577,    2158,    2159,    2231,    2230
   22578,    2159,    2160,    2232,    2231
   22579,    2161,    2162,    2234,    2233
   22580,    2162,    2163,    2235,    2234
   22581,    2163,    2164,    2236,    2235
   22582,    2164,    2165,    2237,    2236
   22583,    2165,    2166,    2238,    2237
   22584,    2166,    2167,    2239,    2238
   22585,    2167,    2168,    2240,    2239
   22586,    2168,    2169,    2241,    2240
   22587,    2169,    2170,    2242,    2241
   22588,    2170,    2171,    2243,    2242
   22589,    2171,    2172,    2244,    2243
   22590,    2172,    2173,    2245,    2244
   22591,    2173,    2174,    2246,    2245
   22592,    2174,    2175,    2247,    2246
   22593,    2175,    2176,    2248,    2247
   22594,    2176,    2177,    2249,    2248
   22595,    2177,    2178,    2250,    2249
   22596,    2178,    2179,    2251,    2250
   22597,    2179,    2180,    2252,    2251
   22598,    2180,    2181,    2253,    2252
   22599,    2181,    2182,    2254,    2253
   22600,    2182,    2183,    2255,    2254
   22601,    2183,    2184,    2256,    2255
   22602,    2184,    2185,    2257,    2256
   22603,    2185,    2186,    2258,    2257
   22604,    2186,    2187,    2259,    2258
   22605,    2187,    2188,    2260,    2259
   22606,    2188,    2189,    2261,    2260
   22607,    2189,    2190,    2262,    2261
   22608,    2190,    2191,    2263,    2262
   22609,    2191,    2192,    2264,    2263
   22610,    2192,    2193,    2265,    2264
   22611,    2193,    2194,    2266,    2265
   22612,    2194,    2195,    2267,    2266
   22613,    2195,    2196,    2268,    2267
   22614,    2196,    2197,    2269,    2268
   22615,    2197,    2198,    2270,    2269
   22616,    2198,    2199,    2271,    2270
   22617,    2199,    2200,    2272,    2271
   22618,    2200,    2201,    2273,    2272
   22619,    2201,    2202,    2274,    2273
   22620,    2202,    2203,    2275,    2274
   22621,    2203,    2204,    2276,    2275
   22622,    2204,    2205,    2277,    2276
   22623,    2205,    2206,    2278,    2277
   22624,    2206,    2207,    2279,    2278
   22625,    2207,    2208,    2280,    2279
   22626,    2208,    2209,    2281,    2280
   22627,    2209,    2210,    2282,    2281
   22628,    2210,    2211,    2283,    2282
   22629,    2211,    2212,    2284,    2283
   22630,    2212,    2213,    2285,    2284
   22631,    2213,    2214,    2286,    2285
   22632,    2214,    2215,    2287,    2286
   22633,    2215,    2216,    2288,    2287
   22634,    2216,    2217,    2289,    2288
   22635,    2217,    2218,    2290,    2289
   22636,    2218,    2219,    2291,    2290
   22637,    2219,    2220,    2292,    2291
   22638,    2220,    2221,    2293,    2292
   22639,    2221,    2222,    2294,    2293
   22640,    2222,    2223,    2295,    2294
   22641,    2223,    2224,    2296,    2295
   22642,    2224,    2225,    2297,    2296
   22643,    2225,    2226,    2298,    2297
   22644,    2226,    2227,    2299,    2298
   22645,    2227,    2228,    2300,    2299
   22646,    2228,    2229,    2301,    2300
   22647,    2229,    2230,    2302,    2301
   22648,    2230,    2231,    2303,    2302
   22649,    2231,    2232,    2304,    2303
   22650,    2233,    2234,    2306,    2305
   22651,    2234,    2235,    2307,    2306
   22652,    2235,    2236,    2308,    2307
   22653,    2236,    2237,    2309,    2308
   22654,    2237,    2238,    2310,    2309
   22655,    2238,    2239,    2311,    2310
   22656,    2239,    2240,    2312,    2311
   22657,    2240,    2241,    2313,    2312
   22658,    2241,    2242,    2314,    2313
   22659,    2242,    2243,    2315,    2314
   22660,    2243,    2244,    2316,    2315
   22661,    2244,    2245,    2317,    2316
   22662,    2245,    2246,    2318,    2317
   22663,    2246,    2247,    2319,    2318
   22664,    2247,    2248,    2320,    2319
   22665,    2248,    2249,    2321,    2320
   22666,    2249,    2250,    2322,    2321
   22667,    2250,    2251,    2323,    2322
   22668,    2251,    2252,    2324,    2323
   22669,    2252,    2253,    2325,    2324
   22670,    2253,    2254,    2326,    2325
   22671,    2254,    2255,    2327,    2326
   22672,    2255,    2256,    2328,    2327
   22673,    2256,    2257,    2329,    2328
   22674,    2257,    2258,    2330,    2329
   22675,    2258,    2259,    2331,    2330
   22676,    2259,    2260,    2332,    2331
   22677,    2260,    2261,    2333,    2332
   22678,    2261,    2262,    2334,    2333
   22679,    2262,    2263,    2335,    2334
   22680,    2263,    2264,    2336,    2335
   22681,    2264,    2265,    2337,    2336
   22682,    2265,    2266,    2338,    2337
   22683,    2266,    2267,    2339,    2338
   22684,    2267,    2268,    2340,    2339
   22685,    2268,    2269,    2341,    2340
   22686,    2269,    2270,    2342,    2341
   22687,    2270,    2271,    2343,    2342
   22688,    2271,    2272,    2344,    2343
   22689,    2272,    2273,    2345,    2344
   22690,    2273,    2274,    2346,    2345
   22691,    2274,    2275,    2347,    2346
   22692,    2275,    2276,    2348,    2347
   22693,    2276,    2277,    2349,    2348
   22694,    2277,    2278,    2350,    2349
   22695,    2278,    2279,    2351,    2350
   22696,    2279,    2280,    2352,    2351
   22697,    2280,    2281,    2353,    2352
   22698,    2281,    2282,    2354,    2353
   22699,    2282,    2283,    2355,    2354
   22700,    2283,    2284,    2356,    2355
   22701,    2284,    2285,    2357,    2356
   22702,    2285,    2286,    2358,    2357
   22703,    2286,    2287,    2359,    2358
   22704,    2287,    2288,    2360,    2359
   22705,    2288,    2289,    2361,    2360
   22706,    2289,    2290,    2362,    2361
   22707,    2290,    2291,    2363,    2362
   22708,    2291,    2292,    2364,    2363
   22709,    2292,    2293,    2365,    2364
   22710,    2293,    2294,    2366,    2365
   22711,    2294,    2295,    2367,    2366
   22712,    2295,    2296,    2368,    2367
   22713,    2296,    2297,    2369,    2368
   22714,    2297,    2298,    2370,    2369
   22715,    2298,    2299,    2371,    2370
   22716,    2299,    2300,    2372,    2371
   22717,    2300,    2301,    2373,    2372
   22718,    2301,    2302,    2374,    2373
   22719,    2302,    2303,    2375,    2374
   22720,    2303,    2304,    2376,    2375
   22721,    2305,    2306,    2378,    2377
   22722,    2306,    2307,    2379,    2378
   22723,    2307,    2308,    2380,    2379
   22724,    2308,    2309,    2381,    2380
   22725,    2309,    2310,    2382,    2381
   22726,    2310,    2311,    2383,    2382
   22727,    2311,    2312,    2384,    2383
   22728,    2312,    2313,    2385,    2384
   22729,    2313,    2314,    2386,    2385
   22730,    2314,    2315,    2387,    2386
   22731,    2315,    2316,    2388,    2387
   22732,    2316,    2317,    2389,    2388
   22733,    2317,    2318,    2390,    2389
   22734,    2318,    2319,    2391,    2390
   22735,    2319,    2320,    2392,    2391
   22736,    2320,    2321,    2393,    2392
   22737,    2321,    2322,    2394,    2393
   22738,    2322,    2323,    2395,    2394
   22739,    2323,    2324,    2396,    2395
   22740,    2324,    2325,    2397,    2396
   22741,    2325,    2326,    2398,    2397
   22742,    2326,    2327,    2399,    2398
   22743,    2327,    2328,    2400,    2399
   22744,    2328,    2329,    2401,    2400
   22745,    2329,    2330,    2402,    2401
   22746,    2330,    2331,    2403,    2402
   22747,    2331,    2332,    2404,    2403
   22748,    2332,    2333,    2405,    2404
   22749,    2333,    2334,    2406,    2405
   22750,    2334,    2335,    2407,    2406
   22751,    2335,    2336,    2408,    2407
   22752,    2336,    2337,    2409,    2408
   22753,    2337,    2338,    2410,    2409
   22754,    2338,    2339,    2411,    2410
   22755,    2339,    2340,    2412,    2411
   22756,    2340,    2341,    2413,    2412
   22757,    2341,    2342,    2414,    2413
   22758,    2342,    2343,    2415,    2414
   22759,    2343,    2344,    2416,    2415
   22760,    2344,    2345,    2417,    2416
   22761,    2345,    2346,    2418,    2417
   22762,    2346,    2347,    2419,    2418
   22763,    2347,    2348,    2420,    2419
   22764,    2348,    2349,    2421,    2420
   22765,    2349,    2350,    2422,    2421
   22766,    2350,    2351,    2423,    2422
   22767,    2351,    2352,    2424,    2423
   22768,    2352,    2353,    2425,    2424
   22769,    2353,    2354,    2426,    2425
   22770,    2354,    2355,    2427,    2426
   22771,    2355,    2356,    2428,    2427
   22772,    2356,    2357,    2429,    2428
   22773,    2357,    2358,    2430,    2429
   22774,    2358,    2359,    2431,    2430
   22775,    2359,    2360,    2432,    2431
   22776,    2360,    2361,    2433,    2432
   22777,    2361,    2362,    2434,    2433
   22778,    2362,    2363,    2435,    2434
   22779,    2363,    2364,    2436,    2435
   22780,    2364,    2365,    2437,    2436
   22781,    2365,    2366,    2438,    2437
   22782,    2366,    2367,    2439,    2438
   22783,    2367,    2368,    2440,    2439
   22784,    2368,    2369,    2441,    2440
   22785,    2369,    2370,    2442,    2441
   22786,    2370,    2371,    2443,    2442
   22787,    2371,    2372,    2444,    2443
   22788,    2372,    2373,    2445,    2444
   22789,    2373,    2374,    2446,    2445
   22790,    2374,    2375,    2447,    2446
   22791,    2375,    2376,    2448,    2447
   22792,    2377,    2378,    2450,    2449
   22793,    2378,    2379,    2451,    2450
   22794,    2379,    2380,    2452,    2451
   22795,    2380,    2381,    2453,    2452
   22796,    2381,    2382,    2454,    2453
   22797,    2382,    2383,    2455,    2454
   22798,    2383,    2384,    2456,    2455
   22799,    2384,    2385,    2457,    2456
   22800,    2385,    2386,    2458,    2457
   22801,    2386,    2387,    2459,    2458
   22802,    2387,    2388,    2460,    2459
   22803,    2388,    2389,    2461,    2460
   22804,    2389,    2390,    2462,    2461
   22805,    2390,    2391,    2463,    2462
   22806,    2391,    2392,    2464,    2463
   22807,    2392,    2393,    2465,    2464
   22808,    2393,    2394,    2466,    2465
   22809,    2394,    2395,    2467,    2466
   22810,    2395,    2396,    2468,    2467
   22811,    2396,    2397,    2469,    2468
   22812,    2397,    2398,    2470,    2469
   22813,    2398,    2399,    2471,    2470
   22814,    2399,    2400,    2472,    2471
   22815,    2400,    2401,    2473,    2472
   22816,    2401,    2402,    2474,    2473
   22817,    2402,    2403,    2475,    2474
   22818,    2403,    2404,    2476,    2475
   22819,    2404,    2405,    2477,    2476
   22820,    2405,    2406,    2478,    2477
   22821,    2406,    2407,    2479,    2478
   22822,    2407,    2408,    2480,    2479
   22823,    2408,    2409,    2481,    2480
   22824,    2409,    2410,    2482,    2481
   22825,    2410,    2411,    2483,    2482
   22826,    2411,    2412,    2484,    2483
   22827,    2412,    2413,    2485,    2484
   22828,    2413,    2414,    2486,    2485
   22829,    2414,    2415,    2487,    2486
   22830,    2415,    2416,    2488,    2487
   22831,    2416,    2417,    2489,    2488
   22832,    2417,    2418,    2490,    2489
   22833,    2418,    2419,    2491,    2490
   22834,    2419,    2420,    2492,    2491
   22835,    2420,    2421,    2493,    2492
   22836,    2421,    2422,    2494,    2493
   22837,    2422,    2423,    2495,    2494
   22838,    2423,    2424,    2496,    2495
   22839,    2424,    2425,    2497,    2496
   22840,    2425,    2426,    2498,    2497
   22841,    2426,    2427,    2499,    2498
   22842,    2427,    2428,    2500,    2499
   22843,    2428,    2429,    2501,    2500
   22844,    2429,    2430,    2502,    2501
   22845,    2430,    2431,    2503,    2502
   22846,    2431,    2432,    2504,    2503
   22847,    2432,    2433,    2505,    2504
   22848,    2433,    2434,    2506,    2505
   22849,    2434,    2435,    2507,    2506
   22850,    2435,    2436,    2508,    2507
   22851,    2436,    2437,    2509,    2508
   22852,    2437,    2438,    2510,    2509
   22853,    2438,    2439,    2511,    2510
   22854,    2439,    2440,    2512,    2511
   22855,    2440,    2441,    2513,    2512
   22856,    2441,    2442,    2514,    2513
   22857,    2442,    2443,    2515,    2514
   22858,    2443,    2444,    2516,    2515
   22859,    2444,    2445,    2517,    2516
   22860,    2445,    2446,    2518,    2517
   22861,    2446,    2447,    2519,    2518
   22862,    2447,    2448,    2520,    2519
   22863,    2449,    2450,    2523,    2521
   22864,    2450,    2451,    2525,    2523
   22865,    2451,    2452,    2527,    2525
   22866,    2452,    2453,    2529,    2527
   22867,    2453,    2454,    2531,    2529
   22868,    2454,    2455,    2533,    2531
   22869,    2455,    2456,    2535,    2533
   22870,    2456,    2457,    2537,    2535
   22871,    2457,    2458,    2539,    2537
   22872,    2458,    2459,    2541,    2539
   22873,    2459,    2460,    2543,    2541
   22874,    2460,    2461,    2545,    2543
   22875,    2461,    2462,    2547,    2545
   22876,    2462,    2463,    2549,    2547
   22877,    2463,    2464,    2551,    2549
   22878,    2464,    2465,    2553,    2551
   22879,    2465,    2466,    2555,    2553
   22880,    2466,    2467,    2557,    2555
   22881,    2467,    2468,    2559,    2557
   22882,    2468,    2469,    2561,    2559
   22883,    2469,    2470,    2563,    2561
   22884,    2470,    2471,    2565,    2563
   22885,    2471,    2472,    2567,    2565
   22886,    2472,    2473,    2569,    2567
   22887,    2473,    2474,    2571,    2569
   22888,    2474,    2475,    2573,    2571
   22889,    2475,    2476,    2575,    2573
   22890,    2476,    2477,    2577,    2575
   22891,    2477,    2478,    2579,    2577
   22892,    2478,    2479,    2581,    2579
   22893,    2479,    2480,    2583,    2581
   22894,    2480,    2481,    2584,    2583
   22895,    2481,    2482,    2585,    2584
   22896,    2482,    2483,    2586,    2585
   22897,    2483,    2484,    2587,    2586
   22898,    2484,    2485,    2588,    2587
   22899,    2485,    2486,    2589,    2588
   22900,    2486,    2487,    2590,    2589
   22901,    2487,    2488,    2591,    2590
   22902,    2488,    2489,    2592,    2591
   22903,    2489,    2490,    2593,    2592
   22904,    2490,    2491,    2594,    2593
   22905,    2491,    2492,    2595,    2594
   22906,    2492,    2493,    2596,    2595
   22907,    2493,    2494,    2597,    2596
   22908,    2494,    2495,    2598,    2597
   22909,    2495,    2496,    2599,    2598
   22910,    2496,    2497,    2600,    2599
   22911,    2497,    2498,    2601,    2600
   22912,    2498,    2499,    2602,    2601
   22913,    2499,    2500,    2603,    2602
   22914,    2500,    2501,    2604,    2603
   22915,    2501,    2502,    2605,    2604
   22916,    2502,    2503,    2606,    2605
   22917,    2503,    2504,    2607,    2606
   22918,    2504,    2505,    2608,    2607
   22919,    2505,    2506,    2609,    2608
   22920,    2506,    2507,    2610,    2609
   22921,    2507,    2508,    2611,    2610
   22922,    2508,    2509,    2612,    2611
   22923,    2509,    2510,    2613,    2612
   22924,    2510,    2511,    2614,    2613
   22925,    2511,    2512,    2615,    2614
   22926,    2512,    2513,    2616,    2615
   22927,    2513,    2514,    2617,    2616
   22928,    2514,    2515,    2618,    2617
   22929,    2515,    2516,    2619,    2618
   22930,    2516,    2517,    2620,    2619
   22931,    2517,    2518,    2621,    2620
   22932,    2518,    2519,    2622,    2621
   22933,    2519,    2520,    2623,    2622
   22934,    2522,    2524,    2625,    2624
   22935,    2524,    2526,    2626,    2625
   22936,    2526,    2528,    2627,    2626
   22937,    2528,    2530,    2628,    2627
   22938,    2530,    2532,    2629,    2628
   22939,    2532,    2534,    2630,    2629
   22940,    2534,    2536,    2631,    2630
   22941,    2536,    2538,    2632,    2631
   22942,    2538,    2540,    2633,    2632
   22943,    2540,    2542,    2634,    2633
   22944,    2542,    2544,    2635,    2634
   22945,    2544,    2546,    2636,    2635
   22946,    2546,    2548,    2637,    2636
   22947,    2548,    2550,    2638,    2637
   22948,    2550,    2552,    2639,    2638
   22949,    2552,    2554,    2640,    2639
   22950,    2554,    2556,    2641,    2640
   22951,    2556,    2558,    2642,    2641
   22952,    2558,    2560,    2643,    2642
   22953,    2560,    2562,    2644,    2643
   22954,    2562,    2564,    2645,    2644
   22955,    2564,    2566,    2646,    2645
   22956,    2566,    2568,    2647,    2646
   22957,    2568,    2570,    2648,    2647
   22958,    2570,    2572,    2649,    2648
   22959,    2572,    2574,    2650,    2649
   22960,    2574,    2576,    2651,    2650
   22961,    2576,    2578,    2652,    2651
   22962,    2578,    2580,    2653,    2652
   22963,    2580,    2582,    2654,    2653
   22964,    2582,    2583,    2655,    2654
   22965,    2583,    2584,    2656,    2655
   22966,    2584,    2585,    2657,    2656
   22967,    2585,    2586,    2658,    2657
   22968,    2586,    2587,    2659,    2658
   22969,    2587,    2588,    2660,    2659
   22970,    2588,    2589,    2661,    2660
   22971,    2589,    2590,    2662,    2661
   22972,    2590,    2591,    2663,    2662
   22973,    2591,    2592,    2664,    2663
   22974,    2592,    2593,    2665,    2664
   22975,    2593,    2594,    2666,    2665
   22976,    2594,    2595,    2667,    2666
   22977,    2595,    2596,    2668,    2667
   22978,    2596,    2597,    2669,    2668
   22979,    2597,    2598,    2670,    2669
   22980,    2598,    2599,    2671,    2670
   22981,    2599,    2600,    2672,    2671
   22982,    2600,    2601,    2673,    2672
   22983,    2601,    2602,    2674,    2673
   22984,    2602,    2603,    2675,    2674
   22985,    2603,    2604,    2676,    2675
   22986,    2604,    2605,    2677,    2676
   22987,    2605,    2606,    2678,    2677
   22988,    2606,    2607,    2679,    2678
   22989,    2607,    2608,    2680,    2679
   22990,    2608,    2609,    2681,    2680
   22991,    2609,    2610,    2682,    2681
   22992,    2610,    2611,    2683,    2682
   22993,    2611,    2612,    2684,    2683
   22994,    2612,    2613,    2685,    2684
   22995,    2613,    2614,    2686,    2685
   22996,    2614,    2615,    2687,    2686
   22997,    2615,    2616,    2688,    2687
   22998,    2616,    2617,    2689,    2688
   22999,    2617,    2618,    2690,    2689
   23000,    2618,    2619,    2691,    2690
   23001,    2619,    2620,    2692,    2691
   23002,    2620,    2621,    2693,    2692
   23003,    2621,    2622,    2694,    2693
   23004,    2622,    2623,    2695,    2694
   23005,    2624,    2625,    2697,    2696
   23006,    2625,    2626,    2698,    2697
   23007,    2626,    2627,    2699,    2698
   23008,    2627,    2628,    2700,    2699
   23009,    2628,    2629,    2701,    2700
   23010,    2629,    2630,    2702,    2701
   23011,    2630,    2631,    2703,    2702
   23012,    2631,    2632,    2704,    2703
   23013,    2632,    2633,    2705,    2704
   23014,    2633,    2634,    2706,    2705
   23015,    2634,    2635,    2707,    2706
   23016,    2635,    2636,    2708,    2707
   23017,    2636,    2637,    2709,    2708
   23018,    2637,    2638,    2710,    2709
   23019,    2638,    2639,    2711,    2710
   23020,    2639,    2640,    2712,    2711
   23021,    2640,    2641,    2713,    2712
   23022,    2641,    2642,    2714,    2713
   23023,    2642,    2643,    2715,    2714
   23024,    2643,    2644,    2716,    2715
   23025,    2644,    2645,    2717,    2716
   23026,    2645,    2646,    2718,    2717
   23027,    2646,    2647,    2719,    2718
   23028,    2647,    2648,    2720,    2719
   23029,    2648,    2649,    2721,    2720
   23030,    2649,    2650,    2722,    2721
   23031,    2650,    2651,    2723,    2722
   23032,    2651,    2652,    2724,    2723
   23033,    2652,    2653,    2725,    2724
   23034,    2653,    2654,    2726,    2725
   23035,    2654,    2655,    2727,    2726
   23036,    2655,    2656,    2728,    2727
   23037,    2656,    2657,    2729,    2728
   23038,    2657,    2658,    2730,    2729
   23039,    2658,    2659,    2731,    2730
   23040,    2659,    2660,    2732,    2731
   23041,    2660,    2661,    2733,    2732
   23042,    2661,    2662,    2734,    2733
   23043,    2662,    2663,    2735,    2734
   23044,    2663,    2664,    2736,    2735
   23045,    2664,    2665,    2737,    2736
   23046,    2665,    2666,    2738,    2737
   23047,    2666,    2667,    2739,    2738
   23048,    2667,    2668,    2740,    2739
   23049,    2668,    2669,    2741,    2740
   23050,    2669,    2670,    2742,    2741
   23051,    2670,    2671,    2743,    2742
   23052,    2671,    2672,    2744,    2743
   23053,    2672,    2673,    2745,    2744
   23054,    2673,    2674,    2746,    2745
   23055,    2674,    2675,    2747,    2746
   23056,    2675,    2676,    2748,    2747
   23057,    2676,    2677,    2749,    2748
   23058,    2677,    2678,    2750,    2749
   23059,    2678,    2679,    2751,    2750
   23060,    2679,    2680,    2752,    2751
   23061,    2680,    2681,    2753,    2752
   23062,    2681,    2682,    2754,    2753
   23063,    2682,    2683,    2755,    2754
   23064,    2683,    2684,    2756,    2755
   23065,    2684,    2685,    2757,    2756
   23066,    2685,    2686,    2758,    2757
   23067,    2686,    2687,    2759,    2758
   23068,    2687,    2688,    2760,    2759
   23069,    2688,    2689,    2761,    2760
   23070,    2689,    2690,    2762,    2761
   23071,    2690,    2691,    2763,    2762
   23072,    2691,    2692,    2764,    2763
   23073,    2692,    2693,    2765,    2764
   23074,    2693,    2694,    2766,    2765
   23075,    2694,    2695,    2767,    2766
   23076,    2696,    2697,    2769,    2768
   23077,    2697,    2698,    2770,    2769
   23078,    2698,    2699,    2771,    2770
   23079,    2699,    2700,    2772,    2771
   23080,    2700,    2701,    2773,    2772
   23081,    2701,    2702,    2774,    2773
   23082,    2702,    2703,    2775,    2774
   23083,    2703,    2704,    2776,    2775
   23084,    2704,    2705,    2777,    2776
   23085,    2705,    2706,    2778,    2777
   23086,    2706,    2707,    2779,    2778
   23087,    2707,    2708,    2780,    2779
   23088,    2708,    2709,    2781,    2780
   23089,    2709,    2710,    2782,    2781
   23090,    2710,    2711,    2783,    2782
   23091,    2711,    2712,    2784,    2783
   23092,    2712,    2713,    2785,    2784
   23093,    2713,    2714,    2786,    2785
   23094,    2714,    2715,    2787,    2786
   23095,    2715,    2716,    2788,    2787
   23096,    2716,    2717,    2789,    2788
   23097,    2717,    2718,    2790,    2789
   23098,    2718,    2719,    2791,    2790
   23099,    2719,    2720,    2792,    2791
   23100,    2720,    2721,    2793,    2792
   23101,    2721,    2722,    2794,    2793
   23102,    2722,    2723,    2795,    2794
   23103,    2723,    2724,    2796,    2795
   23104,    2724,    2725,    2797,    2796
   23105,    2725,    2726,    2798,    2797
   23106,    2726,    2727,    2799,    2798
   23107,    2727,    2728,    2800,    2799
   23108,    2728,    2729,    2801,    2800
   23109,    2729,    2730,    2802,    2801
   23110,    2730,    2731,    2803,    2802
   23111,    2731,    2732,    2804,    2803
   23112,    2732,    2733,    2805,    2804
   23113,    2733,    2734,    2806,    2805
   23114,    2734,    2735,    2807,    2806
   23115,    2735,    2736,    2808,    2807
   23116,    2736,    2737,    2809,    2808
   23117,    2737,    2738,    2810,    2809
   23118,    2738,    2739,    2811,    2810
   23119,    2739,    2740,    2812,    2811
   23120,    2740,    2741,    2813,    2812
   23121,    2741,    2742,    2814,    2813
   23122,    2742,    2743,    2815,    2814
   23123,    2743,    2744,    2816,    2815
   23124,    2744,    2745,    2817,    2816
   23125,    2745,    2746,    2818,    2817
   23126,    2746,    2747,    2819,    2818
   23127,    2747,    2748,    2820,    2819
   23128,    2748,    2749,    2821,    2820
   23129,    2749,    2750,    2822,    2821
   23130,    2750,    2751,    2823,    2822
   23131,    2751,    2752,    2824,    2823
   23132,    2752,    2753,    2825,    2824
   23133,    2753,    2754,    2826,    2825
   23134,    2754,    2755,    2827,    2826
   23135,    2755,    2756,    2828,    2827
   23136,    2756,    2757,    2829,    2828
   23137,    2757,    2758,    2830,    2829
   23138,    2758,    2759,    2831,    2830
   23139,    2759,    2760,    2832,    2831
   23140,    2760,    2761,    2833,    2832
   23141,    2761,    2762,    2834,    2833
   23142,    2762,    2763,    2835,    2834
   23143,    2763,    2764,    2836,    2835
   23144,    2764,    2765,    2837,    2836
   23145,    2765,    2766,    2838,    2837
   23146,    2766,    2767,    2839,    2838
   23147,    2768,    2769,    2841,    2840
   23148,    2769,    2770,    2842,    2841
   23149,    2770,    2771,    2843,    2842
   23150,    2771,    2772,    2844,    2843
   23151,    2772,    2773,    2845,    2844
   23152,    2773,    2774,    2846,    2845
   23153,    2774,    2775,    2847,    2846
   23154,    2775,    2776,    2848,    2847
   23155,    2776,    2777,    2849,    2848
   23156,    2777,    2778,    2850,    2849
   23157,    2778,    2779,    2851,    2850
   23158,    2779,    2780,    2852,    2851
   23159,    2780,    2781,    2853,    2852
   23160,    2781,    2782,    2854,    2853
   23161,    2782,    2783,    2855,    2854
   23162,    2783,    2784,    2856,    2855
   23163,    2784,    2785,    2857,    2856
   23164,    2785,    2786,    2858,    2857
   23165,    2786,    2787,    2859,    2858
   23166,    2787,    2788,    2860,    2859
   23167,    2788,    2789,    2861,    2860
   23168,    2789,    2790,    2862,    2861
   23169,    2790,    2791,    2863,    2862
   23170,    2791,    2792,    2864,    2863
   23171,    2792,    2793,    2865,    2864
   23172,    2793,    2794,    2866,    2865
   23173,    2794,    2795,    2867,    2866
   23174,    2795,    2796,    2868,    2867
   23175,    2796,    2797,    2869,    2868
   23176,    2797,    2798,    2870,    2869
   23177,    2798,    2799,    2871,    2870
   23178,    2799,    2800,    2872,    2871
   23179,    2800,    2801,    2873,    2872
   23180,    2801,    2802,    2874,    2873
   23181,    2802,    2803,    2875,    2874
   23182,    2803,    2804,    2876,    2875
   23183,    2804,    2805,    2877,    2876
   23184,    2805,    2806,    2878,    2877
   23185,    2806,    2807,    2879,    2878
   23186,    2807,    2808,    2880,    2879
   23187,    2808,    2809,    2881,    2880
   23188,    2809,    2810,    2882,    2881
   23189,    2810,    2811,    2883,    2882
   23190,    2811,    2812,    2884,    2883
   23191,    2812,    2813,    2885,    2884
   23192,    2813,    2814,    2886,    2885
   23193,    2814,    2815,    2887,    2886
   23194,    2815,    2816,    2888,    2887
   23195,    2816,    2817,    2889,    2888
   23196,    2817,    2818,    2890,    2889
   23197,    2818,    2819,    2891,    2890
   23198,    2819,    2820,    2892,    2891
   23199,    2820,    2821,    2893,    2892
   23200,    2821,    2822,    2894,    2893
   23201,    2822,    2823,    2895,    2894
   23202,    2823,    2824,    2896,    2895
   23203,    2824,    2825,    2897,    2896
   23204,    2825,    2826,    2898,    2897
   23205,    2826,    2827,    2899,    2898
   23206,    2827,    2828,    2900,    2899
   23207,    2828,    2829,    2901,    2900
   23208,    2829,    2830,    2902,    2901
   23209,    2830,    2831,    2903,    2902
   23210,    2831,    2832,    2904,    2903
   23211,    2832,    2833,    2905,    2904
   23212,    2833,    2834,    2906,    2905
   23213,    2834,    2835,    2907,    2906
   23214,    2835,    2836,    2908,    2907
   23215,    2836,    2837,    2909,    2908
   23216,    2837,    2838,    2910,    2909
   23217,    2838,    2839,    2911,    2910
   23218,    2840,    2841,    2913,    2912
   23219,    2841,    2842,    2914,    2913
   23220,    2842,    2843,    2915,    2914
   23221,    2843,    2844,    2916,    2915
   23222,    2844,    2845,    2917,    2916
   23223,    2845,    2846,    2918,    2917
   23224,    2846,    2847,    2919,    2918
   23225,    2847,    2848,    2920,    2919
   23226,    2848,    2849,    2921,    2920
   23227,    2849,    2850,    2922,    2921
   23228,    2850,    2851,    2923,    2922
   23229,    2851,    2852,    2924,    2923
   23230,    2852,    2853,    2925,    2924
   23231,    2853,    2854,    2926,    2925
   23232,    2854,    2855,    2927,    2926
   23233,    2855,    2856,    2928,    2927
   23234,    2856,    2857,    2929,    2928
   23235,    2857,    2858,    2930,    2929
   23236,    2858,    2859,    2931,    2930
   23237,    2859,    2860,    2932,    2931
   23238,    2860,    2861,    2933,    2932
   23239,    2861,    2862,    2934,    2933
   23240,    2862,    2863,    2935,    2934
   23241,    2863,    2864,    2936,    2935
   23242,    2864,    2865,    2937,    2936
   23243,    2865,    2866,    2938,    2937
   23244,    2866,    2867,    2939,    2938
   23245,    2867,    2868,    2940,    2939
   23246,    2868,    2869,    2941,    2940
   23247,    2869,    2870,    2942,    2941
   23248,    2870,    2871,    2943,    2942
   23249,    2871,    2872,    2944,    2943
   23250,    2872,    2873,    2945,    2944
   23251,    2873,    2874,    2946,    2945
   23252,    2874,    2875,    2947,    2946
   23253,    2875,    2876,    2948,    2947
   23254,    2876,    2877,    2949,    2948
   23255,    2877,    2878,    2950,    2949
   23256,    2878,    2879,    2951,    2950
   23257,    2879,    2880,    2952,    2951
   23258,    2880,    2881,    2953,    2952
   23259,    2881,    2882,    2954,    2953
   23260,    2882,    2883,    2955,    2954
   23261,    2883,    2884,    2956,    2955
   23262,    2884,    2885,    2957,    2956
   23263,    2885,    2886,    2958,    2957
   23264,    2886,    2887,    2959,    2958
   23265,    2887,    2888,    2960,    2959
   23266,    2888,    2889,    2961,    2960
   23267,    2889,    2890,    2962,    2961
   23268,    2890,    2891,    2963,    2962
   23269,    2891,    2892,    2964,    2963
   23270,    2892,    2893,    2965,    2964
   23271,    2893,    2894,    2966,    2965
   23272,    2894,    2895,    2967,    2966
   23273,    2895,    2896,    2968,    2967
   23274,    2896,    2897,    2969,    2968
   23275,    2897,    2898,    2970,    2969
   23276,    2898,    2899,    2971,    2970
   23277,    2899,    2900,    2972,    2971
   23278,    2900,    2901,    2973,    2972
   23279,    2901,    2902,    2974,    2973
   23280,    2902,    2903,    2975,    2974
   23281,    2903,    2904,    2976,    2975
   23282,    2904,    2905,    2977,    2976
   23283,    2905,    2906,    2978,    2977
   23284,    2906,    2907,    2979,    2978
   23285,    2907,    2908,    2980,    2979
   23286,    2908,    2909,    2981,    2980
   23287,    2909,    2910,    2982,    2981
   23288,    2910,    2911,    2983,    2982
   23289,    2912,    2913,    2985,    2984
   23290,    2913,    2914,    2986,    2985
   23291,    2914,    2915,    2987,    2986
   23292,    2915,    2916,    2988,    2987
   23293,    2916,    2917,    2989,    2988
   23294,    2917,    2918,    2990,    2989
   23295,    2918,    2919,    2991,    2990
   23296,    2919,    2920,    2992,    2991
   23297,    2920,    2921,    2993,    2992
   23298,    2921,    2922,    2994,    2993
   23299,    2922,    2923,    2995,    2994
   23300,    2923,    2924,    2996,    2995
   23301,    2924,    2925,    2997,    2996
   23302,    2925,    2926,    2998,    2997
   23303,    2926,    2927,    2999,    2998
   23304,    2927,    2928,    3000,    2999
   23305,    2928,    2929,    3001,    3000
   23306,    2929,    2930,    3002,    3001
   23307,    2930,    2931,    3003,    3002
   23308,    2931,    2932,    3004,    3003
   23309,    2932,    2933,    3005,    3004
   23310,    2933,    2934,    3006,    3005
   23311,    2934,    2935,    3007,    3006
   23312,    2935,    2936,    3008,    3007
   23313,    2936,    2937,    3009,    3008
   23314,    2937,    2938,    3010,    3009
   23315,    2938,    2939,    3011,    3010
   23316,    2939,    2940,    3012,    3011
   23317,    2940,    2941,    3013,    3012
   23318,    2941,    2942,    3014,    3013
   23319,    2942,    2943,    3015,    3014
   23320,    2943,    2944,    3016,    3015
   23321,    2944,    2945,    3017,    3016
   23322,    2945,    2946,    3018,    3017
   23323,    2946,    2947,    3019,    3018
   23324,    2947,    2948,    3020,    3019
   23325,    2948,    2949,    3021,    3020
   23326,    2949,    2950,    3022,    3021
   23327,    2950,    2951,    3023,    3022
   23328,    2951,    2952,    3024,    3023
   23329,    2952,    2953,    3025,    3024
   23330,    2953,    2954,    3026,    3025
   23331,    2954,    2955,    3027,    3026
   23332,    2955,    2956,    3028,    3027
   23333,    2956,    2957,    3029,    3028
   23334,    2957,    2958,    3030,    3029
   23335,    2958,    2959,    3031,    3030
   23336,    2959,    2960,    3032,    3031
   23337,    2960,    2961,    3033,    3032
   23338,    2961,    2962,    3034,    3033
   23339,    2962,    2963,    3035,    3034
   23340,    2963,    2964,    3036,    3035
   23341,    2964,    2965,    3037,    3036
   23342,    2965,    2966,    3038,    3037
   23343,    2966,    2967,    3039,    3038
   23344,    2967,    2968,    3040,    3039
   23345,    2968,    2969,    3041,    3040
   23346,    2969,    2970,    3042,    3041
   23347,    2970,    2971,    3043,    3042
   23348,    2971,    2972,    3044,    3043
   23349,    2972,    2973,    3045,    3044
   23350,    2973,    2974,    3046,    3045
   23351,    2974,    2975,    3047,    3046
   23352,    2975,    2976,    3048,    3047
   23353,    2976,    2977,    3049,    3048
   23354,    2977,    2978,    3050,    3049
   23355,    2978,    2979,    3051,    3050
   23356,    2979,    2980,    3052,    3051
   23357,    2980,    2981,    3053,    3052
   23358,    2981,    2982,    3054,    3053
   23359,    2982,    2983,    3055,    3054
   23360,    2984,    2985,    3057,    3056
   23361,    2985,    2986,    3058,    3057
   23362,    2986,    2987,    3059,    3058
   23363,    2987,    2988,    3060,    3059
   23364,    2988,    2989,    3061,    3060
   23365,    2989,    2990,    3062,    3061
   23366,    2990,    2991,    3063,    3062
   23367,    2991,    2992,    3064,    3063
   23368,    2992,    2993,    3065,    3064
   23369,    2993,    2994,    3066,    3065
   23370,    2994,    2995,    3067,    3066
   23371,    2995,    2996,    3068,    3067
   23372,    2996,    2997,    3069,    3068
   23373,    2997,    2998,    3070,    3069
   23374,    2998,    2999,    3071,    3070
   23375,    2999,    3000,    3072,    3071
   23376,    3000,    3001,    3073,    3072
   23377,    3001,    3002,    3074,    3073
   23378,    3002,    3003,    3075,    3074
   23379,    3003,    3004,    3076,    3075
   23380,    3004,    3005,    3077,    3076
   23381,    3005,    3006,    3078,    3077
   23382,    3006,    3007,    3079,    3078
   23383,    3007,    3008,    3080,    3079
   23384,    3008,    3009,    3081,    3080
   23385,    3009,    3010,    3082,    3081
   23386,    3010,    3011,    3083,    3082
   23387,    3011,    3012,    3084,    3083
   23388,    3012,    3013,    3085,    3084
   23389,    3013,    3014,    3086,    3085
   23390,    3014,    3015,    3087,    3086
   23391,    3015,    3016,    3088,    3087
   23392,    3016,    3017,    3089,    3088
   23393,    3017,    3018,    3090,    3089
   23394,    3018,    3019,    3091,    3090
   23395,    3019,    3020,    3092,    3091
   23396,    3020,    3021,    3093,    3092
   23397,    3021,    3022,    3094,    3093
   23398,    3022,    3023,    3095,    3094
   23399,    3023,    3024,    3096,    3095
   23400,    3024,    3025,    3097,    3096
   23401,    3025,    3026,    3098,    3097
   23402,    3026,    3027,    3099,    3098
   23403,    3027,    3028,    3100,    3099
   23404,    3028,    3029,    3101,    3100
   23405,    3029,    3030,    3102,    3101
   23406,    3030,    3031,    3103,    3102
   23407,    3031,    3032,    3104,    3103
   23408,    3032,    3033,    3105,    3104
   23409,    3033,    3034,    3106,    3105
   23410,    3034,    3035,    3107,    3106
   23411,    3035,    3036,    3108,    3107
   23412,    3036,    3037,    3109,    3108
   23413,    3037,    3038,    3110,    3109
   23414,    3038,    3039,    3111,    3110
   23415,    3039,    3040,    3112,    3111
   23416,    3040,    3041,    3113,    3112
   23417,    3041,    3042,    3114,    3113
   23418,    3042,    3043,    3115,    3114
   23419,    3043,    3044,    3116,    3115
   23420,    3044,    3045,    3117,    3116
   23421,    3045,    3046,    3118,    3117
   23422,    3046,    3047,    3119,    3118
   23423,    3047,    3048,    3120,    3119
   23424,    3048,    3049,    3121,    3120
   23425,    3049,    3050,    3122,    3121
   23426,    3050,    3051,    3123,    3122
   23427,    3051,    3052,    3124,    3123
   23428,    3052,    3053,    3125,    3124
   23429,    3053,    3054,    3126,    3125
   23430,    3054,    3055,    3127,    3126
   23431,    3056,    3057,    3129,    3128
   23432,    3057,    3058,    3130,    3129
   23433,    3058,    3059,    3131,    3130
   23434,    3059,    3060,    3132,    3131
   23435,    3060,    3061,    3133,    3132
   23436,    3061,    3062,    3134,    3133
   23437,    3062,    3063,    3135,    3134
   23438,    3063,    3064,    3136,    3135
   23439,    3064,    3065,    3137,    3136
   23440,    3065,    3066,    3138,    3137
   23441,    3066,    3067,    3139,    3138
   23442,    3067,    3068,    3140,    3139
   23443,    3068,    3069,    3141,    3140
   23444,    3069,    3070,    3142,    3141
   23445,    3070,    3071,    3143,    3142
   23446,    3071,    3072,    3144,    3143
   23447,    3072,    3073,    3145,    3144
   23448,    3073,    3074,    3146,    3145
   23449,    3074,    3075,    3147,    3146
   23450,    3075,    3076,    3148,    3147
   23451,    3076,    3077,    3149,    3148
   23452,    3077,    3078,    3150,    3149
   23453,    3078,    3079,    3151,    3150
   23454,    3079,    3080,    3152,    3151
   23455,    3080,    3081,    3153,    3152
   23456,    3081,    3082,    3154,    3153
   23457,    3082,    3083,    3155,    3154
   23458,    3083,    3084,    3156,    3155
   23459,    3084,    3085,    3157,    3156
   23460,    3085,    3086,    3158,    3157
   23461,    3086,    3087,    3159,    3158
   23462,    3087,    3088,    3160,    3159
   23463,    3088,    3089,    3161,    3160
   23464,    3089,    3090,    3162,    3161
   23465,    3090,    3091,    3163,    3162
   23466,    3091,    3092,    3164,    3163
   23467,    3092,    3093,    3165,    3164
   23468,    3093,    3094,    3166,    3165
   23469,    3094,    3095,    3167,    3166
   23470,    3095,    3096,    3168,    3167
   23471,    3096,    3097,    3169,    3168
   23472,    3097,    3098,    3170,    3169
   23473,    3098,    3099,    3171,    3170
   23474,    3099,    3100,    3172,    3171
   23475,    3100,    3101,    3173,    3172
   23476,    3101,    3102,    3174,    3173
   23477,    3102,    3103,    3175,    3174
   23478,    3103,    3104,    3176,    3175
   23479,    3104,    3105,    3177,    3176
   23480,    3105,    3106,    3178,    3177
   23481,    3106,    3107,    3179,    3178
   23482,    3107,    3108,    3180,    3179
   23483,    3108,    3109,    3181,    3180
   23484,    3109,    3110,    3182,    3181
   23485,    3110,    3111,    3183,    3182
   23486,    3111,    3112,    3184,    3183
   23487,    3112,    3113,    3185,    3184
   23488,    3113,    3114,    3186,    3185
   23489,    3114,    3115,    3187,    3186
   23490,    3115,    3116,    3188,    3187
   23491,    3116,    3117,    3189,    3188
   23492,    3117,    3118,    3190,    3189
   23493,    3118,    3119,    3191,    3190
   23494,    3119,    3120,    3192,    3191
   23495,    3120,    3121,    3193,    3192
   23496,    3121,    3122,    3194,    3193
   23497,    3122,    3123,    3195,    3194
   23498,    3123,    3124,    3196,    3195
   23499,    3124,    3125,    3197,    3196
   23500,    3125,    3126,    3198,    3197
   23501,    3126,    3127,    3199,    3198
   23502,    3128,    3129,    3201,    3200
   23503,    3129,    3130,    3202,    3201
   23504,    3130,    3131,    3203,    3202
   23505,    3131,    3132,    3204,    3203
   23506,    3132,    3133,    3205,    3204
   23507,    3133,    3134,    3206,    3205
   23508,    3134,    3135,    3207,    3206
   23509,    3135,    3136,    3208,    3207
   23510,    3136,    3137,    3209,    3208
   23511,    3137,    3138,    3210,    3209
   23512,    3138,    3139,    3211,    3210
   23513,    3139,    3140,    3212,    3211
   23514,    3140,    3141,    3213,    3212
   23515,    3141,    3142,    3214,    3213
   23516,    3142,    3143,    3215,    3214
   23517,    3143,    3144,    3216,    3215
   23518,    3144,    3145,    3217,    3216
   23519,    3145,    3146,    3218,    3217
   23520,    3146,    3147,    3219,    3218
   23521,    3147,    3148,    3220,    3219
   23522,    3148,    3149,    3221,    3220
   23523,    3149,    3150,    3222,    3221
   23524,    3150,    3151,    3223,    3222
   23525,    3151,    3152,    3224,    3223
   23526,    3152,    3153,    3225,    3224
   23527,    3153,    3154,    3226,    3225
   23528,    3154,    3155,    3227,    3226
   23529,    3155,    3156,    3228,    3227
   23530,    3156,    3157,    3229,    3228
   23531,    3157,    3158,    3230,    3229
   23532,    3158,    3159,    3231,    3230
   23533,    3159,    3160,    3232,    3231
   23534,    3160,    3161,    3233,    3232
   23535,    3161,    3162,    3234,    3233
   23536,    3162,    3163,    3235,    3234
   23537,    3163,    3164,    3236,    3235
   23538,    3164,    3165,    3237,    3236
   23539,    3165,    3166,    3238,    3237
   23540,    3166,    3167,    3239,    3238
   23541,    3167,    3168,    3240,    3239
   23542,    3168,    3169,    3241,    3240
   23543,    3169,    3170,    3242,    3241
   23544,    3170,    3171,    3243,    3242
   23545,    3171,    3172,    3244,    3243
   23546,    3172,    3173,    3245,    3244
   23547,    3173,    3174,    3246,    3245
   23548,    3174,    3175,    3247,    3246
   23549,    3175,    3176,    3248,    3247
   23550,    3176,    3177,    3249,    3248
   23551,    3177,    3178,    3250,    3249
   23552,    3178,    3179,    3251,    3250
   23553,    3179,    3180,    3252,    3251
   23554,    3180,    3181,    3253,    3252
   23555,    3181,    3182,    3254,    3253
   23556,    3182,    3183,    3255,    3254
   23557,    3183,    3184,    3256,    3255
   23558,    3184,    3185,    3257,    3256
   23559,    3185,    3186,    3258,    3257
   23560,    3186,    3187,    3259,    3258
   23561,    3187,    3188,    3260,    3259
   23562,    3188,    3189,    3261,    3260
   23563,    3189,    3190,    3262,    3261
   23564,    3190,    3191,    3263,    3262
   23565,    3191,    3192,    3264,    3263
   23566,    3192,    3193,    3265,    3264
   23567,    3193,    3194,    3266,    3265
   23568,    3194,    3195,    3267,    3266
   23569,    3195,    3196,    3268,    3267
   23570,    3196,    3197,    3269,    3268
   23571,    3197,    3198,    3270,    3269
   23572,    3198,    3199,    3271,    3270
   23573,    3200,    3201,    3273,    3272
   23574,    3201,    3202,    3274,    3273
   23575,    3202,    3203,    3275,    3274
   23576,    3203,    3204,    3276,    3275
   23577,    3204,    3205,    3277,    3276
   23578,    3205,    3206,    3278,    3277
   23579,    3206,    3207,    3279,    3278
   23580,    3207,    3208,    3280,    3279
   23581,    3208,    3209,    3281,    3280
   23582,    3209,    3210,    3282,    3281
   23583,    3210,    3211,    3283,    3282
   23584,    3211,    3212,    3284,    3283
   23585,    3212,    3213,    3285,    3284
   23586,    3213,    3214,    3286,    3285
   23587,    3214,    3215,    3287,    3286
   23588,    3215,    3216,    3288,    3287
   23589,    3216,    3217,    3289,    3288
   23590,    3217,    3218,    3290,    3289
   23591,    3218,    3219,    3291,    3290
   23592,    3219,    3220,    3292,    3291
   23593,    3220,    3221,    3293,    3292
   23594,    3221,    3222,    3294,    3293
   23595,    3222,    3223,    3295,    3294
   23596,    3223,    3224,    3296,    3295
   23597,    3224,    3225,    3297,    3296
   23598,    3225,    3226,    3298,    3297
   23599,    3226,    3227,    3299,    3298
   23600,    3227,    3228,    3300,    3299
   23601,    3228,    3229,    3301,    3300
   23602,    3229,    3230,    3302,    3301
   23603,    3230,    3231,    3303,    3302
   23604,    3231,    3232,    3304,    3303
   23605,    3232,    3233,    3305,    3304
   23606,    3233,    3234,    3306,    3305
   23607,    3234,    3235,    3307,    3306
   23608,    3235,    3236,    3308,    3307
   23609,    3236,    3237,    3309,    3308
   23610,    3237,    3238,    3310,    3309
   23611,    3238,    3239,    3311,    3310
   23612,    3239,    3240,    3312,    3311
   23613,    3240,    3241,    3313,    3312
   23614,    3241,    3242,    3314,    3313
   23615,    3242,    3243,    3315,    3314
   23616,    3243,    3244,    3316,    3315
   23617,    3244,    3245,    3317,    3316
   23618,    3245,    3246,    3318,    3317
   23619,    3246,    3247,    3319,    3318
   23620,    3247,    3248,    3320,    3319
   23621,    3248,    3249,    3321,    3320
   23622,    3249,    3250,    3322,    3321
   23623,    3250,    3251,    3323,    3322
   23624,    3251,    3252,    3324,    3323
   23625,    3252,    3253,    3325,    3324
   23626,    3253,    3254,    3326,    3325
   23627,    3254,    3255,    3327,    3326
   23628,    3255,    3256,    3328,    3327
   23629,    3256,    3257,    3329,    3328
   23630,    3257,    3258,    3330,    3329
   23631,    3258,    3259,    3331,    3330
   23632,    3259,    3260,    3332,    3331
   23633,    3260,    3261,    3333,    3332
   23634,    3261,    3262,    3334,    3333
   23635,    3262,    3263,    3335,    3334
   23636,    3263,    3264,    3336,    3335
   23637,    3264,    3265,    3337,    3336
   23638,    3265,    3266,    3338,    3337
   23639,    3266,    3267,    3339,    3338
   23640,    3267,    3268,    3340,    3339
   23641,    3268,    3269,    3341,    3340
   23642,    3269,    3270,    3342,    3341
   23643,    3270,    3271,    3343,    3342
   23644,    3272,    3273,    3345,    3344
   23645,    3273,    3274,    3346,    3345
   23646,    3274,    3275,    3347,    3346
   23647,    3275,    3276,    3348,    3347
   23648,    3276,    3277,    3349,    3348
   23649,    3277,    3278,    3350,    3349
   23650,    3278,    3279,    3351,    3350
   23651,    3279,    3280,    3352,    3351
   23652,    3280,    3281,    3353,    3352
   23653,    3281,    3282,    3354,    3353
   23654,    3282,    3283,    3355,    3354
   23655,    3283,    3284,    3356,    3355
   23656,    3284,    3285,    3357,    3356
   23657,    3285,    3286,    3358,    3357
   23658,    3286,    3287,    3359,    3358
   23659,    3287,    3288,    3360,    3359
   23660,    3288,    3289,    3361,    3360
   23661,    3289,    3290,    3362,    3361
   23662,    3290,    3291,    3363,    3362
   23663,    3291,    3292,    3364,    3363
   23664,    3292,    3293,    3365,    3364
   23665,    3293,    3294,    3366,    3365
   23666,    3294,    3295,    3367,    3366
   23667,    3295,    3296,    3368,    3367
   23668,    3296,    3297,    3369,    3368
   23669,    3297,    3298,    3370,    3369
   23670,    3298,    3299,    3371,    3370
   23671,    3299,    3300,    3372,    3371
   23672,    3300,    3301,    3373,    3372
   23673,    3301,    3302,    3374,    3373
   23674,    3302,    3303,    3375,    3374
   23675,    3303,    3304,    3376,    3375
   23676,    3304,    3305,    3377,    3376
   23677,    3305,    3306,    3378,    3377
   23678,    3306,    3307,    3379,    3378
   23679,    3307,    3308,    3380,    3379
   23680,    3308,    3309,    3381,    3380
   23681,    3309,    3310,    3382,    3381
   23682,    3310,    3311,    3383,    3382
   23683,    3311,    3312,    3384,    3383
   23684,    3312,    3313,    3385,    3384
   23685,    3313,    3314,    3386,    3385
   23686,    3314,    3315,    3387,    3386
   23687,    3315,    3316,    3388,    3387
   23688,    3316,    3317,    3389,    3388
   23689,    3317,    3318,    3390,    3389
   23690,    3318,    3319,    3391,    3390
   23691,    3319,    3320,    3392,    3391
   23692,    3320,    3321,    3393,    3392
   23693,    3321,    3322,    3394,    3393
   23694,    3322,    3323,    3395,    3394
   23695,    3323,    3324,    3396,    3395
   23696,    3324,    3325,    3397,    3396
   23697,    3325,    3326,    3398,    3397
   23698,    3326,    3327,    3399,    3398
   23699,    3327,    3328,    3400,    3399
   23700,    3328,    3329,    3401,    3400
   23701,    3329,    3330,    3402,    3401
   23702,    3330,    3331,    3403,    3402
   23703,    3331,    3332,    3404,    3403
   23704,    3332,    3333,    3405,    3404
   23705,    3333,    3334,    3406,    3405
   23706,    3334,    3335,    3407,    3406
   23707,    3335,    3336,    3408,    3407
   23708,    3336,    3337,    3409,    3408
   23709,    3337,    3338,    3410,    3409
   23710,    3338,    3339,    3411,    3410
   23711,    3339,    3340,    3412,    3411
   23712,    3340,    3341,    3413,    3412
   23713,    3341,    3342,    3414,    3413
   23714,    3342,    3343,    3415,    3414
   23715,    3344,    3345,    3417,    3416
   23716,    3345,    3346,    3418,    3417
   23717,    3346,    3347,    3419,    3418
   23718,    3347,    3348,    3420,    3419
   23719,    3348,    3349,    3421,    3420
   23720,    3349,    3350,    3422,    3421
   23721,    3350,    3351,    3423,    3422
   23722,    3351,    3352,    3424,    3423
   23723,    3352,    3353,    3425,    3424
   23724,    3353,    3354,    3426,    3425
   23725,    3354,    3355,    3427,    3426
   23726,    3355,    3356,    3428,    3427
   23727,    3356,    3357,    3429,    3428
   23728,    3357,    3358,    3430,    3429
   23729,    3358,    3359,    3431,    3430
   23730,    3359,    3360,    3432,    3431
   23731,    3360,    3361,    3433,    3432
   23732,    3361,    3362,    3434,    3433
   23733,    3362,    3363,    3435,    3434
   23734,    3363,    3364,    3436,    3435
   23735,    3364,    3365,    3437,    3436
   23736,    3365,    3366,    3438,    3437
   23737,    3366,    3367,    3439,    3438
   23738,    3367,    3368,    3440,    3439
   23739,    3368,    3369,    3441,    3440
   23740,    3369,    3370,    3442,    3441
   23741,    3370,    3371,    3443,    3442
   23742,    3371,    3372,    3444,    3443
   23743,    3372,    3373,    3445,    3444
   23744,    3373,    3374,    3446,    3445
   23745,    3374,    3375,    3447,    3446
   23746,    3375,    3376,    3448,    3447
   23747,    3376,    3377,    3449,    3448
   23748,    3377,    3378,    3450,    3449
   23749,    3378,    3379,    3451,    3450
   23750,    3379,    3380,    3452,    3451
   23751,    3380,    3381,    3453,    3452
   23752,    3381,    3382,    3454,    3453
   23753,    3382,    3383,    3455,    3454
   23754,    3383,    3384,    3456,    3455
   23755,    3384,    3385,    3457,    3456
   23756,    3385,    3386,    3458,    3457
   23757,    3386,    3387,    3459,    3458
   23758,    3387,    3388,    3460,    3459
   23759,    3388,    3389,    3461,    3460
   23760,    3389,    3390,    3462,    3461
   23761,    3390,    3391,    3463,    3462
   23762,    3391,    3392,    3464,    3463
   23763,    3392,    3393,    3465,    3464
   23764,    3393,    3394,    3466,    3465
   23765,    3394,    3395,    3467,    3466
   23766,    3395,    3396,    3468,    3467
   23767,    3396,    3397,    3469,    3468
   23768,    3397,    3398,    3470,    3469
   23769,    3398,    3399,    3471,    3470
   23770,    3399,    3400,    3472,    3471
   23771,    3400,    3401,    3473,    3472
   23772,    3401,    3402,    3474,    3473
   23773,    3402,    3403,    3475,    3474
   23774,    3403,    3404,    3476,    3475
   23775,    3404,    3405,    3477,    3476
   23776,    3405,    3406,    3478,    3477
   23777,    3406,    3407,    3479,    3478
   23778,    3407,    3408,    3480,    3479
   23779,    3408,    3409,    3481,    3480
   23780,    3409,    3410,    3482,    3481
   23781,    3410,    3411,    3483,    3482
   23782,    3411,    3412,    3484,    3483
   23783,    3412,    3413,    3485,    3484
   23784,    3413,    3414,    3486,    3485
   23785,    3414,    3415,    3487,    3486
   23786,    3416,    3417,    3489,    3488
   23787,    3417,    3418,    3490,    3489
   23788,    3418,    3419,    3491,    3490
   23789,    3419,    3420,    3492,    3491
   23790,    3420,    3421,    3493,    3492
   23791,    3421,    3422,    3494,    3493
   23792,    3422,    3423,    3495,    3494
   23793,    3423,    3424,    3496,    3495
   23794,    3424,    3425,    3497,    3496
   23795,    3425,    3426,    3498,    3497
   23796,    3426,    3427,    3499,    3498
   23797,    3427,    3428,    3500,    3499
   23798,    3428,    3429,    3501,    3500
   23799,    3429,    3430,    3502,    3501
   23800,    3430,    3431,    3503,    3502
   23801,    3431,    3432,    3504,    3503
   23802,    3432,    3433,    3505,    3504
   23803,    3433,    3434,    3506,    3505
   23804,    3434,    3435,    3507,    3506
   23805,    3435,    3436,    3508,    3507
   23806,    3436,    3437,    3509,    3508
   23807,    3437,    3438,    3510,    3509
   23808,    3438,    3439,    3511,    3510
   23809,    3439,    3440,    3512,    3511
   23810,    3440,    3441,    3513,    3512
   23811,    3441,    3442,    3514,    3513
   23812,    3442,    3443,    3515,    3514
   23813,    3443,    3444,    3516,    3515
   23814,    3444,    3445,    3517,    3516
   23815,    3445,    3446,    3518,    3517
   23816,    3446,    3447,    3519,    3518
   23817,    3447,    3448,    3520,    3519
   23818,    3448,    3449,    3521,    3520
   23819,    3449,    3450,    3522,    3521
   23820,    3450,    3451,    3523,    3522
   23821,    3451,    3452,    3524,    3523
   23822,    3452,    3453,    3525,    3524
   23823,    3453,    3454,    3526,    3525
   23824,    3454,    3455,    3527,    3526
   23825,    3455,    3456,    3528,    3527
   23826,    3456,    3457,    3529,    3528
   23827,    3457,    3458,    3530,    3529
   23828,    3458,    3459,    3531,    3530
   23829,    3459,    3460,    3532,    3531
   23830,    3460,    3461,    3533,    3532
   23831,    3461,    3462,    3534,    3533
   23832,    3462,    3463,    3535,    3534
   23833,    3463,    3464,    3536,    3535
   23834,    3464,    3465,    3537,    3536
   23835,    3465,    3466,    3538,    3537
   23836,    3466,    3467,    3539,    3538
   23837,    3467,    3468,    3540,    3539
   23838,    3468,    3469,    3541,    3540
   23839,    3469,    3470,    3542,    3541
   23840,    3470,    3471,    3543,    3542
   23841,    3471,    3472,    3544,    3543
   23842,    3472,    3473,    3545,    3544
   23843,    3473,    3474,    3546,    3545
   23844,    3474,    3475,    3547,    3546
   23845,    3475,    3476,    3548,    3547
   23846,    3476,    3477,    3549,    3548
   23847,    3477,    3478,    3550,    3549
   23848,    3478,    3479,    3551,    3550
   23849,    3479,    3480,    3552,    3551
   23850,    3480,    3481,    3553,    3552
   23851,    3481,    3482,    3554,    3553
   23852,    3482,    3483,    3555,    3554
   23853,    3483,    3484,    3556,    3555
   23854,    3484,    3485,    3557,    3556
   23855,    3485,    3486,    3558,    3557
   23856,    3486,    3487,    3559,    3558
   23857,    3488,    3489,    3561,    3560
   23858,    3489,    3490,    3562,    3561
   23859,    3490,    3491,    3563,    3562
   23860,    3491,    3492,    3564,    3563
   23861,    3492,    3493,    3565,    3564
   23862,    3493,    3494,    3566,    3565
   23863,    3494,    3495,    3567,    3566
   23864,    3495,    3496,    3568,    3567
   23865,    3496,    3497,    3569,    3568
   23866,    3497,    3498,    3570,    3569
   23867,    3498,    3499,    3571,    3570
   23868,    3499,    3500,    3572,    3571
   23869,    3500,    3501,    3573,    3572
   23870,    3501,    3502,    3574,    3573
   23871,    3502,    3503,    3575,    3574
   23872,    3503,    3504,    3576,    3575
   23873,    3504,    3505,    3577,    3576
   23874,    3505,    3506,    3578,    3577
   23875,    3506,    3507,    3579,    3578
   23876,    3507,    3508,    3580,    3579
   23877,    3508,    3509,    3581,    3580
   23878,    3509,    3510,    3582,    3581
   23879,    3510,    3511,    3583,    3582
   23880,    3511,    3512,    3584,    3583
   23881,    3512,    3513,    3585,    3584
   23882,    3513,    3514,    3586,    3585
   23883,    3514,    3515,    3587,    3586
   23884,    3515,    3516,    3588,    3587
   23885,    3516,    3517,    3589,    3588
   23886,    3517,    3518,    3590,    3589
   23887,    3518,    3519,    3591,    3590
   23888,    3519,    3520,    3592,    3591
   23889,    3520,    3521,    3593,    3592
   23890,    3521,    3522,    3594,    3593
   23891,    3522,    3523,    3595,    3594
   23892,    3523,    3524,    3596,    3595
   23893,    3524,    3525,    3597,    3596
   23894,    3525,    3526,    3598,    3597
   23895,    3526,    3527,    3599,    3598
   23896,    3527,    3528,    3600,    3599
   23897,    3528,    3529,    3601,    3600
   23898,    3529,    3530,    3602,    3601
   23899,    3530,    3531,    3603,    3602
   23900,    3531,    3532,    3604,    3603
   23901,    3532,    3533,    3605,    3604
   23902,    3533,    3534,    3606,    3605
   23903,    3534,    3535,    3607,    3606
   23904,    3535,    3536,    3608,    3607
   23905,    3536,    3537,    3609,    3608
   23906,    3537,    3538,    3610,    3609
   23907,    3538,    3539,    3611,    3610
   23908,    3539,    3540,    3612,    3611
   23909,    3540,    3541,    3613,    3612
   23910,    3541,    3542,    3614,    3613
   23911,    3542,    3543,    3615,    3614
   23912,    3543,    3544,    3616,    3615
   23913,    3544,    3545,    3617,    3616
   23914,    3545,    3546,    3618,    3617
   23915,    3546,    3547,    3619,    3618
   23916,    3547,    3548,    3620,    3619
   23917,    3548,    3549,    3621,    3620
   23918,    3549,    3550,    3622,    3621
   23919,    3550,    3551,    3623,    3622
   23920,    3551,    3552,    3624,    3623
   23921,    3552,    3553,    3625,    3624
   23922,    3553,    3554,    3626,    3625
   23923,    3554,    3555,    3627,    3626
   23924,    3555,    3556,    3628,    3627
   23925,    3556,    3557,    3629,    3628
   23926,    3557,    3558,    3630,    3629
   23927,    3558,    3559,    3631,    3630
   23928,    3560,    3561,    3633,    3632
   23929,    3561,    3562,    3634,    3633
   23930,    3562,    3563,    3635,    3634
   23931,    3563,    3564,    3636,    3635
   23932,    3564,    3565,    3637,    3636
   23933,    3565,    3566,    3638,    3637
   23934,    3566,    3567,    3639,    3638
   23935,    3567,    3568,    3640,    3639
   23936,    3568,    3569,    3641,    3640
   23937,    3569,    3570,    3642,    3641
   23938,    3570,    3571,    3643,    3642
   23939,    3571,    3572,    3644,    3643
   23940,    3572,    3573,    3645,    3644
   23941,    3573,    3574,    3646,    3645
   23942,    3574,    3575,    3647,    3646
   23943,    3575,    3576,    3648,    3647
   23944,    3576,    3577,    3649,    3648
   23945,    3577,    3578,    3650,    3649
   23946,    3578,    3579,    3651,    3650
   23947,    3579,    3580,    3652,    3651
   23948,    3580,    3581,    3653,    3652
   23949,    3581,    3582,    3654,    3653
   23950,    3582,    3583,    3655,    3654
   23951,    3583,    3584,    3656,    3655
   23952,    3584,    3585,    3657,    3656
   23953,    3585,    3586,    3658,    3657
   23954,    3586,    3587,    3659,    3658
   23955,    3587,    3588,    3660,    3659
   23956,    3588,    3589,    3661,    3660
   23957,    3589,    3590,    3662,    3661
   23958,    3590,    3591,    3663,    3662
   23959,    3591,    3592,    3664,    3663
   23960,    3592,    3593,    3665,    3664
   23961,    3593,    3594,    3666,    3665
   23962,    3594,    3595,    3667,    3666
   23963,    3595,    3596,    3668,    3667
   23964,    3596,    3597,    3669,    3668
   23965,    3597,    3598,    3670,    3669
   23966,    3598,    3599,    3671,    3670
   23967,    3599,    3600,    3672,    3671
   23968,    3600,    3601,    3673,    3672
   23969,    3601,    3602,    3674,    3673
   23970,    3602,    3603,    3675,    3674
   23971,    3603,    3604,    3676,    3675
   23972,    3604,    3605,    3677,    3676
   23973,    3605,    3606,    3678,    3677
   23974,    3606,    3607,    3679,    3678
   23975,    3607,    3608,    3680,    3679
   23976,    3608,    3609,    3681,    3680
   23977,    3609,    3610,    3682,    3681
   23978,    3610,    3611,    3683,    3682
   23979,    3611,    3612,    3684,    3683
   23980,    3612,    3613,    3685,    3684
   23981,    3613,    3614,    3686,    3685
   23982,    3614,    3615,    3687,    3686
   23983,    3615,    3616,    3688,    3687
   23984,    3616,    3617,    3689,    3688
   23985,    3617,    3618,    3690,    3689
   23986,    3618,    3619,    3691,    3690
   23987,    3619,    3620,    3692,    3691
   23988,    3620,    3621,    3693,    3692
   23989,    3621,    3622,    3694,    3693
   23990,    3622,    3623,    3695,    3694
   23991,    3623,    3624,    3696,    3695
   23992,    3624,    3625,    3697,    3696
   23993,    3625,    3626,    3698,    3697
   23994,    3626,    3627,    3699,    3698
   23995,    3627,    3628,    3700,    3699
   23996,    3628,    3629,    3701,    3700
   23997,    3629,    3630,    3702,    3701
   23998,    3630,    3631,    3703,    3702
   23999,    3632,    3633,    3705,    3704
   24000,    3633,    3634,    3706,    3705
   24001,    3634,    3635,    3707,    3706
   24002,    3635,    3636,    3708,    3707
   24003,    3636,    3637,    3709,    3708
   24004,    3637,    3638,    3710,    3709
   24005,    3638,    3639,    3711,    3710
   24006,    3639,    3640,    3712,    3711
   24007,    3640,    3641,    3713,    3712
   24008,    3641,    3642,    3714,    3713
   24009,    3642,    3643,    3715,    3714
   24010,    3643,    3644,    3716,    3715
   24011,    3644,    3645,    3717,    3716
   24012,    3645,    3646,    3718,    3717
   24013,    3646,    3647,    3719,    3718
   24014,    3647,    3648,    3720,    3719
   24015,    3648,    3649,    3721,    3720
   24016,    3649,    3650,    3722,    3721
   24017,    3650,    3651,    3723,    3722
   24018,    3651,    3652,    3724,    3723
   24019,    3652,    3653,    3725,    3724
   24020,    3653,    3654,    3726,    3725
   24021,    3654,    3655,    3727,    3726
   24022,    3655,    3656,    3728,    3727
   24023,    3656,    3657,    3729,    3728
   24024,    3657,    3658,    3730,    3729
   24025,    3658,    3659,    3731,    3730
   24026,    3659,    3660,    3732,    3731
   24027,    3660,    3661,    3733,    3732
   24028,    3661,    3662,    3734,    3733
   24029,    3662,    3663,    3735,    3734
   24030,    3663,    3664,    3736,    3735
   24031,    3664,    3665,    3737,    3736
   24032,    3665,    3666,    3738,    3737
   24033,    3666,    3667,    3739,    3738
   24034,    3667,    3668,    3740,    3739
   24035,    3668,    3669,    3741,    3740
   24036,    3669,    3670,    3742,    3741
   24037,    3670,    3671,    3743,    3742
   24038,    3671,    3672,    3744,    3743
   24039,    3672,    3673,    3745,    3744
   24040,    3673,    3674,    3746,    3745
   24041,    3674,    3675,    3747,    3746
   24042,    3675,    3676,    3748,    3747
   24043,    3676,    3677,    3749,    3748
   24044,    3677,    3678,    3750,    3749
   24045,    3678,    3679,    3751,    3750
   24046,    3679,    3680,    3752,    3751
   24047,    3680,    3681,    3753,    3752
   24048,    3681,    3682,    3754,    3753
   24049,    3682,    3683,    3755,    3754
   24050,    3683,    3684,    3756,    3755
   24051,    3684,    3685,    3757,    3756
   24052,    3685,    3686,    3758,    3757
   24053,    3686,    3687,    3759,    3758
   24054,    3687,    3688,    3760,    3759
   24055,    3688,    3689,    3761,    3760
   24056,    3689,    3690,    3762,    3761
   24057,    3690,    3691,    3763,    3762
   24058,    3691,    3692,    3764,    3763
   24059,    3692,    3693,    3765,    3764
   24060,    3693,    3694,    3766,    3765
   24061,    3694,    3695,    3767,    3766
   24062,    3695,    3696,    3768,    3767
   24063,    3696,    3697,    3769,    3768
   24064,    3697,    3698,    3770,    3769
   24065,    3698,    3699,    3771,    3770
   24066,    3699,    3700,    3772,    3771
   24067,    3700,    3701,    3773,    3772
   24068,    3701,    3702,    3774,    3773
   24069,    3702,    3703,    3775,    3774
   24070,    3704,    3705,    3777,    3776
   24071,    3705,    3706,    3778,    3777
   24072,    3706,    3707,    3779,    3778
   24073,    3707,    3708,    3780,    3779
   24074,    3708,    3709,    3781,    3780
   24075,    3709,    3710,    3782,    3781
   24076,    3710,    3711,    3783,    3782
   24077,    3711,    3712,    3784,    3783
   24078,    3712,    3713,    3785,    3784
   24079,    3713,    3714,    3786,    3785
   24080,    3714,    3715,    3787,    3786
   24081,    3715,    3716,    3788,    3787
   24082,    3716,    3717,    3789,    3788
   24083,    3717,    3718,    3790,    3789
   24084,    3718,    3719,    3791,    3790
   24085,    3719,    3720,    3792,    3791
   24086,    3720,    3721,    3793,    3792
   24087,    3721,    3722,    3794,    3793
   24088,    3722,    3723,    3795,    3794
   24089,    3723,    3724,    3796,    3795
   24090,    3724,    3725,    3797,    3796
   24091,    3725,    3726,    3798,    3797
   24092,    3726,    3727,    3799,    3798
   24093,    3727,    3728,    3800,    3799
   24094,    3728,    3729,    3801,    3800
   24095,    3729,    3730,    3802,    3801
   24096,    3730,    3731,    3803,    3802
   24097,    3731,    3732,    3804,    3803
   24098,    3732,    3733,    3805,    3804
   24099,    3733,    3734,    3806,    3805
   24100,    3734,    3735,    3807,    3806
   24101,    3735,    3736,    3808,    3807
   24102,    3736,    3737,    3809,    3808
   24103,    3737,    3738,    3810,    3809
   24104,    3738,    3739,    3811,    3810
   24105,    3739,    3740,    3812,    3811
   24106,    3740,    3741,    3813,    3812
   24107,    3741,    3742,    3814,    3813
   24108,    3742,    3743,    3815,    3814
   24109,    3743,    3744,    3816,    3815
   24110,    3744,    3745,    3817,    3816
   24111,    3745,    3746,    3818,    3817
   24112,    3746,    3747,    3819,    3818
   24113,    3747,    3748,    3820,    3819
   24114,    3748,    3749,    3821,    3820
   24115,    3749,    3750,    3822,    3821
   24116,    3750,    3751,    3823,    3822
   24117,    3751,    3752,    3824,    3823
   24118,    3752,    3753,    3825,    3824
   24119,    3753,    3754,    3826,    3825
   24120,    3754,    3755,    3827,    3826
   24121,    3755,    3756,    3828,    3827
   24122,    3756,    3757,    3829,    3828
   24123,    3757,    3758,    3830,    3829
   24124,    3758,    3759,    3831,    3830
   24125,    3759,    3760,    3832,    3831
   24126,    3760,    3761,    3833,    3832
   24127,    3761,    3762,    3834,    3833
   24128,    3762,    3763,    3835,    3834
   24129,    3763,    3764,    3836,    3835
   24130,    3764,    3765,    3837,    3836
   24131,    3765,    3766,    3838,    3837
   24132,    3766,    3767,    3839,    3838
   24133,    3767,    3768,    3840,    3839
   24134,    3768,    3769,    3841,    3840
   24135,    3769,    3770,    3842,    3841
   24136,    3770,    3771,    3843,    3842
   24137,    3771,    3772,    3844,    3843
   24138,    3772,    3773,    3845,    3844
   24139,    3773,    3774,    3846,    3845
   24140,    3774,    3775,    3847,    3846
   24141,    3776,    3777,    3849,    3848
   24142,    3777,    3778,    3850,    3849
   24143,    3778,    3779,    3851,    3850
   24144,    3779,    3780,    3852,    3851
   24145,    3780,    3781,    3853,    3852
   24146,    3781,    3782,    3854,    3853
   24147,    3782,    3783,    3855,    3854
   24148,    3783,    3784,    3856,    3855
   24149,    3784,    3785,    3857,    3856
   24150,    3785,    3786,    3858,    3857
   24151,    3786,    3787,    3859,    3858
   24152,    3787,    3788,    3860,    3859
   24153,    3788,    3789,    3861,    3860
   24154,    3789,    3790,    3862,    3861
   24155,    3790,    3791,    3863,    3862
   24156,    3791,    3792,    3864,    3863
   24157,    3792,    3793,    3865,    3864
   24158,    3793,    3794,    3866,    3865
   24159,    3794,    3795,    3867,    3866
   24160,    3795,    3796,    3868,    3867
   24161,    3796,    3797,    3869,    3868
   24162,    3797,    3798,    3870,    3869
   24163,    3798,    3799,    3871,    3870
   24164,    3799,    3800,    3872,    3871
   24165,    3800,    3801,    3873,    3872
   24166,    3801,    3802,    3874,    3873
   24167,    3802,    3803,    3875,    3874
   24168,    3803,    3804,    3876,    3875
   24169,    3804,    3805,    3877,    3876
   24170,    3805,    3806,    3878,    3877
   24171,    3806,    3807,    3879,    3878
   24172,    3807,    3808,    3880,    3879
   24173,    3808,    3809,    3881,    3880
   24174,    3809,    3810,    3882,    3881
   24175,    3810,    3811,    3883,    3882
   24176,    3811,    3812,    3884,    3883
   24177,    3812,    3813,    3885,    3884
   24178,    3813,    3814,    3886,    3885
   24179,    3814,    3815,    3887,    3886
   24180,    3815,    3816,    3888,    3887
   24181,    3816,    3817,    3889,    3888
   24182,    3817,    3818,    3890,    3889
   24183,    3818,    3819,    3891,    3890
   24184,    3819,    3820,    3892,    3891
   24185,    3820,    3821,    3893,    3892
   24186,    3821,    3822,    3894,    3893
   24187,    3822,    3823,    3895,    3894
   24188,    3823,    3824,    3896,    3895
   24189,    3824,    3825,    3897,    3896
   24190,    3825,    3826,    3898,    3897
   24191,    3826,    3827,    3899,    3898
   24192,    3827,    3828,    3900,    3899
   24193,    3828,    3829,    3901,    3900
   24194,    3829,    3830,    3902,    3901
   24195,    3830,    3831,    3903,    3902
   24196,    3831,    3832,    3904,    3903
   24197,    3832,    3833,    3905,    3904
   24198,    3833,    3834,    3906,    3905
   24199,    3834,    3835,    3907,    3906
   24200,    3835,    3836,    3908,    3907
   24201,    3836,    3837,    3909,    3908
   24202,    3837,    3838,    3910,    3909
   24203,    3838,    3839,    3911,    3910
   24204,    3839,    3840,    3912,    3911
   24205,    3840,    3841,    3913,    3912
   24206,    3841,    3842,    3914,    3913
   24207,    3842,    3843,    3915,    3914
   24208,    3843,    3844,    3916,    3915
   24209,    3844,    3845,    3917,    3916
   24210,    3845,    3846,    3918,    3917
   24211,    3846,    3847,    3919,    3918
   24212,    3848,    3849,    3921,    3920
   24213,    3849,    3850,    3922,    3921
   24214,    3850,    3851,    3923,    3922
   24215,    3851,    3852,    3924,    3923
   24216,    3852,    3853,    3925,    3924
   24217,    3853,    3854,    3926,    3925
   24218,    3854,    3855,    3927,    3926
   24219,    3855,    3856,    3928,    3927
   24220,    3856,    3857,    3929,    3928
   24221,    3857,    3858,    3930,    3929
   24222,    3858,    3859,    3931,    3930
   24223,    3859,    3860,    3932,    3931
   24224,    3860,    3861,    3933,    3932
   24225,    3861,    3862,    3934,    3933
   24226,    3862,    3863,    3935,    3934
   24227,    3863,    3864,    3936,    3935
   24228,    3864,    3865,    3937,    3936
   24229,    3865,    3866,    3938,    3937
   24230,    3866,    3867,    3939,    3938
   24231,    3867,    3868,    3940,    3939
   24232,    3868,    3869,    3941,    3940
   24233,    3869,    3870,    3942,    3941
   24234,    3870,    3871,    3943,    3942
   24235,    3871,    3872,    3944,    3943
   24236,    3872,    3873,    3945,    3944
   24237,    3873,    3874,    3946,    3945
   24238,    3874,    3875,    3947,    3946
   24239,    3875,    3876,    3948,    3947
   24240,    3876,    3877,    3949,    3948
   24241,    3877,    3878,    3950,    3949
   24242,    3878,    3879,    3951,    3950
   24243,    3879,    3880,    3952,    3951
   24244,    3880,    3881,    3953,    3952
   24245,    3881,    3882,    3954,    3953
   24246,    3882,    3883,    3955,    3954
   24247,    3883,    3884,    3956,    3955
   24248,    3884,    3885,    3957,    3956
   24249,    3885,    3886,    3958,    3957
   24250,    3886,    3887,    3959,    3958
   24251,    3887,    3888,    3960,    3959
   24252,    3888,    3889,    3961,    3960
   24253,    3889,    3890,    3962,    3961
   24254,    3890,    3891,    3963,    3962
   24255,    3891,    3892,    3964,    3963
   24256,    3892,    3893,    3965,    3964
   24257,    3893,    3894,    3966,    3965
   24258,    3894,    3895,    3967,    3966
   24259,    3895,    3896,    3968,    3967
   24260,    3896,    3897,    3969,    3968
   24261,    3897,    3898,    3970,    3969
   24262,    3898,    3899,    3971,    3970
   24263,    3899,    3900,    3972,    3971
   24264,    3900,    3901,    3973,    3972
   24265,    3901,    3902,    3974,    3973
   24266,    3902,    3903,    3975,    3974
   24267,    3903,    3904,    3976,    3975
   24268,    3904,    3905,    3977,    3976
   24269,    3905,    3906,    3978,    3977
   24270,    3906,    3907,    3979,    3978
   24271,    3907,    3908,    3980,    3979
   24272,    3908,    3909,    3981,    3980
   24273,    3909,    3910,    3982,    3981
   24274,    3910,    3911,    3983,    3982
   24275,    3911,    3912,    3984,    3983
   24276,    3912,    3913,    3985,    3984
   24277,    3913,    3914,    3986,    3985
   24278,    3914,    3915,    3987,    3986
   24279,    3915,    3916,    3988,    3987
   24280,    3916,    3917,    3989,    3988
   24281,    3917,    3918,    3990,    3989
   24282,    3918,    3919,    3991,    3990
   24283,    3920,    3921,    3993,    3992
   24284,    3921,    3922,    3994,    3993
   24285,    3922,    3923,    3995,    3994
   24286,    3923,    3924,    3996,    3995
   24287,    3924,    3925,    3997,    3996
   24288,    3925,    3926,    3998,    3997
   24289,    3926,    3927,    3999,    3998
   24290,    3927,    3928,    4000,    3999
   24291,    3928,    3929,    4001,    4000
   24292,    3929,    3930,    4002,    4001
   24293,    3930,    3931,    4003,    4002
   24294,    3931,    3932,    4004,    4003
   24295,    3932,    3933,    4005,    4004
   24296,    3933,    3934,    4006,    4005
   24297,    3934,    3935,    4007,    4006
   24298,    3935,    3936,    4008,    4007
   24299,    3936,    3937,    4009,    4008
   24300,    3937,    3938,    4010,    4009
   24301,    3938,    3939,    4011,    4010
   24302,    3939,    3940,    4012,    4011
   24303,    3940,    3941,    4013,    4012
   24304,    3941,    3942,    4014,    4013
   24305,    3942,    3943,    4015,    4014
   24306,    3943,    3944,    4016,    4015
   24307,    3944,    3945,    4017,    4016
   24308,    3945,    3946,    4018,    4017
   24309,    3946,    3947,    4019,    4018
   24310,    3947,    3948,    4020,    4019
   24311,    3948,    3949,    4021,    4020
   24312,    3949,    3950,    4022,    4021
   24313,    3950,    3951,    4023,    4022
   24314,    3951,    3952,    4024,    4023
   24315,    3952,    3953,    4025,    4024
   24316,    3953,    3954,    4026,    4025
   24317,    3954,    3955,    4027,    4026
   24318,    3955,    3956,    4028,    4027
   24319,    3956,    3957,    4029,    4028
   24320,    3957,    3958,    4030,    4029
   24321,    3958,    3959,    4031,    4030
   24322,    3959,    3960,    4032,    4031
   24323,    3960,    3961,    4033,    4032
   24324,    3961,    3962,    4034,    4033
   24325,    3962,    3963,    4035,    4034
   24326,    3963,    3964,    4036,    4035
   24327,    3964,    3965,    4037,    4036
   24328,    3965,    3966,    4038,    4037
   24329,    3966,    3967,    4039,    4038
   24330,    3967,    3968,    4040,    4039
   24331,    3968,    3969,    4041,    4040
   24332,    3969,    3970,    4042,    4041
   24333,    3970,    3971,    4043,    4042
   24334,    3971,    3972,    4044,    4043
   24335,    3972,    3973,    4045,    4044
   24336,    3973,    3974,    4046,    4045
   24337,    3974,    3975,    4047,    4046
   24338,    3975,    3976,    4048,    4047
   24339,    3976,    3977,    4049,    4048
   24340,    3977,    3978,    4050,    4049
   24341,    3978,    3979,    4051,    4050
   24342,    3979,    3980,    4052,    4051
   24343,    3980,    3981,    4053,    4052
   24344,    3981,    3982,    4054,    4053
   24345,    3982,    3983,    4055,    4054
   24346,    3983,    3984,    4056,    4055
   24347,    3984,    3985,    4057,    4056
   24348,    3985,    3986,    4058,    4057
   24349,    3986,    3987,    4059,    4058
   24350,    3987,    3988,    4060,    4059
   24351,    3988,    3989,    4061,    4060
   24352,    3989,    3990,    4062,    4061
   24353,    3990,    3991,    4063,    4062
   24354,    3992,    3993,    4065,    4064
   24355,    3993,    3994,    4066,    4065
   24356,    3994,    3995,    4067,    4066
   24357,    3995,    3996,    4068,    4067
   24358,    3996,    3997,    4069,    4068
   24359,    3997,    3998,    4070,    4069
   24360,    3998,    3999,    4071,    4070
   24361,    3999,    4000,    4072,    4071
   24362,    4000,    4001,    4073,    4072
   24363,    4001,    4002,    4074,    4073
   24364,    4002,    4003,    4075,    4074
   24365,    4003,    4004,    4076,    4075
   24366,    4004,    4005,    4077,    4076
   24367,    4005,    4006,    4078,    4077
   24368,    4006,    4007,    4079,    4078
   24369,    4007,    4008,    4080,    4079
   24370,    4008,    4009,    4081,    4080
   24371,    4009,    4010,    4082,    4081
   24372,    4010,    4011,    4083,    4082
   24373,    4011,    4012,    4084,    4083
   24374,    4012,    4013,    4085,    4084
   24375,    4013,    4014,    4086,    4085
   24376,    4014,    4015,    4087,    4086
   24377,    4015,    4016,    4088,    4087
   24378,    4016,    4017,    4089,    4088
   24379,    4017,    4018,    4090,    4089
   24380,    4018,    4019,    4091,    4090
   24381,    4019,    4020,    4092,    4091
   24382,    4020,    4021,    4093,    4092
   24383,    4021,    4022,    4094,    4093
   24384,    4022,    4023,    4095,    4094
   24385,    4023,    4024,    4096,    4095
   24386,    4024,    4025,    4097,    4096
   24387,    4025,    4026,    4098,    4097
   24388,    4026,    4027,    4099,    4098
   24389,    4027,    4028,    4100,    4099
   24390,    4028,    4029,    4101,    4100
   24391,    4029,    4030,    4102,    4101
   24392,    4030,    4031,    4103,    4102
   24393,    4031,    4032,    4104,    4103
   24394,    4032,    4033,    4105,    4104
   24395,    4033,    4034,    4106,    4105
   24396,    4034,    4035,    4107,    4106
   24397,    4035,    4036,    4108,    4107
   24398,    4036,    4037,    4109,    4108
   24399,    4037,    4038,    4110,    4109
   24400,    4038,    4039,    4111,    4110
   24401,    4039,    4040,    4112,    4111
   24402,    4040,    4041,    4113,    4112
   24403,    4041,    4042,    4114,    4113
   24404,    4042,    4043,    4115,    4114
   24405,    4043,    4044,    4116,    4115
   24406,    4044,    4045,    4117,    4116
   24407,    4045,    4046,    4118,    4117
   24408,    4046,    4047,    4119,    4118
   24409,    4047,    4048,    4120,    4119
   24410,    4048,    4049,    4121,    4120
   24411,    4049,    4050,    4122,    4121
   24412,    4050,    4051,    4123,    4122
   24413,    4051,    4052,    4124,    4123
   24414,    4052,    4053,    4125,    4124
   24415,    4053,    4054,    4126,    4125
   24416,    4054,    4055,    4127,    4126
   24417,    4055,    4056,    4128,    4127
   24418,    4056,    4057,    4129,    4128
   24419,    4057,    4058,    4130,    4129
   24420,    4058,    4059,    4131,    4130
   24421,    4059,    4060,    4132,    4131
   24422,    4060,    4061,    4133,    4132
   24423,    4061,    4062,    4134,    4133
   24424,    4062,    4063,    4135,    4134
   24425,    4064,    4065,    4137,    4136
   24426,    4065,    4066,    4138,    4137
   24427,    4066,    4067,    4139,    4138
   24428,    4067,    4068,    4140,    4139
   24429,    4068,    4069,    4141,    4140
   24430,    4069,    4070,    4142,    4141
   24431,    4070,    4071,    4143,    4142
   24432,    4071,    4072,    4144,    4143
   24433,    4072,    4073,    4145,    4144
   24434,    4073,    4074,    4146,    4145
   24435,    4074,    4075,    4147,    4146
   24436,    4075,    4076,    4148,    4147
   24437,    4076,    4077,    4149,    4148
   24438,    4077,    4078,    4150,    4149
   24439,    4078,    4079,    4151,    4150
   24440,    4079,    4080,    4152,    4151
   24441,    4080,    4081,    4153,    4152
   24442,    4081,    4082,    4154,    4153
   24443,    4082,    4083,    4155,    4154
   24444,    4083,    4084,    4156,    4155
   24445,    4084,    4085,    4157,    4156
   24446,    4085,    4086,    4158,    4157
   24447,    4086,    4087,    4159,    4158
   24448,    4087,    4088,    4160,    4159
   24449,    4088,    4089,    4161,    4160
   24450,    4089,    4090,    4162,    4161
   24451,    4090,    4091,    4163,    4162
   24452,    4091,    4092,    4164,    4163
   24453,    4092,    4093,    4165,    4164
   24454,    4093,    4094,    4166,    4165
   24455,    4094,    4095,    4167,    4166
   24456,    4095,    4096,    4168,    4167
   24457,    4096,    4097,    4169,    4168
   24458,    4097,    4098,    4170,    4169
   24459,    4098,    4099,    4171,    4170
   24460,    4099,    4100,    4172,    4171
   24461,    4100,    4101,    4173,    4172
   24462,    4101,    4102,    4174,    4173
   24463,    4102,    4103,    4175,    4174
   24464,    4103,    4104,    4176,    4175
   24465,    4104,    4105,    4177,    4176
   24466,    4105,    4106,    4178,    4177
   24467,    4106,    4107,    4179,    4178
   24468,    4107,    4108,    4180,    4179
   24469,    4108,    4109,    4181,    4180
   24470,    4109,    4110,    4182,    4181
   24471,    4110,    4111,    4183,    4182
   24472,    4111,    4112,    4184,    4183
   24473,    4112,    4113,    4185,    4184
   24474,    4113,    4114,    4186,    4185
   24475,    4114,    4115,    4187,    4186
   24476,    4115,    4116,    4188,    4187
   24477,    4116,    4117,    4189,    4188
   24478,    4117,    4118,    4190,    4189
   24479,    4118,    4119,    4191,    4190
   24480,    4119,    4120,    4192,    4191
   24481,    4120,    4121,    4193,    4192
   24482,    4121,    4122,    4194,    4193
   24483,    4122,    4123,    4195,    4194
   24484,    4123,    4124,    4196,    4195
   24485,    4124,    4125,    4197,    4196
   24486,    4125,    4126,    4198,    4197
   24487,    4126,    4127,    4199,    4198
   24488,    4127,    4128,    4200,    4199
   24489,    4128,    4129,    4201,    4200
   24490,    4129,    4130,    4202,    4201
   24491,    4130,    4131,    4203,    4202
   24492,    4131,    4132,    4204,    4203
   24493,    4132,    4133,    4205,    4204
   24494,    4133,    4134,    4206,    4205
   24495,    4134,    4135,    4207,    4206
   24496,    4136,    4137,    4209,    4208
   24497,    4137,    4138,    4210,    4209
   24498,    4138,    4139,    4211,    4210
   24499,    4139,    4140,    4212,    4211
   24500,    4140,    4141,    4213,    4212
   24501,    4141,    4142,    4214,    4213
   24502,    4142,    4143,    4215,    4214
   24503,    4143,    4144,    4216,    4215
   24504,    4144,    4145,    4217,    4216
   24505,    4145,    4146,    4218,    4217
   24506,    4146,    4147,    4219,    4218
   24507,    4147,    4148,    4220,    4219
   24508,    4148,    4149,    4221,    4220
   24509,    4149,    4150,    4222,    4221
   24510,    4150,    4151,    4223,    4222
   24511,    4151,    4152,    4224,    4223
   24512,    4152,    4153,    4225,    4224
   24513,    4153,    4154,    4226,    4225
   24514,    4154,    4155,    4227,    4226
   24515,    4155,    4156,    4228,    4227
   24516,    4156,    4157,    4229,    4228
   24517,    4157,    4158,    4230,    4229
   24518,    4158,    4159,    4231,    4230
   24519,    4159,    4160,    4232,    4231
   24520,    4160,    4161,    4233,    4232
   24521,    4161,    4162,    4234,    4233
   24522,    4162,    4163,    4235,    4234
   24523,    4163,    4164,    4236,    4235
   24524,    4164,    4165,    4237,    4236
   24525,    4165,    4166,    4238,    4237
   24526,    4166,    4167,    4239,    4238
   24527,    4167,    4168,    4240,    4239
   24528,    4168,    4169,    4241,    4240
   24529,    4169,    4170,    4242,    4241
   24530,    4170,    4171,    4243,    4242
   24531,    4171,    4172,    4244,    4243
   24532,    4172,    4173,    4245,    4244
   24533,    4173,    4174,    4246,    4245
   24534,    4174,    4175,    4247,    4246
   24535,    4175,    4176,    4248,    4247
   24536,    4176,    4177,    4249,    4248
   24537,    4177,    4178,    4250,    4249
   24538,    4178,    4179,    4251,    4250
   24539,    4179,    4180,    4252,    4251
   24540,    4180,    4181,    4253,    4252
   24541,    4181,    4182,    4254,    4253
   24542,    4182,    4183,    4255,    4254
   24543,    4183,    4184,    4256,    4255
   24544,    4184,    4185,    4257,    4256
   24545,    4185,    4186,    4258,    4257
   24546,    4186,    4187,    4259,    4258
   24547,    4187,    4188,    4260,    4259
   24548,    4188,    4189,    4261,    4260
   24549,    4189,    4190,    4262,    4261
   24550,    4190,    4191,    4263,    4262
   24551,    4191,    4192,    4264,    4263
   24552,    4192,    4193,    4265,    4264
   24553,    4193,    4194,    4266,    4265
   24554,    4194,    4195,    4267,    4266
   24555,    4195,    4196,    4268,    4267
   24556,    4196,    4197,    4269,    4268
   24557,    4197,    4198,    4270,    4269
   24558,    4198,    4199,    4271,    4270
   24559,    4199,    4200,    4272,    4271
   24560,    4200,    4201,    4273,    4272
   24561,    4201,    4202,    4274,    4273
   24562,    4202,    4203,    4275,    4274
   24563,    4203,    4204,    4276,    4275
   24564,    4204,    4205,    4277,    4276
   24565,    4205,    4206,    4278,    4277
   24566,    4206,    4207,    4279,    4278
   24567,    4208,    4209,    4281,    4280
   24568,    4209,    4210,    4282,    4281
   24569,    4210,    4211,    4283,    4282
   24570,    4211,    4212,    4284,    4283
   24571,    4212,    4213,    4285,    4284
   24572,    4213,    4214,    4286,    4285
   24573,    4214,    4215,    4287,    4286
   24574,    4215,    4216,    4288,    4287
   24575,    4216,    4217,    4289,    4288
   24576,    4217,    4218,    4290,    4289
   24577,    4218,    4219,    4291,    4290
   24578,    4219,    4220,    4292,    4291
   24579,    4220,    4221,    4293,    4292
   24580,    4221,    4222,    4294,    4293
   24581,    4222,    4223,    4295,    4294
   24582,    4223,    4224,    4296,    4295
   24583,    4224,    4225,    4297,    4296
   24584,    4225,    4226,    4298,    4297
   24585,    4226,    4227,    4299,    4298
   24586,    4227,    4228,    4300,    4299
   24587,    4228,    4229,    4301,    4300
   24588,    4229,    4230,    4302,    4301
   24589,    4230,    4231,    4303,    4302
   24590,    4231,    4232,    4304,    4303
   24591,    4232,    4233,    4305,    4304
   24592,    4233,    4234,    4306,    4305
   24593,    4234,    4235,    4307,    4306
   24594,    4235,    4236,    4308,    4307
   24595,    4236,    4237,    4309,    4308
   24596,    4237,    4238,    4310,    4309
   24597,    4238,    4239,    4311,    4310
   24598,    4239,    4240,    4312,    4311
   24599,    4240,    4241,    4313,    4312
   24600,    4241,    4242,    4314,    4313
   24601,    4242,    4243,    4315,    4314
   24602,    4243,    4244,    4316,    4315
   24603,    4244,    4245,    4317,    4316
   24604,    4245,    4246,    4318,    4317
   24605,    4246,    4247,    4319,    4318
   24606,    4247,    4248,    4320,    4319
   24607,    4248,    4249,    4321,    4320
   24608,    4249,    4250,    4322,    4321
   24609,    4250,    4251,    4323,    4322
   24610,    4251,    4252,    4324,    4323
   24611,    4252,    4253,    4325,    4324
   24612,    4253,    4254,    4326,    4325
   24613,    4254,    4255,    4327,    4326
   24614,    4255,    4256,    4328,    4327
   24615,    4256,    4257,    4329,    4328
   24616,    4257,    4258,    4330,    4329
   24617,    4258,    4259,    4331,    4330
   24618,    4259,    4260,    4332,    4331
   24619,    4260,    4261,    4333,    4332
   24620,    4261,    4262,    4334,    4333
   24621,    4262,    4263,    4335,    4334
   24622,    4263,    4264,    4336,    4335
   24623,    4264,    4265,    4337,    4336
   24624,    4265,    4266,    4338,    4337
   24625,    4266,    4267,    4339,    4338
   24626,    4267,    4268,    4340,    4339
   24627,    4268,    4269,    4341,    4340
   24628,    4269,    4270,    4342,    4341
   24629,    4270,    4271,    4343,    4342
   24630,    4271,    4272,    4344,    4343
   24631,    4272,    4273,    4345,    4344
   24632,    4273,    4274,    4346,    4345
   24633,    4274,    4275,    4347,    4346
   24634,    4275,    4276,    4348,    4347
   24635,    4276,    4277,    4349,    4348
   24636,    4277,    4278,    4350,    4349
   24637,    4278,    4279,    4351,    4350
   24638,    4280,    4281,    4353,    4352
   24639,    4281,    4282,    4354,    4353
   24640,    4282,    4283,    4355,    4354
   24641,    4283,    4284,    4356,    4355
   24642,    4284,    4285,    4357,    4356
   24643,    4285,    4286,    4358,    4357
   24644,    4286,    4287,    4359,    4358
   24645,    4287,    4288,    4360,    4359
   24646,    4288,    4289,    4361,    4360
   24647,    4289,    4290,    4362,    4361
   24648,    4290,    4291,    4363,    4362
   24649,    4291,    4292,    4364,    4363
   24650,    4292,    4293,    4365,    4364
   24651,    4293,    4294,    4366,    4365
   24652,    4294,    4295,    4367,    4366
   24653,    4295,    4296,    4368,    4367
   24654,    4296,    4297,    4369,    4368
   24655,    4297,    4298,    4370,    4369
   24656,    4298,    4299,    4371,    4370
   24657,    4299,    4300,    4372,    4371
   24658,    4300,    4301,    4373,    4372
   24659,    4301,    4302,    4374,    4373
   24660,    4302,    4303,    4375,    4374
   24661,    4303,    4304,    4376,    4375
   24662,    4304,    4305,    4377,    4376
   24663,    4305,    4306,    4378,    4377
   24664,    4306,    4307,    4379,    4378
   24665,    4307,    4308,    4380,    4379
   24666,    4308,    4309,    4381,    4380
   24667,    4309,    4310,    4382,    4381
   24668,    4310,    4311,    4383,    4382
   24669,    4311,    4312,    4384,    4383
   24670,    4312,    4313,    4385,    4384
   24671,    4313,    4314,    4386,    4385
   24672,    4314,    4315,    4387,    4386
   24673,    4315,    4316,    4388,    4387
   24674,    4316,    4317,    4389,    4388
   24675,    4317,    4318,    4390,    4389
   24676,    4318,    4319,    4391,    4390
   24677,    4319,    4320,    4392,    4391
   24678,    4320,    4321,    4393,    4392
   24679,    4321,    4322,    4394,    4393
   24680,    4322,    4323,    4395,    4394
   24681,    4323,    4324,    4396,    4395
   24682,    4324,    4325,    4397,    4396
   24683,    4325,    4326,    4398,    4397
   24684,    4326,    4327,    4399,    4398
   24685,    4327,    4328,    4400,    4399
   24686,    4328,    4329,    4401,    4400
   24687,    4329,    4330,    4402,    4401
   24688,    4330,    4331,    4403,    4402
   24689,    4331,    4332,    4404,    4403
   24690,    4332,    4333,    4405,    4404
   24691,    4333,    4334,    4406,    4405
   24692,    4334,    4335,    4407,    4406
   24693,    4335,    4336,    4408,    4407
   24694,    4336,    4337,    4409,    4408
   24695,    4337,    4338,    4410,    4409
   24696,    4338,    4339,    4411,    4410
   24697,    4339,    4340,    4412,    4411
   24698,    4340,    4341,    4413,    4412
   24699,    4341,    4342,    4414,    4413
   24700,    4342,    4343,    4415,    4414
   24701,    4343,    4344,    4416,    4415
   24702,    4344,    4345,    4417,    4416
   24703,    4345,    4346,    4418,    4417
   24704,    4346,    4347,    4419,    4418
   24705,    4347,    4348,    4420,    4419
   24706,    4348,    4349,    4421,    4420
   24707,    4349,    4350,    4422,    4421
   24708,    4350,    4351,    4423,    4422
   24709,    4352,    4353,    4425,    4424
   24710,    4353,    4354,    4426,    4425
   24711,    4354,    4355,    4427,    4426
   24712,    4355,    4356,    4428,    4427
   24713,    4356,    4357,    4429,    4428
   24714,    4357,    4358,    4430,    4429
   24715,    4358,    4359,    4431,    4430
   24716,    4359,    4360,    4432,    4431
   24717,    4360,    4361,    4433,    4432
   24718,    4361,    4362,    4434,    4433
   24719,    4362,    4363,    4435,    4434
   24720,    4363,    4364,    4436,    4435
   24721,    4364,    4365,    4437,    4436
   24722,    4365,    4366,    4438,    4437
   24723,    4366,    4367,    4439,    4438
   24724,    4367,    4368,    4440,    4439
   24725,    4368,    4369,    4441,    4440
   24726,    4369,    4370,    4442,    4441
   24727,    4370,    4371,    4443,    4442
   24728,    4371,    4372,    4444,    4443
   24729,    4372,    4373,    4445,    4444
   24730,    4373,    4374,    4446,    4445
   24731,    4374,    4375,    4447,    4446
   24732,    4375,    4376,    4448,    4447
   24733,    4376,    4377,    4449,    4448
   24734,    4377,    4378,    4450,    4449
   24735,    4378,    4379,    4451,    4450
   24736,    4379,    4380,    4452,    4451
   24737,    4380,    4381,    4453,    4452
   24738,    4381,    4382,    4454,    4453
   24739,    4382,    4383,    4455,    4454
   24740,    4383,    4384,    4456,    4455
   24741,    4384,    4385,    4457,    4456
   24742,    4385,    4386,    4458,    4457
   24743,    4386,    4387,    4459,    4458
   24744,    4387,    4388,    4460,    4459
   24745,    4388,    4389,    4461,    4460
   24746,    4389,    4390,    4462,    4461
   24747,    4390,    4391,    4463,    4462
   24748,    4391,    4392,    4464,    4463
   24749,    4392,    4393,    4465,    4464
   24750,    4393,    4394,    4466,    4465
   24751,    4394,    4395,    4467,    4466
   24752,    4395,    4396,    4468,    4467
   24753,    4396,    4397,    4469,    4468
   24754,    4397,    4398,    4470,    4469
   24755,    4398,    4399,    4471,    4470
   24756,    4399,    4400,    4472,    4471
   24757,    4400,    4401,    4473,    4472
   24758,    4401,    4402,    4474,    4473
   24759,    4402,    4403,    4475,    4474
   24760,    4403,    4404,    4476,    4475
   24761,    4404,    4405,    4477,    4476
   24762,    4405,    4406,    4478,    4477
   24763,    4406,    4407,    4479,    4478
   24764,    4407,    4408,    4480,    4479
   24765,    4408,    4409,    4481,    4480
   24766,    4409,    4410,    4482,    4481
   24767,    4410,    4411,    4483,    4482
   24768,    4411,    4412,    4484,    4483
   24769,    4412,    4413,    4485,    4484
   24770,    4413,    4414,    4486,    4485
   24771,    4414,    4415,    4487,    4486
   24772,    4415,    4416,    4488,    4487
   24773,    4416,    4417,    4489,    4488
   24774,    4417,    4418,    4490,    4489
   24775,    4418,    4419,    4491,    4490
   24776,    4419,    4420,    4492,    4491
   24777,    4420,    4421,    4493,    4492
   24778,    4421,    4422,    4494,    4493
   24779,    4422,    4423,    4495,    4494
   24780,    4424,    4425,    4497,    4496
   24781,    4425,    4426,    4498,    4497
   24782,    4426,    4427,    4499,    4498
   24783,    4427,    4428,    4500,    4499
   24784,    4428,    4429,    4501,    4500
   24785,    4429,    4430,    4502,    4501
   24786,    4430,    4431,    4503,    4502
   24787,    4431,    4432,    4504,    4503
   24788,    4432,    4433,    4505,    4504
   24789,    4433,    4434,    4506,    4505
   24790,    4434,    4435,    4507,    4506
   24791,    4435,    4436,    4508,    4507
   24792,    4436,    4437,    4509,    4508
   24793,    4437,    4438,    4510,    4509
   24794,    4438,    4439,    4511,    4510
   24795,    4439,    4440,    4512,    4511
   24796,    4440,    4441,    4513,    4512
   24797,    4441,    4442,    4514,    4513
   24798,    4442,    4443,    4515,    4514
   24799,    4443,    4444,    4516,    4515
   24800,    4444,    4445,    4517,    4516
   24801,    4445,    4446,    4518,    4517
   24802,    4446,    4447,    4519,    4518
   24803,    4447,    4448,    4520,    4519
   24804,    4448,    4449,    4521,    4520
   24805,    4449,    4450,    4522,    4521
   24806,    4450,    4451,    4523,    4522
   24807,    4451,    4452,    4524,    4523
   24808,    4452,    4453,    4525,    4524
   24809,    4453,    4454,    4526,    4525
   24810,    4454,    4455,    4527,    4526
   24811,    4455,    4456,    4528,    4527
   24812,    4456,    4457,    4529,    4528
   24813,    4457,    4458,    4530,    4529
   24814,    4458,    4459,    4531,    4530
   24815,    4459,    4460,    4532,    4531
   24816,    4460,    4461,    4533,    4532
   24817,    4461,    4462,    4534,    4533
   24818,    4462,    4463,    4535,    4534
   24819,    4463,    4464,    4536,    4535
   24820,    4464,    4465,    4537,    4536
   24821,    4465,    4466,    4538,    4537
   24822,    4466,    4467,    4539,    4538
   24823,    4467,    4468,    4540,    4539
   24824,    4468,    4469,    4541,    4540
   24825,    4469,    4470,    4542,    4541
   24826,    4470,    4471,    4543,    4542
   24827,    4471,    4472,    4544,    4543
   24828,    4472,    4473,    4545,    4544
   24829,    4473,    4474,    4546,    4545
   24830,    4474,    4475,    4547,    4546
   24831,    4475,    4476,    4548,    4547
   24832,    4476,    4477,    4549,    4548
   24833,    4477,    4478,    4550,    4549
   24834,    4478,    4479,    4551,    4550
   24835,    4479,    4480,    4552,    4551
   24836,    4480,    4481,    4553,    4552
   24837,    4481,    4482,    4554,    4553
   24838,    4482,    4483,    4555,    4554
   24839,    4483,    4484,    4556,    4555
   24840,    4484,    4485,    4557,    4556
   24841,    4485,    4486,    4558,    4557
   24842,    4486,    4487,    4559,    4558
   24843,    4487,    4488,    4560,    4559
   24844,    4488,    4489,    4561,    4560
   24845,    4489,    4490,    4562,    4561
   24846,    4490,    4491,    4563,    4562
   24847,    4491,    4492,    4564,    4563
   24848,    4492,    4493,    4565,    4564
   24849,    4493,    4494,    4566,    4565
   24850,    4494,    4495,    4567,    4566
   24851,    4496,    4497,    4569,    4568
   24852,    4497,    4498,    4570,    4569
   24853,    4498,    4499,    4571,    4570
   24854,    4499,    4500,    4572,    4571
   24855,    4500,    4501,    4573,    4572
   24856,    4501,    4502,    4574,    4573
   24857,    4502,    4503,    4575,    4574
   24858,    4503,    4504,    4576,    4575
   24859,    4504,    4505,    4577,    4576
   24860,    4505,    4506,    4578,    4577
   24861,    4506,    4507,    4579,    4578
   24862,    4507,    4508,    4580,    4579
   24863,    4508,    4509,    4581,    4580
   24864,    4509,    4510,    4582,    4581
   24865,    4510,    4511,    4583,    4582
   24866,    4511,    4512,    4584,    4583
   24867,    4512,    4513,    4585,    4584
   24868,    4513,    4514,    4586,    4585
   24869,    4514,    4515,    4587,    4586
   24870,    4515,    4516,    4588,    4587
   24871,    4516,    4517,    4589,    4588
   24872,    4517,    4518,    4590,    4589
   24873,    4518,    4519,    4591,    4590
   24874,    4519,    4520,    4592,    4591
   24875,    4520,    4521,    4593,    4592
   24876,    4521,    4522,    4594,    4593
   24877,    4522,    4523,    4595,    4594
   24878,    4523,    4524,    4596,    4595
   24879,    4524,    4525,    4597,    4596
   24880,    4525,    4526,    4598,    4597
   24881,    4526,    4527,    4599,    4598
   24882,    4527,    4528,    4600,    4599
   24883,    4528,    4529,    4601,    4600
   24884,    4529,    4530,    4602,    4601
   24885,    4530,    4531,    4603,    4602
   24886,    4531,    4532,    4604,    4603
   24887,    4532,    4533,    4605,    4604
   24888,    4533,    4534,    4606,    4605
   24889,    4534,    4535,    4607,    4606
   24890,    4535,    4536,    4608,    4607
   24891,    4536,    4537,    4609,    4608
   24892,    4537,    4538,    4610,    4609
   24893,    4538,    4539,    4611,    4610
   24894,    4539,    4540,    4612,    4611
   24895,    4540,    4541,    4613,    4612
   24896,    4541,    4542,    4614,    4613
   24897,    4542,    4543,    4615,    4614
   24898,    4543,    4544,    4616,    4615
   24899,    4544,    4545,    4617,    4616
   24900,    4545,    4546,    4618,    4617
   24901,    4546,    4547,    4619,    4618
   24902,    4547,    4548,    4620,    4619
   24903,    4548,    4549,    4621,    4620
   24904,    4549,    4550,    4622,    4621
   24905,    4550,    4551,    4623,    4622
   24906,    4551,    4552,    4624,    4623
   24907,    4552,    4553,    4625,    4624
   24908,    4553,    4554,    4626,    4625
   24909,    4554,    4555,    4627,    4626
   24910,    4555,    4556,    4628,    4627
   24911,    4556,    4557,    4629,    4628
   24912,    4557,    4558,    4630,    4629
   24913,    4558,    4559,    4631,    4630
   24914,    4559,    4560,    4632,    4631
   24915,    4560,    4561,    4633,    4632
   24916,    4561,    4562,    4634,    4633
   24917,    4562,    4563,    4635,    4634
   24918,    4563,    4564,    4636,    4635
   24919,    4564,    4565,    4637,    4636
   24920,    4565,    4566,    4638,    4637
   24921,    4566,    4567,    4639,    4638
   24922,    4568,    4569,    4641,    4640
   24923,    4569,    4570,    4642,    4641
   24924,    4570,    4571,    4643,    4642
   24925,    4571,    4572,    4644,    4643
   24926,    4572,    4573,    4645,    4644
   24927,    4573,    4574,    4646,    4645
   24928,    4574,    4575,    4647,    4646
   24929,    4575,    4576,    4648,    4647
   24930,    4576,    4577,    4649,    4648
   24931,    4577,    4578,    4650,    4649
   24932,    4578,    4579,    4651,    4650
   24933,    4579,    4580,    4652,    4651
   24934,    4580,    4581,    4653,    4652
   24935,    4581,    4582,    4654,    4653
   24936,    4582,    4583,    4655,    4654
   24937,    4583,    4584,    4656,    4655
   24938,    4584,    4585,    4657,    4656
   24939,    4585,    4586,    4658,    4657
   24940,    4586,    4587,    4659,    4658
   24941,    4587,    4588,    4660,    4659
   24942,    4588,    4589,    4661,    4660
   24943,    4589,    4590,    4662,    4661
   24944,    4590,    4591,    4663,    4662
   24945,    4591,    4592,    4664,    4663
   24946,    4592,    4593,    4665,    4664
   24947,    4593,    4594,    4666,    4665
   24948,    4594,    4595,    4667,    4666
   24949,    4595,    4596,    4668,    4667
   24950,    4596,    4597,    4669,    4668
   24951,    4597,    4598,    4670,    4669
   24952,    4598,    4599,    4671,    4670
   24953,    4599,    4600,    4672,    4671
   24954,    4600,    4601,    4673,    4672
   24955,    4601,    4602,    4674,    4673
   24956,    4602,    4603,    4675,    4674
   24957,    4603,    4604,    4676,    4675
   24958,    4604,    4605,    4677,    4676
   24959,    4605,    4606,    4678,    4677
   24960,    4606,    4607,    4679,    4678
   24961,    4607,    4608,    4680,    4679
   24962,    4608,    4609,    4681,    4680
   24963,    4609,    4610,    4682,    4681
   24964,    4610,    4611,    4683,    4682
   24965,    4611,    4612,    4684,    4683
   24966,    4612,    4613,    4685,    4684
   24967,    4613,    4614,    4686,    4685
   24968,    4614,    4615,    4687,    4686
   24969,    4615,    4616,    4688,    4687
   24970,    4616,    4617,    4689,    4688
   24971,    4617,    4618,    4690,    4689
   24972,    4618,    4619,    4691,    4690
   24973,    4619,    4620,    4692,    4691
   24974,    4620,    4621,    4693,    4692
   24975,    4621,    4622,    4694,    4693
   24976,    4622,    4623,    4695,    4694
   24977,    4623,    4624,    4696,    4695
   24978,    4624,    4625,    4697,    4696
   24979,    4625,    4626,    4698,    4697
   24980,    4626,    4627,    4699,    4698
   24981,    4627,    4628,    4700,    4699
   24982,    4628,    4629,    4701,    4700
   24983,    4629,    4630,    4702,    4701
   24984,    4630,    4631,    4703,    4702
   24985,    4631,    4632,    4704,    4703
   24986,    4632,    4633,    4705,    4704
   24987,    4633,    4634,    4706,    4705
   24988,    4634,    4635,    4707,    4706
   24989,    4635,    4636,    4708,    4707
   24990,    4636,    4637,    4709,    4708
   24991,    4637,    4638,    4710,    4709
   24992,    4638,    4639,    4711,    4710
   24993,    4640,    4641,    4713,    4712
   24994,    4641,    4642,    4714,    4713
   24995,    4642,    4643,    4715,    4714
   24996,    4643,    4644,    4716,    4715
   24997,    4644,    4645,    4717,    4716
   24998,    4645,    4646,    4718,    4717
   24999,    4646,    4647,    4719,    4718
   25000,    4647,    4648,    4720,    4719
   25001,    4648,    4649,    4721,    4720
   25002,    4649,    4650,    4722,    4721
   25003,    4650,    4651,    4723,    4722
   25004,    4651,    4652,    4724,    4723
   25005,    4652,    4653,    4725,    4724
   25006,    4653,    4654,    4726,    4725
   25007,    4654,    4655,    4727,    4726
   25008,    4655,    4656,    4728,    4727
   25009,    4656,    4657,    4729,    4728
   25010,    4657,    4658,    4730,    4729
   25011,    4658,    4659,    4731,    4730
   25012,    4659,    4660,    4732,    4731
   25013,    4660,    4661,    4733,    4732
   25014,    4661,    4662,    4734,    4733
   25015,    4662,    4663,    4735,    4734
   25016,    4663,    4664,    4736,    4735
   25017,    4664,    4665,    4737,    4736
   25018,    4665,    4666,    4738,    4737
   25019,    4666,    4667,    4739,    4738
   25020,    4667,    4668,    4740,    4739
   25021,    4668,    4669,    4741,    4740
   25022,    4669,    4670,    4742,    4741
   25023,    4670,    4671,    4743,    4742
   25024,    4671,    4672,    4744,    4743
   25025,    4672,    4673,    4745,    4744
   25026,    4673,    4674,    4746,    4745
   25027,    4674,    4675,    4747,    4746
   25028,    4675,    4676,    4748,    4747
   25029,    4676,    4677,    4749,    4748
   25030,    4677,    4678,    4750,    4749
   25031,    4678,    4679,    4751,    4750
   25032,    4679,    4680,    4752,    4751
   25033,    4680,    4681,    4753,    4752
   25034,    4681,    4682,    4754,    4753
   25035,    4682,    4683,    4755,    4754
   25036,    4683,    4684,    4756,    4755
   25037,    4684,    4685,    4757,    4756
   25038,    4685,    4686,    4758,    4757
   25039,    4686,    4687,    4759,    4758
   25040,    4687,    4688,    4760,    4759
   25041,    4688,    4689,    4761,    4760
   25042,    4689,    4690,    4762,    4761
   25043,    4690,    4691,    4763,    4762
   25044,    4691,    4692,    4764,    4763
   25045,    4692,    4693,    4765,    4764
   25046,    4693,    4694,    4766,    4765
   25047,    4694,    4695,    4767,    4766
   25048,    4695,    4696,    4768,    4767
   25049,    4696,    4697,    4769,    4768
   25050,    4697,    4698,    4770,    4769
   25051,    4698,    4699,    4771,    4770
   25052,    4699,    4700,    4772,    4771
   25053,    4700,    4701,    4773,    4772
   25054,    4701,    4702,    4774,    4773
   25055,    4702,    4703,    4775,    4774
   25056,    4703,    4704,    4776,    4775
   25057,    4704,    4705,    4777,    4776
   25058,    4705,    4706,    4778,    4777
   25059,    4706,    4707,    4779,    4778
   25060,    4707,    4708,    4780,    4779
   25061,    4708,    4709,    4781,    4780
   25062,    4709,    4710,    4782,    4781
   25063,    4710,    4711,    4783,    4782
   25064,    4712,    4713,    4785,    4784
   25065,    4713,    4714,    4786,    4785
   25066,    4714,    4715,    4787,    4786
   25067,    4715,    4716,    4788,    4787
   25068,    4716,    4717,    4789,    4788
   25069,    4717,    4718,    4790,    4789
   25070,    4718,    4719,    4791,    4790
   25071,    4719,    4720,    4792,    4791
   25072,    4720,    4721,    4793,    4792
   25073,    4721,    4722,    4794,    4793
   25074,    4722,    4723,    4795,    4794
   25075,    4723,    4724,    4796,    4795
   25076,    4724,    4725,    4797,    4796
   25077,    4725,    4726,    4798,    4797
   25078,    4726,    4727,    4799,    4798
   25079,    4727,    4728,    4800,    4799
   25080,    4728,    4729,    4801,    4800
   25081,    4729,    4730,    4802,    4801
   25082,    4730,    4731,    4803,    4802
   25083,    4731,    4732,    4804,    4803
   25084,    4732,    4733,    4805,    4804
   25085,    4733,    4734,    4806,    4805
   25086,    4734,    4735,    4807,    4806
   25087,    4735,    4736,    4808,    4807
   25088,    4736,    4737,    4809,    4808
   25089,    4737,    4738,    4810,    4809
   25090,    4738,    4739,    4811,    4810
   25091,    4739,    4740,    4812,    4811
   25092,    4740,    4741,    4813,    4812
   25093,    4741,    4742,    4814,    4813
   25094,    4742,    4743,    4815,    4814
   25095,    4743,    4744,    4816,    4815
   25096,    4744,    4745,    4817,    4816
   25097,    4745,    4746,    4818,    4817
   25098,    4746,    4747,    4819,    4818
   25099,    4747,    4748,    4820,    4819
   25100,    4748,    4749,    4821,    4820
   25101,    4749,    4750,    4822,    4821
   25102,    4750,    4751,    4823,    4822
   25103,    4751,    4752,    4824,    4823
   25104,    4752,    4753,    4825,    4824
   25105,    4753,    4754,    4826,    4825
   25106,    4754,    4755,    4827,    4826
   25107,    4755,    4756,    4828,    4827
   25108,    4756,    4757,    4829,    4828
   25109,    4757,    4758,    4830,    4829
   25110,    4758,    4759,    4831,    4830
   25111,    4759,    4760,    4832,    4831
   25112,    4760,    4761,    4833,    4832
   25113,    4761,    4762,    4834,    4833
   25114,    4762,    4763,    4835,    4834
   25115,    4763,    4764,    4836,    4835
   25116,    4764,    4765,    4837,    4836
   25117,    4765,    4766,    4838,    4837
   25118,    4766,    4767,    4839,    4838
   25119,    4767,    4768,    4840,    4839
   25120,    4768,    4769,    4841,    4840
   25121,    4769,    4770,    4842,    4841
   25122,    4770,    4771,    4843,    4842
   25123,    4771,    4772,    4844,    4843
   25124,    4772,    4773,    4845,    4844
   25125,    4773,    4774,    4846,    4845
   25126,    4774,    4775,    4847,    4846
   25127,    4775,    4776,    4848,    4847
   25128,    4776,    4777,    4849,    4848
   25129,    4777,    4778,    4850,    4849
   25130,    4778,    4779,    4851,    4850
   25131,    4779,    4780,    4852,    4851
   25132,    4780,    4781,    4853,    4852
   25133,    4781,    4782,    4854,    4853
   25134,    4782,    4783,    4855,    4854
   25135,    4784,    4785,    4857,    4856
   25136,    4785,    4786,    4858,    4857
   25137,    4786,    4787,    4859,    4858
   25138,    4787,    4788,    4860,    4859
   25139,    4788,    4789,    4861,    4860
   25140,    4789,    4790,    4862,    4861
   25141,    4790,    4791,    4863,    4862
   25142,    4791,    4792,    4864,    4863
   25143,    4792,    4793,    4865,    4864
   25144,    4793,    4794,    4866,    4865
   25145,    4794,    4795,    4867,    4866
   25146,    4795,    4796,    4868,    4867
   25147,    4796,    4797,    4869,    4868
   25148,    4797,    4798,    4870,    4869
   25149,    4798,    4799,    4871,    4870
   25150,    4799,    4800,    4872,    4871
   25151,    4800,    4801,    4873,    4872
   25152,    4801,    4802,    4874,    4873
   25153,    4802,    4803,    4875,    4874
   25154,    4803,    4804,    4876,    4875
   25155,    4804,    4805,    4877,    4876
   25156,    4805,    4806,    4878,    4877
   25157,    4806,    4807,    4879,    4878
   25158,    4807,    4808,    4880,    4879
   25159,    4808,    4809,    4881,    4880
   25160,    4809,    4810,    4882,    4881
   25161,    4810,    4811,    4883,    4882
   25162,    4811,    4812,    4884,    4883
   25163,    4812,    4813,    4885,    4884
   25164,    4813,    4814,    4886,    4885
   25165,    4814,    4815,    4887,    4886
   25166,    4815,    4816,    4888,    4887
   25167,    4816,    4817,    4889,    4888
   25168,    4817,    4818,    4890,    4889
   25169,    4818,    4819,    4891,    4890
   25170,    4819,    4820,    4892,    4891
   25171,    4820,    4821,    4893,    4892
   25172,    4821,    4822,    4894,    4893
   25173,    4822,    4823,    4895,    4894
   25174,    4823,    4824,    4896,    4895
   25175,    4824,    4825,    4897,    4896
   25176,    4825,    4826,    4898,    4897
   25177,    4826,    4827,    4899,    4898
   25178,    4827,    4828,    4900,    4899
   25179,    4828,    4829,    4901,    4900
   25180,    4829,    4830,    4902,    4901
   25181,    4830,    4831,    4903,    4902
   25182,    4831,    4832,    4904,    4903
   25183,    4832,    4833,    4905,    4904
   25184,    4833,    4834,    4906,    4905
   25185,    4834,    4835,    4907,    4906
   25186,    4835,    4836,    4908,    4907
   25187,    4836,    4837,    4909,    4908
   25188,    4837,    4838,    4910,    4909
   25189,    4838,    4839,    4911,    4910
   25190,    4839,    4840,    4912,    4911
   25191,    4840,    4841,    4913,    4912
   25192,    4841,    4842,    4914,    4913
   25193,    4842,    4843,    4915,    4914
   25194,    4843,    4844,    4916,    4915
   25195,    4844,    4845,    4917,    4916
   25196,    4845,    4846,    4918,    4917
   25197,    4846,    4847,    4919,    4918
   25198,    4847,    4848,    4920,    4919
   25199,    4848,    4849,    4921,    4920
   25200,    4849,    4850,    4922,    4921
   25201,    4850,    4851,    4923,    4922
   25202,    4851,    4852,    4924,    4923
   25203,    4852,    4853,    4925,    4924
   25204,    4853,    4854,    4926,    4925
   25205,    4854,    4855,    4927,    4926
   25206,    4856,    4857,    4929,    4928
   25207,    4857,    4858,    4930,    4929
   25208,    4858,    4859,    4931,    4930
   25209,    4859,    4860,    4932,    4931
   25210,    4860,    4861,    4933,    4932
   25211,    4861,    4862,    4934,    4933
   25212,    4862,    4863,    4935,    4934
   25213,    4863,    4864,    4936,    4935
   25214,    4864,    4865,    4937,    4936
   25215,    4865,    4866,    4938,    4937
   25216,    4866,    4867,    4939,    4938
   25217,    4867,    4868,    4940,    4939
   25218,    4868,    4869,    4941,    4940
   25219,    4869,    4870,    4942,    4941
   25220,    4870,    4871,    4943,    4942
   25221,    4871,    4872,    4944,    4943
   25222,    4872,    4873,    4945,    4944
   25223,    4873,    4874,    4946,    4945
   25224,    4874,    4875,    4947,    4946
   25225,    4875,    4876,    4948,    4947
   25226,    4876,    4877,    4949,    4948
   25227,    4877,    4878,    4950,    4949
   25228,    4878,    4879,    4951,    4950
   25229,    4879,    4880,    4952,    4951
   25230,    4880,    4881,    4953,    4952
   25231,    4881,    4882,    4954,    4953
   25232,    4882,    4883,    4955,    4954
   25233,    4883,    4884,    4956,    4955
   25234,    4884,    4885,    4957,    4956
   25235,    4885,    4886,    4958,    4957
   25236,    4886,    4887,    4959,    4958
   25237,    4887,    4888,    4960,    4959
   25238,    4888,    4889,    4961,    4960
   25239,    4889,    4890,    4962,    4961
   25240,    4890,    4891,    4963,    4962
   25241,    4891,    4892,    4964,    4963
   25242,    4892,    4893,    4965,    4964
   25243,    4893,    4894,    4966,    4965
   25244,    4894,    4895,    4967,    4966
   25245,    4895,    4896,    4968,    4967
   25246,    4896,    4897,    4969,    4968
   25247,    4897,    4898,    4970,    4969
   25248,    4898,    4899,    4971,    4970
   25249,    4899,    4900,    4972,    4971
   25250,    4900,    4901,    4973,    4972
   25251,    4901,    4902,    4974,    4973
   25252,    4902,    4903,    4975,    4974
   25253,    4903,    4904,    4976,    4975
   25254,    4904,    4905,    4977,    4976
   25255,    4905,    4906,    4978,    4977
   25256,    4906,    4907,    4979,    4978
   25257,    4907,    4908,    4980,    4979
   25258,    4908,    4909,    4981,    4980
   25259,    4909,    4910,    4982,    4981
   25260,    4910,    4911,    4983,    4982
   25261,    4911,    4912,    4984,    4983
   25262,    4912,    4913,    4985,    4984
   25263,    4913,    4914,    4986,    4985
   25264,    4914,    4915,    4987,    4986
   25265,    4915,    4916,    4988,    4987
   25266,    4916,    4917,    4989,    4988
   25267,    4917,    4918,    4990,    4989
   25268,    4918,    4919,    4991,    4990
   25269,    4919,    4920,    4992,    4991
   25270,    4920,    4921,    4993,    4992
   25271,    4921,    4922,    4994,    4993
   25272,    4922,    4923,    4995,    4994
   25273,    4923,    4924,    4996,    4995
   25274,    4924,    4925,    4997,    4996
   25275,    4925,    4926,    4998,    4997
   25276,    4926,    4927,    4999,    4998
   25277,    4928,    4929,    5001,    5000
   25278,    4929,    4930,    5002,    5001
   25279,    4930,    4931,    5003,    5002
   25280,    4931,    4932,    5004,    5003
   25281,    4932,    4933,    5005,    5004
   25282,    4933,    4934,    5006,    5005
   25283,    4934,    4935,    5007,    5006
   25284,    4935,    4936,    5008,    5007
   25285,    4936,    4937,    5009,    5008
   25286,    4937,    4938,    5010,    5009
   25287,    4938,    4939,    5011,    5010
   25288,    4939,    4940,    5012,    5011
   25289,    4940,    4941,    5013,    5012
   25290,    4941,    4942,    5014,    5013
   25291,    4942,    4943,    5015,    5014
   25292,    4943,    4944,    5016,    5015
   25293,    4944,    4945,    5017,    5016
   25294,    4945,    4946,    5018,    5017
   25295,    4946,    4947,    5019,    5018
   25296,    4947,    4948,    5020,    5019
   25297,    4948,    4949,    5021,    5020
   25298,    4949,    4950,    5022,    5021
   25299,    4950,    4951,    5023,    5022
   25300,    4951,    4952,    5024,    5023
   25301,    4952,    4953,    5025,    5024
   25302,    4953,    4954,    5026,    5025
   25303,    4954,    4955,    5027,    5026
   25304,    4955,    4956,    5028,    5027
   25305,    4956,    4957,    5029,    5028
   25306,    4957,    4958,    5030,    5029
   25307,    4958,    4959,    5031,    5030
   25308,    4959,    4960,    5032,    5031
   25309,    4960,    4961,    5033,    5032
   25310,    4961,    4962,    5034,    5033
   25311,    4962,    4963,    5035,    5034
   25312,    4963,    4964,    5036,    5035
   25313,    4964,    4965,    5037,    5036
   25314,    4965,    4966,    5038,    5037
   25315,    4966,    4967,    5039,    5038
   25316,    4967,    4968,    5040,    5039
   25317,    4968,    4969,    5041,    5040
   25318,    4969,    4970,    5042,    5041
   25319,    4970,    4971,    5043,    5042
   25320,    4971,    4972,    5044,    5043
   25321,    4972,    4973,    5045,    5044
   25322,    4973,    4974,    5046,    5045
   25323,    4974,    4975,    5047,    5046
   25324,    4975,    4976,    5048,    5047
   25325,    4976,    4977,    5049,    5048
   25326,    4977,    4978,    5050,    5049
   25327,    4978,    4979,    5051,    5050
   25328,    4979,    4980,    5052,    5051
   25329,    4980,    4981,    5053,    5052
   25330,    4981,    4982,    5054,    5053
   25331,    4982,    4983,    5055,    5054
   25332,    4983,    4984,    5056,    5055
   25333,    4984,    4985,    5057,    5056
   25334,    4985,    4986,    5058,    5057
   25335,    4986,    4987,    5059,    5058
   25336,    4987,    4988,    5060,    5059
   25337,    4988,    4989,    5061,    5060
   25338,    4989,    4990,    5062,    5061
   25339,    4990,    4991,    5063,    5062
   25340,    4991,    4992,    5064,    5063
   25341,    4992,    4993,    5065,    5064
   25342,    4993,    4994,    5066,    5065
   25343,    4994,    4995,    5067,    5066
   25344,    4995,    4996,    5068,    5067
   25345,    4996,    4997,    5069,    5068
   25346,    4997,    4998,    5070,    5069
   25347,    4998,    4999,    5071,    5070
   25348,    5000,    5001,    5073,    5072
   25349,    5001,    5002,    5074,    5073
   25350,    5002,    5003,    5075,    5074
   25351,    5003,    5004,    5076,    5075
   25352,    5004,    5005,    5077,    5076
   25353,    5005,    5006,    5078,    5077
   25354,    5006,    5007,    5079,    5078
   25355,    5007,    5008,    5080,    5079
   25356,    5008,    5009,    5081,    5080
   25357,    5009,    5010,    5082,    5081
   25358,    5010,    5011,    5083,    5082
   25359,    5011,    5012,    5084,    5083
   25360,    5012,    5013,    5085,    5084
   25361,    5013,    5014,    5086,    5085
   25362,    5014,    5015,    5087,    5086
   25363,    5015,    5016,    5088,    5087
   25364,    5016,    5017,    5089,    5088
   25365,    5017,    5018,    5090,    5089
   25366,    5018,    5019,    5091,    5090
   25367,    5019,    5020,    5092,    5091
   25368,    5020,    5021,    5093,    5092
   25369,    5021,    5022,    5094,    5093
   25370,    5022,    5023,    5095,    5094
   25371,    5023,    5024,    5096,    5095
   25372,    5024,    5025,    5097,    5096
   25373,    5025,    5026,    5098,    5097
   25374,    5026,    5027,    5099,    5098
   25375,    5027,    5028,    5100,    5099
   25376,    5028,    5029,    5101,    5100
   25377,    5029,    5030,    5102,    5101
   25378,    5030,    5031,    5103,    5102
   25379,    5031,    5032,    5104,    5103
   25380,    5032,    5033,    5105,    5104
   25381,    5033,    5034,    5106,    5105
   25382,    5034,    5035,    5107,    5106
   25383,    5035,    5036,    5108,    5107
   25384,    5036,    5037,    5109,    5108
   25385,    5037,    5038,    5110,    5109
   25386,    5038,    5039,    5111,    5110
   25387,    5039,    5040,    5112,    5111
   25388,    5040,    5041,    5113,    5112
   25389,    5041,    5042,    5114,    5113
   25390,    5042,    5043,    5115,    5114
   25391,    5043,    5044,    5116,    5115
   25392,    5044,    5045,    5117,    5116
   25393,    5045,    5046,    5118,    5117
   25394,    5046,    5047,    5119,    5118
   25395,    5047,    5048,    5120,    5119
   25396,    5048,    5049,    5121,    5120
   25397,    5049,    5050,    5122,    5121
   25398,    5050,    5051,    5123,    5122
   25399,    5051,    5052,    5124,    5123
   25400,    5052,    5053,    5125,    5124
   25401,    5053,    5054,    5126,    5125
   25402,    5054,    5055,    5127,    5126
   25403,    5055,    5056,    5128,    5127
   25404,    5056,    5057,    5129,    5128
   25405,    5057,    5058,    5130,    5129
   25406,    5058,    5059,    5131,    5130
   25407,    5059,    5060,    5132,    5131
   25408,    5060,    5061,    5133,    5132
   25409,    5061,    5062,    5134,    5133
   25410,    5062,    5063,    5135,    5134
   25411,    5063,    5064,    5136,    5135
   25412,    5064,    5065,    5137,    5136
   25413,    5065,    5066,    5138,    5137
   25414,    5066,    5067,    5139,    5138
   25415,    5067,    5068,    5140,    5139
   25416,    5068,    5069,    5141,    5140
   25417,    5069,    5070,    5142,    5141
   25418,    5070,    5071,    5143,    5142
   25419,    5072,    5073,    5145,    5144
   25420,    5073,    5074,    5146,    5145
   25421,    5074,    5075,    5147,    5146
   25422,    5075,    5076,    5148,    5147
   25423,    5076,    5077,    5149,    5148
   25424,    5077,    5078,    5150,    5149
   25425,    5078,    5079,    5151,    5150
   25426,    5079,    5080,    5152,    5151
   25427,    5080,    5081,    5153,    5152
   25428,    5081,    5082,    5154,    5153
   25429,    5082,    5083,    5155,    5154
   25430,    5083,    5084,    5156,    5155
   25431,    5084,    5085,    5157,    5156
   25432,    5085,    5086,    5158,    5157
   25433,    5086,    5087,    5159,    5158
   25434,    5087,    5088,    5160,    5159
   25435,    5088,    5089,    5161,    5160
   25436,    5089,    5090,    5162,    5161
   25437,    5090,    5091,    5163,    5162
   25438,    5091,    5092,    5164,    5163
   25439,    5092,    5093,    5165,    5164
   25440,    5093,    5094,    5166,    5165
   25441,    5094,    5095,    5167,    5166
   25442,    5095,    5096,    5168,    5167
   25443,    5096,    5097,    5169,    5168
   25444,    5097,    5098,    5170,    5169
   25445,    5098,    5099,    5171,    5170
   25446,    5099,    5100,    5172,    5171
   25447,    5100,    5101,    5173,    5172
   25448,    5101,    5102,    5174,    5173
   25449,    5102,    5103,    5175,    5174
   25450,    5103,    5104,    5176,    5175
   25451,    5104,    5105,    5177,    5176
   25452,    5105,    5106,    5178,    5177
   25453,    5106,    5107,    5179,    5178
   25454,    5107,    5108,    5180,    5179
   25455,    5108,    5109,    5181,    5180
   25456,    5109,    5110,    5182,    5181
   25457,    5110,    5111,    5183,    5182
   25458,    5111,    5112,    5184,    5183
   25459,    5112,    5113,    5185,    5184
   25460,    5113,    5114,    5186,    5185
   25461,    5114,    5115,    5187,    5186
   25462,    5115,    5116,    5188,    5187
   25463,    5116,    5117,    5189,    5188
   25464,    5117,    5118,    5190,    5189
   25465,    5118,    5119,    5191,    5190
   25466,    5119,    5120,    5192,    5191
   25467,    5120,    5121,    5193,    5192
   25468,    5121,    5122,    5194,    5193
   25469,    5122,    5123,    5195,    5194
   25470,    5123,    5124,    5196,    5195
   25471,    5124,    5125,    5197,    5196
   25472,    5125,    5126,    5198,    5197
   25473,    5126,    5127,    5199,    5198
   25474,    5127,    5128,    5200,    5199
   25475,    5128,    5129,    5201,    5200
   25476,    5129,    5130,    5202,    5201
   25477,    5130,    5131,    5203,    5202
   25478,    5131,    5132,    5204,    5203
   25479,    5132,    5133,    5205,    5204
   25480,    5133,    5134,    5206,    5205
   25481,    5134,    5135,    5207,    5206
   25482,    5135,    5136,    5208,    5207
   25483,    5136,    5137,    5209,    5208
   25484,    5137,    5138,    5210,    5209
   25485,    5138,    5139,    5211,    5210
   25486,    5139,    5140,    5212,    5211
   25487,    5140,    5141,    5213,    5212
   25488,    5141,    5142,    5214,    5213
   25489,    5142,    5143,    5215,    5214
   25490,    5144,    5145,    5217,    5216
   25491,    5145,    5146,    5218,    5217
   25492,    5146,    5147,    5219,    5218
   25493,    5147,    5148,    5220,    5219
   25494,    5148,    5149,    5221,    5220
   25495,    5149,    5150,    5222,    5221
   25496,    5150,    5151,    5223,    5222
   25497,    5151,    5152,    5224,    5223
   25498,    5152,    5153,    5225,    5224
   25499,    5153,    5154,    5226,    5225
   25500,    5154,    5155,    5227,    5226
   25501,    5155,    5156,    5228,    5227
   25502,    5156,    5157,    5229,    5228
   25503,    5157,    5158,    5230,    5229
   25504,    5158,    5159,    5231,    5230
   25505,    5159,    5160,    5232,    5231
   25506,    5160,    5161,    5233,    5232
   25507,    5161,    5162,    5234,    5233
   25508,    5162,    5163,    5235,    5234
   25509,    5163,    5164,    5236,    5235
   25510,    5164,    5165,    5237,    5236
   25511,    5165,    5166,    5238,    5237
   25512,    5166,    5167,    5239,    5238
   25513,    5167,    5168,    5240,    5239
   25514,    5168,    5169,    5241,    5240
   25515,    5169,    5170,    5242,    5241
   25516,    5170,    5171,    5243,    5242
   25517,    5171,    5172,    5244,    5243
   25518,    5172,    5173,    5245,    5244
   25519,    5173,    5174,    5246,    5245
   25520,    5174,    5175,    5247,    5246
   25521,    5175,    5176,    5248,    5247
   25522,    5176,    5177,    5249,    5248
   25523,    5177,    5178,    5250,    5249
   25524,    5178,    5179,    5251,    5250
   25525,    5179,    5180,    5252,    5251
   25526,    5180,    5181,    5253,    5252
   25527,    5181,    5182,    5254,    5253
   25528,    5182,    5183,    5255,    5254
   25529,    5183,    5184,    5256,    5255
   25530,    5184,    5185,    5257,    5256
   25531,    5185,    5186,    5258,    5257
   25532,    5186,    5187,    5259,    5258
   25533,    5187,    5188,    5260,    5259
   25534,    5188,    5189,    5261,    5260
   25535,    5189,    5190,    5262,    5261
   25536,    5190,    5191,    5263,    5262
   25537,    5191,    5192,    5264,    5263
   25538,    5192,    5193,    5265,    5264
   25539,    5193,    5194,    5266,    5265
   25540,    5194,    5195,    5267,    5266
   25541,    5195,    5196,    5268,    5267
   25542,    5196,    5197,    5269,    5268
   25543,    5197,    5198,    5270,    5269
   25544,    5198,    5199,    5271,    5270
   25545,    5199,    5200,    5272,    5271
   25546,    5200,    5201,    5273,    5272
   25547,    5201,    5202,    5274,    5273
   25548,    5202,    5203,    5275,    5274
   25549,    5203,    5204,    5276,    5275
   25550,    5204,    5205,    5277,    5276
   25551,    5205,    5206,    5278,    5277
   25552,    5206,    5207,    5279,    5278
   25553,    5207,    5208,    5280,    5279
   25554,    5208,    5209,    5281,    5280
   25555,    5209,    5210,    5282,    5281
   25556,    5210,    5211,    5283,    5282
   25557,    5211,    5212,    5284,    5283
   25558,    5212,    5213,    5285,    5284
   25559,    5213,    5214,    5286,    5285
   25560,    5214,    5215,    5287,    5286
** Aggregate Element Sets
*Elset, elset=PHASE
 PHASE_QUAD
*Elset, elset=DISP
 DISP_QUAD
*Elset, elset=UMATELEM
 UMAT_QUAD
*Elset, elset=All_elem
 UMATELEM
*Nset, nset=bottom_nodes
       1,       2,       3,       4,       5,       6,       7,       8,       9,      10,      11,      12,      13,      14,      15,      16
      17,      18,      19,      20,      21,      22,      23,      24,      25,      26,      27,      28,      29,      30,      31,      32
      33,      34,      35,      36,      37,      38,      39,      40,      41,      42,      43,      44,      45,      46,      47,      48
      49,      50,      51,      52,      53,      54,      55,      56,      57,      58,      59,      60,      61,      62,      63,      64
      65,      66,      67,      68,      69,      70,      71,      72
*Nset, nset=top_nodes
    5216,    5217,    5218,    5219,    5220,    5221,    5222,    5223,    5224,    5225,    5226,    5227,    5228,    5229,    5230,    5231
    5232,    5233,    5234,    5235,    5236,    5237,    5238,    5239,    5240,    5241,    5242,    5243,    5244,    5245,    5246,    5247
    5248,    5249,    5250,    5251,    5252,    5253,    5254,    5255,    5256,    5257,    5258,    5259,    5260,    5261,    5262,    5263
    5264,    5265,    5266,    5267,    5268,    5269,    5270,    5271,    5272,    5273,    5274,    5275,    5276,    5277,    5278,    5279
    5280,    5281,    5282,    5283,    5284,    5285,    5286,    5287
*Nset, nset=RP
   99999
*UEL Property, elset=PHASE_QUAD
 1.500000e-02, 2.700000e-03, 2.100000e+02, 3.000000e-01, 1.000000e-07, 5112.0, 1.0
*UEL Property, elset=DISP_QUAD
 1.500000e-02, 2.700000e-03, 2.100000e+02, 3.000000e-01, 1.000000e-07, 5112.0, 1.0
*Solid Section, elset=UMAT_QUAD, material=MAT_QUAD_FACSIMILE
 1.000000e+00
*Material, name=MAT_QUAD_FACSIMILE
*Depvar
 18
*User Material, constants=4
 1.000000e-11, 3.000000e-01, 5112.0, 4.0
** Mode-II Shear Coupling Equations (top_nodes U1 -> RP U1)
*Equation
 2
 5216, 1, 1.0, 99999, 1, -1.0
*Equation
 2
 5217, 1, 1.0, 99999, 1, -1.0
*Equation
 2
 5218, 1, 1.0, 99999, 1, -1.0
*Equation
 2
 5219, 1, 1.0, 99999, 1, -1.0
*Equation
 2
 5220, 1, 1.0, 99999, 1, -1.0
*Equation
 2
 5221, 1, 1.0, 99999, 1, -1.0
*Equation
 2
 5222, 1, 1.0, 99999, 1, -1.0
*Equation
 2
 5223, 1, 1.0, 99999, 1, -1.0
*Equation
 2
 5224, 1, 1.0, 99999, 1, -1.0
*Equation
 2
 5225, 1, 1.0, 99999, 1, -1.0
*Equation
 2
 5226, 1, 1.0, 99999, 1, -1.0
*Equation
 2
 5227, 1, 1.0, 99999, 1, -1.0
*Equation
 2
 5228, 1, 1.0, 99999, 1, -1.0
*Equation
 2
 5229, 1, 1.0, 99999, 1, -1.0
*Equation
 2
 5230, 1, 1.0, 99999, 1, -1.0
*Equation
 2
 5231, 1, 1.0, 99999, 1, -1.0
*Equation
 2
 5232, 1, 1.0, 99999, 1, -1.0
*Equation
 2
 5233, 1, 1.0, 99999, 1, -1.0
*Equation
 2
 5234, 1, 1.0, 99999, 1, -1.0
*Equation
 2
 5235, 1, 1.0, 99999, 1, -1.0
*Equation
 2
 5236, 1, 1.0, 99999, 1, -1.0
*Equation
 2
 5237, 1, 1.0, 99999, 1, -1.0
*Equation
 2
 5238, 1, 1.0, 99999, 1, -1.0
*Equation
 2
 5239, 1, 1.0, 99999, 1, -1.0
*Equation
 2
 5240, 1, 1.0, 99999, 1, -1.0
*Equation
 2
 5241, 1, 1.0, 99999, 1, -1.0
*Equation
 2
 5242, 1, 1.0, 99999, 1, -1.0
*Equation
 2
 5243, 1, 1.0, 99999, 1, -1.0
*Equation
 2
 5244, 1, 1.0, 99999, 1, -1.0
*Equation
 2
 5245, 1, 1.0, 99999, 1, -1.0
*Equation
 2
 5246, 1, 1.0, 99999, 1, -1.0
*Equation
 2
 5247, 1, 1.0, 99999, 1, -1.0
*Equation
 2
 5248, 1, 1.0, 99999, 1, -1.0
*Equation
 2
 5249, 1, 1.0, 99999, 1, -1.0
*Equation
 2
 5250, 1, 1.0, 99999, 1, -1.0
*Equation
 2
 5251, 1, 1.0, 99999, 1, -1.0
*Equation
 2
 5252, 1, 1.0, 99999, 1, -1.0
*Equation
 2
 5253, 1, 1.0, 99999, 1, -1.0
*Equation
 2
 5254, 1, 1.0, 99999, 1, -1.0
*Equation
 2
 5255, 1, 1.0, 99999, 1, -1.0
*Equation
 2
 5256, 1, 1.0, 99999, 1, -1.0
*Equation
 2
 5257, 1, 1.0, 99999, 1, -1.0
*Equation
 2
 5258, 1, 1.0, 99999, 1, -1.0
*Equation
 2
 5259, 1, 1.0, 99999, 1, -1.0
*Equation
 2
 5260, 1, 1.0, 99999, 1, -1.0
*Equation
 2
 5261, 1, 1.0, 99999, 1, -1.0
*Equation
 2
 5262, 1, 1.0, 99999, 1, -1.0
*Equation
 2
 5263, 1, 1.0, 99999, 1, -1.0
*Equation
 2
 5264, 1, 1.0, 99999, 1, -1.0
*Equation
 2
 5265, 1, 1.0, 99999, 1, -1.0
*Equation
 2
 5266, 1, 1.0, 99999, 1, -1.0
*Equation
 2
 5267, 1, 1.0, 99999, 1, -1.0
*Equation
 2
 5268, 1, 1.0, 99999, 1, -1.0
*Equation
 2
 5269, 1, 1.0, 99999, 1, -1.0
*Equation
 2
 5270, 1, 1.0, 99999, 1, -1.0
*Equation
 2
 5271, 1, 1.0, 99999, 1, -1.0
*Equation
 2
 5272, 1, 1.0, 99999, 1, -1.0
*Equation
 2
 5273, 1, 1.0, 99999, 1, -1.0
*Equation
 2
 5274, 1, 1.0, 99999, 1, -1.0
*Equation
 2
 5275, 1, 1.0, 99999, 1, -1.0
*Equation
 2
 5276, 1, 1.0, 99999, 1, -1.0
*Equation
 2
 5277, 1, 1.0, 99999, 1, -1.0
*Equation
 2
 5278, 1, 1.0, 99999, 1, -1.0
*Equation
 2
 5279, 1, 1.0, 99999, 1, -1.0
*Equation
 2
 5280, 1, 1.0, 99999, 1, -1.0
*Equation
 2
 5281, 1, 1.0, 99999, 1, -1.0
*Equation
 2
 5282, 1, 1.0, 99999, 1, -1.0
*Equation
 2
 5283, 1, 1.0, 99999, 1, -1.0
*Equation
 2
 5284, 1, 1.0, 99999, 1, -1.0
*Equation
 2
 5285, 1, 1.0, 99999, 1, -1.0
*Equation
 2
 5286, 1, 1.0, 99999, 1, -1.0
*Equation
 2
 5287, 1, 1.0, 99999, 1, -1.0
** ==========================================================
** STEP 1: State Installation & Binary History Ingestion
** ==========================================================
*Step, name=STATE_INSTALL, nlgeom=NO, inc=10
*Static
 1.0, 1.0, 1.0e-5, 1.0
*Boundary, op=NEW
*Include, input=TARGET_REAL_PILOT_CYCLE_013_STATE_INSTALL_BOUNDARY.inp
*Output, field, freq=1
*Node Output, nset=RP
 U, RF
*End Step
** ==========================================================
** STEP 2: Mechanical Equilibration (Phase Field Locked)
** ==========================================================
*Step, name=MECH_EQUILIBRATION, nlgeom=NO, inc=100
*Static
 1.0, 1.0, 1.0e-5, 1.0
*Boundary, op=NEW
 bottom_nodes, 1, 2, 0.0
 RP, 1, 1, 4.051289111376e-02
 RP, 2, 2, 0.0
*Include, input=TARGET_REAL_PILOT_CYCLE_013_U3_ONLY_BOUNDARY.inp
*Output, field, freq=1
*Node Output, nset=RP
 U, RF
*End Step
** ==========================================================
** STEP 3: Phase Field Release & Equilibrium (IA=25, dt_min=1e-14)
** ==========================================================
*Step, name=PHASE_RELEASE, nlgeom=NO, inc=500
*Static
 0.001, 1.0, 1.0e-14, 1.0
*Controls, parameters=time incrementation
 25, 25, 25, 25, 25, 4, 50, 25
*Controls, parameters=field, field=displacement
 0.01, 10.0
*Controls, parameters=field, field=temperature
 0.01, 10.0
*Boundary, op=NEW
 bottom_nodes, 1, 2, 0.0
 RP, 1, 1, 4.051289111376e-02
 RP, 2, 2, 0.0
*Output, field, freq=1
*Node Output, nset=RP
 U, RF
*End Step
** ==========================================================
** STEP 4: Continuation Monotonic Shear (0.040513 mm -> 0.043013 mm)
** ==========================================================
*Step, name=CONTINUATION, nlgeom=NO, inc=10000
*Static
 0.001, 1.0, 1.0e-14, 0.02
*Controls, parameters=time incrementation
 25, 25, 25, 25, 25, 4, 50, 25
*Controls, parameters=field, field=displacement
 0.05, 10.0
*Controls, parameters=field, field=temperature
 0.05, 10.0
*Boundary, op=MOD
 RP, 1, 1, 4.301289111376e-02
 RP, 2, 2, 0.0
*Output, field, freq=1
*Node Output
 U, RF
*Node Output, nset=RP
 U, RF
*Element Output, elset=UMATELEM
 S, E, SDV, EVOL
*Output, history, variable=PRESELECT
*Energy Output
 ALLAE, ALLCD, ALLIE, ALLKE, ALLPD, ALLSE, ALLWK, ETOTAL
*End Step
