*Heading
** Mode-II Phase-Field Verification Study: M2REF_H0_FRACFIX_REPRO
** 3-Layer Mixed UEL Architecture: U1/U2/CPE4 (2601 physical nodes, 2500 quads)
*Preprint, echo=NO, model=NO, history=NO, contact=NO
*Node
       1,    -0.5000000000,    -0.5000000000
       2,    -0.4800000000,    -0.5000000000
       3,    -0.4600000000,    -0.5000000000
       4,    -0.4400000000,    -0.5000000000
       5,    -0.4200000000,    -0.5000000000
       6,    -0.4000000000,    -0.5000000000
       7,    -0.3800000000,    -0.5000000000
       8,    -0.3600000000,    -0.5000000000
       9,    -0.3400000000,    -0.5000000000
      10,    -0.3200000000,    -0.5000000000
      11,    -0.3000000000,    -0.5000000000
      12,    -0.2800000000,    -0.5000000000
      13,    -0.2600000000,    -0.5000000000
      14,    -0.2400000000,    -0.5000000000
      15,    -0.2200000000,    -0.5000000000
      16,    -0.2000000000,    -0.5000000000
      17,    -0.1800000000,    -0.5000000000
      18,    -0.1600000000,    -0.5000000000
      19,    -0.1400000000,    -0.5000000000
      20,    -0.1200000000,    -0.5000000000
      21,    -0.1000000000,    -0.5000000000
      22,    -0.0800000000,    -0.5000000000
      23,    -0.0600000000,    -0.5000000000
      24,    -0.0400000000,    -0.5000000000
      25,    -0.0200000000,    -0.5000000000
      26,     0.0000000000,    -0.5000000000
      27,     0.0200000000,    -0.5000000000
      28,     0.0400000000,    -0.5000000000
      29,     0.0600000000,    -0.5000000000
      30,     0.0800000000,    -0.5000000000
      31,     0.1000000000,    -0.5000000000
      32,     0.1200000000,    -0.5000000000
      33,     0.1400000000,    -0.5000000000
      34,     0.1600000000,    -0.5000000000
      35,     0.1800000000,    -0.5000000000
      36,     0.2000000000,    -0.5000000000
      37,     0.2200000000,    -0.5000000000
      38,     0.2400000000,    -0.5000000000
      39,     0.2600000000,    -0.5000000000
      40,     0.2800000000,    -0.5000000000
      41,     0.3000000000,    -0.5000000000
      42,     0.3200000000,    -0.5000000000
      43,     0.3400000000,    -0.5000000000
      44,     0.3600000000,    -0.5000000000
      45,     0.3800000000,    -0.5000000000
      46,     0.4000000000,    -0.5000000000
      47,     0.4200000000,    -0.5000000000
      48,     0.4400000000,    -0.5000000000
      49,     0.4600000000,    -0.5000000000
      50,     0.4800000000,    -0.5000000000
      51,     0.5000000000,    -0.5000000000
      52,    -0.5000000000,    -0.4800000000
      53,    -0.4800000000,    -0.4800000000
      54,    -0.4600000000,    -0.4800000000
      55,    -0.4400000000,    -0.4800000000
      56,    -0.4200000000,    -0.4800000000
      57,    -0.4000000000,    -0.4800000000
      58,    -0.3800000000,    -0.4800000000
      59,    -0.3600000000,    -0.4800000000
      60,    -0.3400000000,    -0.4800000000
      61,    -0.3200000000,    -0.4800000000
      62,    -0.3000000000,    -0.4800000000
      63,    -0.2800000000,    -0.4800000000
      64,    -0.2600000000,    -0.4800000000
      65,    -0.2400000000,    -0.4800000000
      66,    -0.2200000000,    -0.4800000000
      67,    -0.2000000000,    -0.4800000000
      68,    -0.1800000000,    -0.4800000000
      69,    -0.1600000000,    -0.4800000000
      70,    -0.1400000000,    -0.4800000000
      71,    -0.1200000000,    -0.4800000000
      72,    -0.1000000000,    -0.4800000000
      73,    -0.0800000000,    -0.4800000000
      74,    -0.0600000000,    -0.4800000000
      75,    -0.0400000000,    -0.4800000000
      76,    -0.0200000000,    -0.4800000000
      77,     0.0000000000,    -0.4800000000
      78,     0.0200000000,    -0.4800000000
      79,     0.0400000000,    -0.4800000000
      80,     0.0600000000,    -0.4800000000
      81,     0.0800000000,    -0.4800000000
      82,     0.1000000000,    -0.4800000000
      83,     0.1200000000,    -0.4800000000
      84,     0.1400000000,    -0.4800000000
      85,     0.1600000000,    -0.4800000000
      86,     0.1800000000,    -0.4800000000
      87,     0.2000000000,    -0.4800000000
      88,     0.2200000000,    -0.4800000000
      89,     0.2400000000,    -0.4800000000
      90,     0.2600000000,    -0.4800000000
      91,     0.2800000000,    -0.4800000000
      92,     0.3000000000,    -0.4800000000
      93,     0.3200000000,    -0.4800000000
      94,     0.3400000000,    -0.4800000000
      95,     0.3600000000,    -0.4800000000
      96,     0.3800000000,    -0.4800000000
      97,     0.4000000000,    -0.4800000000
      98,     0.4200000000,    -0.4800000000
      99,     0.4400000000,    -0.4800000000
     100,     0.4600000000,    -0.4800000000
     101,     0.4800000000,    -0.4800000000
     102,     0.5000000000,    -0.4800000000
     103,    -0.5000000000,    -0.4600000000
     104,    -0.4800000000,    -0.4600000000
     105,    -0.4600000000,    -0.4600000000
     106,    -0.4400000000,    -0.4600000000
     107,    -0.4200000000,    -0.4600000000
     108,    -0.4000000000,    -0.4600000000
     109,    -0.3800000000,    -0.4600000000
     110,    -0.3600000000,    -0.4600000000
     111,    -0.3400000000,    -0.4600000000
     112,    -0.3200000000,    -0.4600000000
     113,    -0.3000000000,    -0.4600000000
     114,    -0.2800000000,    -0.4600000000
     115,    -0.2600000000,    -0.4600000000
     116,    -0.2400000000,    -0.4600000000
     117,    -0.2200000000,    -0.4600000000
     118,    -0.2000000000,    -0.4600000000
     119,    -0.1800000000,    -0.4600000000
     120,    -0.1600000000,    -0.4600000000
     121,    -0.1400000000,    -0.4600000000
     122,    -0.1200000000,    -0.4600000000
     123,    -0.1000000000,    -0.4600000000
     124,    -0.0800000000,    -0.4600000000
     125,    -0.0600000000,    -0.4600000000
     126,    -0.0400000000,    -0.4600000000
     127,    -0.0200000000,    -0.4600000000
     128,     0.0000000000,    -0.4600000000
     129,     0.0200000000,    -0.4600000000
     130,     0.0400000000,    -0.4600000000
     131,     0.0600000000,    -0.4600000000
     132,     0.0800000000,    -0.4600000000
     133,     0.1000000000,    -0.4600000000
     134,     0.1200000000,    -0.4600000000
     135,     0.1400000000,    -0.4600000000
     136,     0.1600000000,    -0.4600000000
     137,     0.1800000000,    -0.4600000000
     138,     0.2000000000,    -0.4600000000
     139,     0.2200000000,    -0.4600000000
     140,     0.2400000000,    -0.4600000000
     141,     0.2600000000,    -0.4600000000
     142,     0.2800000000,    -0.4600000000
     143,     0.3000000000,    -0.4600000000
     144,     0.3200000000,    -0.4600000000
     145,     0.3400000000,    -0.4600000000
     146,     0.3600000000,    -0.4600000000
     147,     0.3800000000,    -0.4600000000
     148,     0.4000000000,    -0.4600000000
     149,     0.4200000000,    -0.4600000000
     150,     0.4400000000,    -0.4600000000
     151,     0.4600000000,    -0.4600000000
     152,     0.4800000000,    -0.4600000000
     153,     0.5000000000,    -0.4600000000
     154,    -0.5000000000,    -0.4400000000
     155,    -0.4800000000,    -0.4400000000
     156,    -0.4600000000,    -0.4400000000
     157,    -0.4400000000,    -0.4400000000
     158,    -0.4200000000,    -0.4400000000
     159,    -0.4000000000,    -0.4400000000
     160,    -0.3800000000,    -0.4400000000
     161,    -0.3600000000,    -0.4400000000
     162,    -0.3400000000,    -0.4400000000
     163,    -0.3200000000,    -0.4400000000
     164,    -0.3000000000,    -0.4400000000
     165,    -0.2800000000,    -0.4400000000
     166,    -0.2600000000,    -0.4400000000
     167,    -0.2400000000,    -0.4400000000
     168,    -0.2200000000,    -0.4400000000
     169,    -0.2000000000,    -0.4400000000
     170,    -0.1800000000,    -0.4400000000
     171,    -0.1600000000,    -0.4400000000
     172,    -0.1400000000,    -0.4400000000
     173,    -0.1200000000,    -0.4400000000
     174,    -0.1000000000,    -0.4400000000
     175,    -0.0800000000,    -0.4400000000
     176,    -0.0600000000,    -0.4400000000
     177,    -0.0400000000,    -0.4400000000
     178,    -0.0200000000,    -0.4400000000
     179,     0.0000000000,    -0.4400000000
     180,     0.0200000000,    -0.4400000000
     181,     0.0400000000,    -0.4400000000
     182,     0.0600000000,    -0.4400000000
     183,     0.0800000000,    -0.4400000000
     184,     0.1000000000,    -0.4400000000
     185,     0.1200000000,    -0.4400000000
     186,     0.1400000000,    -0.4400000000
     187,     0.1600000000,    -0.4400000000
     188,     0.1800000000,    -0.4400000000
     189,     0.2000000000,    -0.4400000000
     190,     0.2200000000,    -0.4400000000
     191,     0.2400000000,    -0.4400000000
     192,     0.2600000000,    -0.4400000000
     193,     0.2800000000,    -0.4400000000
     194,     0.3000000000,    -0.4400000000
     195,     0.3200000000,    -0.4400000000
     196,     0.3400000000,    -0.4400000000
     197,     0.3600000000,    -0.4400000000
     198,     0.3800000000,    -0.4400000000
     199,     0.4000000000,    -0.4400000000
     200,     0.4200000000,    -0.4400000000
     201,     0.4400000000,    -0.4400000000
     202,     0.4600000000,    -0.4400000000
     203,     0.4800000000,    -0.4400000000
     204,     0.5000000000,    -0.4400000000
     205,    -0.5000000000,    -0.4200000000
     206,    -0.4800000000,    -0.4200000000
     207,    -0.4600000000,    -0.4200000000
     208,    -0.4400000000,    -0.4200000000
     209,    -0.4200000000,    -0.4200000000
     210,    -0.4000000000,    -0.4200000000
     211,    -0.3800000000,    -0.4200000000
     212,    -0.3600000000,    -0.4200000000
     213,    -0.3400000000,    -0.4200000000
     214,    -0.3200000000,    -0.4200000000
     215,    -0.3000000000,    -0.4200000000
     216,    -0.2800000000,    -0.4200000000
     217,    -0.2600000000,    -0.4200000000
     218,    -0.2400000000,    -0.4200000000
     219,    -0.2200000000,    -0.4200000000
     220,    -0.2000000000,    -0.4200000000
     221,    -0.1800000000,    -0.4200000000
     222,    -0.1600000000,    -0.4200000000
     223,    -0.1400000000,    -0.4200000000
     224,    -0.1200000000,    -0.4200000000
     225,    -0.1000000000,    -0.4200000000
     226,    -0.0800000000,    -0.4200000000
     227,    -0.0600000000,    -0.4200000000
     228,    -0.0400000000,    -0.4200000000
     229,    -0.0200000000,    -0.4200000000
     230,     0.0000000000,    -0.4200000000
     231,     0.0200000000,    -0.4200000000
     232,     0.0400000000,    -0.4200000000
     233,     0.0600000000,    -0.4200000000
     234,     0.0800000000,    -0.4200000000
     235,     0.1000000000,    -0.4200000000
     236,     0.1200000000,    -0.4200000000
     237,     0.1400000000,    -0.4200000000
     238,     0.1600000000,    -0.4200000000
     239,     0.1800000000,    -0.4200000000
     240,     0.2000000000,    -0.4200000000
     241,     0.2200000000,    -0.4200000000
     242,     0.2400000000,    -0.4200000000
     243,     0.2600000000,    -0.4200000000
     244,     0.2800000000,    -0.4200000000
     245,     0.3000000000,    -0.4200000000
     246,     0.3200000000,    -0.4200000000
     247,     0.3400000000,    -0.4200000000
     248,     0.3600000000,    -0.4200000000
     249,     0.3800000000,    -0.4200000000
     250,     0.4000000000,    -0.4200000000
     251,     0.4200000000,    -0.4200000000
     252,     0.4400000000,    -0.4200000000
     253,     0.4600000000,    -0.4200000000
     254,     0.4800000000,    -0.4200000000
     255,     0.5000000000,    -0.4200000000
     256,    -0.5000000000,    -0.4000000000
     257,    -0.4800000000,    -0.4000000000
     258,    -0.4600000000,    -0.4000000000
     259,    -0.4400000000,    -0.4000000000
     260,    -0.4200000000,    -0.4000000000
     261,    -0.4000000000,    -0.4000000000
     262,    -0.3800000000,    -0.4000000000
     263,    -0.3600000000,    -0.4000000000
     264,    -0.3400000000,    -0.4000000000
     265,    -0.3200000000,    -0.4000000000
     266,    -0.3000000000,    -0.4000000000
     267,    -0.2800000000,    -0.4000000000
     268,    -0.2600000000,    -0.4000000000
     269,    -0.2400000000,    -0.4000000000
     270,    -0.2200000000,    -0.4000000000
     271,    -0.2000000000,    -0.4000000000
     272,    -0.1800000000,    -0.4000000000
     273,    -0.1600000000,    -0.4000000000
     274,    -0.1400000000,    -0.4000000000
     275,    -0.1200000000,    -0.4000000000
     276,    -0.1000000000,    -0.4000000000
     277,    -0.0800000000,    -0.4000000000
     278,    -0.0600000000,    -0.4000000000
     279,    -0.0400000000,    -0.4000000000
     280,    -0.0200000000,    -0.4000000000
     281,     0.0000000000,    -0.4000000000
     282,     0.0200000000,    -0.4000000000
     283,     0.0400000000,    -0.4000000000
     284,     0.0600000000,    -0.4000000000
     285,     0.0800000000,    -0.4000000000
     286,     0.1000000000,    -0.4000000000
     287,     0.1200000000,    -0.4000000000
     288,     0.1400000000,    -0.4000000000
     289,     0.1600000000,    -0.4000000000
     290,     0.1800000000,    -0.4000000000
     291,     0.2000000000,    -0.4000000000
     292,     0.2200000000,    -0.4000000000
     293,     0.2400000000,    -0.4000000000
     294,     0.2600000000,    -0.4000000000
     295,     0.2800000000,    -0.4000000000
     296,     0.3000000000,    -0.4000000000
     297,     0.3200000000,    -0.4000000000
     298,     0.3400000000,    -0.4000000000
     299,     0.3600000000,    -0.4000000000
     300,     0.3800000000,    -0.4000000000
     301,     0.4000000000,    -0.4000000000
     302,     0.4200000000,    -0.4000000000
     303,     0.4400000000,    -0.4000000000
     304,     0.4600000000,    -0.4000000000
     305,     0.4800000000,    -0.4000000000
     306,     0.5000000000,    -0.4000000000
     307,    -0.5000000000,    -0.3800000000
     308,    -0.4800000000,    -0.3800000000
     309,    -0.4600000000,    -0.3800000000
     310,    -0.4400000000,    -0.3800000000
     311,    -0.4200000000,    -0.3800000000
     312,    -0.4000000000,    -0.3800000000
     313,    -0.3800000000,    -0.3800000000
     314,    -0.3600000000,    -0.3800000000
     315,    -0.3400000000,    -0.3800000000
     316,    -0.3200000000,    -0.3800000000
     317,    -0.3000000000,    -0.3800000000
     318,    -0.2800000000,    -0.3800000000
     319,    -0.2600000000,    -0.3800000000
     320,    -0.2400000000,    -0.3800000000
     321,    -0.2200000000,    -0.3800000000
     322,    -0.2000000000,    -0.3800000000
     323,    -0.1800000000,    -0.3800000000
     324,    -0.1600000000,    -0.3800000000
     325,    -0.1400000000,    -0.3800000000
     326,    -0.1200000000,    -0.3800000000
     327,    -0.1000000000,    -0.3800000000
     328,    -0.0800000000,    -0.3800000000
     329,    -0.0600000000,    -0.3800000000
     330,    -0.0400000000,    -0.3800000000
     331,    -0.0200000000,    -0.3800000000
     332,     0.0000000000,    -0.3800000000
     333,     0.0200000000,    -0.3800000000
     334,     0.0400000000,    -0.3800000000
     335,     0.0600000000,    -0.3800000000
     336,     0.0800000000,    -0.3800000000
     337,     0.1000000000,    -0.3800000000
     338,     0.1200000000,    -0.3800000000
     339,     0.1400000000,    -0.3800000000
     340,     0.1600000000,    -0.3800000000
     341,     0.1800000000,    -0.3800000000
     342,     0.2000000000,    -0.3800000000
     343,     0.2200000000,    -0.3800000000
     344,     0.2400000000,    -0.3800000000
     345,     0.2600000000,    -0.3800000000
     346,     0.2800000000,    -0.3800000000
     347,     0.3000000000,    -0.3800000000
     348,     0.3200000000,    -0.3800000000
     349,     0.3400000000,    -0.3800000000
     350,     0.3600000000,    -0.3800000000
     351,     0.3800000000,    -0.3800000000
     352,     0.4000000000,    -0.3800000000
     353,     0.4200000000,    -0.3800000000
     354,     0.4400000000,    -0.3800000000
     355,     0.4600000000,    -0.3800000000
     356,     0.4800000000,    -0.3800000000
     357,     0.5000000000,    -0.3800000000
     358,    -0.5000000000,    -0.3600000000
     359,    -0.4800000000,    -0.3600000000
     360,    -0.4600000000,    -0.3600000000
     361,    -0.4400000000,    -0.3600000000
     362,    -0.4200000000,    -0.3600000000
     363,    -0.4000000000,    -0.3600000000
     364,    -0.3800000000,    -0.3600000000
     365,    -0.3600000000,    -0.3600000000
     366,    -0.3400000000,    -0.3600000000
     367,    -0.3200000000,    -0.3600000000
     368,    -0.3000000000,    -0.3600000000
     369,    -0.2800000000,    -0.3600000000
     370,    -0.2600000000,    -0.3600000000
     371,    -0.2400000000,    -0.3600000000
     372,    -0.2200000000,    -0.3600000000
     373,    -0.2000000000,    -0.3600000000
     374,    -0.1800000000,    -0.3600000000
     375,    -0.1600000000,    -0.3600000000
     376,    -0.1400000000,    -0.3600000000
     377,    -0.1200000000,    -0.3600000000
     378,    -0.1000000000,    -0.3600000000
     379,    -0.0800000000,    -0.3600000000
     380,    -0.0600000000,    -0.3600000000
     381,    -0.0400000000,    -0.3600000000
     382,    -0.0200000000,    -0.3600000000
     383,     0.0000000000,    -0.3600000000
     384,     0.0200000000,    -0.3600000000
     385,     0.0400000000,    -0.3600000000
     386,     0.0600000000,    -0.3600000000
     387,     0.0800000000,    -0.3600000000
     388,     0.1000000000,    -0.3600000000
     389,     0.1200000000,    -0.3600000000
     390,     0.1400000000,    -0.3600000000
     391,     0.1600000000,    -0.3600000000
     392,     0.1800000000,    -0.3600000000
     393,     0.2000000000,    -0.3600000000
     394,     0.2200000000,    -0.3600000000
     395,     0.2400000000,    -0.3600000000
     396,     0.2600000000,    -0.3600000000
     397,     0.2800000000,    -0.3600000000
     398,     0.3000000000,    -0.3600000000
     399,     0.3200000000,    -0.3600000000
     400,     0.3400000000,    -0.3600000000
     401,     0.3600000000,    -0.3600000000
     402,     0.3800000000,    -0.3600000000
     403,     0.4000000000,    -0.3600000000
     404,     0.4200000000,    -0.3600000000
     405,     0.4400000000,    -0.3600000000
     406,     0.4600000000,    -0.3600000000
     407,     0.4800000000,    -0.3600000000
     408,     0.5000000000,    -0.3600000000
     409,    -0.5000000000,    -0.3400000000
     410,    -0.4800000000,    -0.3400000000
     411,    -0.4600000000,    -0.3400000000
     412,    -0.4400000000,    -0.3400000000
     413,    -0.4200000000,    -0.3400000000
     414,    -0.4000000000,    -0.3400000000
     415,    -0.3800000000,    -0.3400000000
     416,    -0.3600000000,    -0.3400000000
     417,    -0.3400000000,    -0.3400000000
     418,    -0.3200000000,    -0.3400000000
     419,    -0.3000000000,    -0.3400000000
     420,    -0.2800000000,    -0.3400000000
     421,    -0.2600000000,    -0.3400000000
     422,    -0.2400000000,    -0.3400000000
     423,    -0.2200000000,    -0.3400000000
     424,    -0.2000000000,    -0.3400000000
     425,    -0.1800000000,    -0.3400000000
     426,    -0.1600000000,    -0.3400000000
     427,    -0.1400000000,    -0.3400000000
     428,    -0.1200000000,    -0.3400000000
     429,    -0.1000000000,    -0.3400000000
     430,    -0.0800000000,    -0.3400000000
     431,    -0.0600000000,    -0.3400000000
     432,    -0.0400000000,    -0.3400000000
     433,    -0.0200000000,    -0.3400000000
     434,     0.0000000000,    -0.3400000000
     435,     0.0200000000,    -0.3400000000
     436,     0.0400000000,    -0.3400000000
     437,     0.0600000000,    -0.3400000000
     438,     0.0800000000,    -0.3400000000
     439,     0.1000000000,    -0.3400000000
     440,     0.1200000000,    -0.3400000000
     441,     0.1400000000,    -0.3400000000
     442,     0.1600000000,    -0.3400000000
     443,     0.1800000000,    -0.3400000000
     444,     0.2000000000,    -0.3400000000
     445,     0.2200000000,    -0.3400000000
     446,     0.2400000000,    -0.3400000000
     447,     0.2600000000,    -0.3400000000
     448,     0.2800000000,    -0.3400000000
     449,     0.3000000000,    -0.3400000000
     450,     0.3200000000,    -0.3400000000
     451,     0.3400000000,    -0.3400000000
     452,     0.3600000000,    -0.3400000000
     453,     0.3800000000,    -0.3400000000
     454,     0.4000000000,    -0.3400000000
     455,     0.4200000000,    -0.3400000000
     456,     0.4400000000,    -0.3400000000
     457,     0.4600000000,    -0.3400000000
     458,     0.4800000000,    -0.3400000000
     459,     0.5000000000,    -0.3400000000
     460,    -0.5000000000,    -0.3200000000
     461,    -0.4800000000,    -0.3200000000
     462,    -0.4600000000,    -0.3200000000
     463,    -0.4400000000,    -0.3200000000
     464,    -0.4200000000,    -0.3200000000
     465,    -0.4000000000,    -0.3200000000
     466,    -0.3800000000,    -0.3200000000
     467,    -0.3600000000,    -0.3200000000
     468,    -0.3400000000,    -0.3200000000
     469,    -0.3200000000,    -0.3200000000
     470,    -0.3000000000,    -0.3200000000
     471,    -0.2800000000,    -0.3200000000
     472,    -0.2600000000,    -0.3200000000
     473,    -0.2400000000,    -0.3200000000
     474,    -0.2200000000,    -0.3200000000
     475,    -0.2000000000,    -0.3200000000
     476,    -0.1800000000,    -0.3200000000
     477,    -0.1600000000,    -0.3200000000
     478,    -0.1400000000,    -0.3200000000
     479,    -0.1200000000,    -0.3200000000
     480,    -0.1000000000,    -0.3200000000
     481,    -0.0800000000,    -0.3200000000
     482,    -0.0600000000,    -0.3200000000
     483,    -0.0400000000,    -0.3200000000
     484,    -0.0200000000,    -0.3200000000
     485,     0.0000000000,    -0.3200000000
     486,     0.0200000000,    -0.3200000000
     487,     0.0400000000,    -0.3200000000
     488,     0.0600000000,    -0.3200000000
     489,     0.0800000000,    -0.3200000000
     490,     0.1000000000,    -0.3200000000
     491,     0.1200000000,    -0.3200000000
     492,     0.1400000000,    -0.3200000000
     493,     0.1600000000,    -0.3200000000
     494,     0.1800000000,    -0.3200000000
     495,     0.2000000000,    -0.3200000000
     496,     0.2200000000,    -0.3200000000
     497,     0.2400000000,    -0.3200000000
     498,     0.2600000000,    -0.3200000000
     499,     0.2800000000,    -0.3200000000
     500,     0.3000000000,    -0.3200000000
     501,     0.3200000000,    -0.3200000000
     502,     0.3400000000,    -0.3200000000
     503,     0.3600000000,    -0.3200000000
     504,     0.3800000000,    -0.3200000000
     505,     0.4000000000,    -0.3200000000
     506,     0.4200000000,    -0.3200000000
     507,     0.4400000000,    -0.3200000000
     508,     0.4600000000,    -0.3200000000
     509,     0.4800000000,    -0.3200000000
     510,     0.5000000000,    -0.3200000000
     511,    -0.5000000000,    -0.3000000000
     512,    -0.4800000000,    -0.3000000000
     513,    -0.4600000000,    -0.3000000000
     514,    -0.4400000000,    -0.3000000000
     515,    -0.4200000000,    -0.3000000000
     516,    -0.4000000000,    -0.3000000000
     517,    -0.3800000000,    -0.3000000000
     518,    -0.3600000000,    -0.3000000000
     519,    -0.3400000000,    -0.3000000000
     520,    -0.3200000000,    -0.3000000000
     521,    -0.3000000000,    -0.3000000000
     522,    -0.2800000000,    -0.3000000000
     523,    -0.2600000000,    -0.3000000000
     524,    -0.2400000000,    -0.3000000000
     525,    -0.2200000000,    -0.3000000000
     526,    -0.2000000000,    -0.3000000000
     527,    -0.1800000000,    -0.3000000000
     528,    -0.1600000000,    -0.3000000000
     529,    -0.1400000000,    -0.3000000000
     530,    -0.1200000000,    -0.3000000000
     531,    -0.1000000000,    -0.3000000000
     532,    -0.0800000000,    -0.3000000000
     533,    -0.0600000000,    -0.3000000000
     534,    -0.0400000000,    -0.3000000000
     535,    -0.0200000000,    -0.3000000000
     536,     0.0000000000,    -0.3000000000
     537,     0.0200000000,    -0.3000000000
     538,     0.0400000000,    -0.3000000000
     539,     0.0600000000,    -0.3000000000
     540,     0.0800000000,    -0.3000000000
     541,     0.1000000000,    -0.3000000000
     542,     0.1200000000,    -0.3000000000
     543,     0.1400000000,    -0.3000000000
     544,     0.1600000000,    -0.3000000000
     545,     0.1800000000,    -0.3000000000
     546,     0.2000000000,    -0.3000000000
     547,     0.2200000000,    -0.3000000000
     548,     0.2400000000,    -0.3000000000
     549,     0.2600000000,    -0.3000000000
     550,     0.2800000000,    -0.3000000000
     551,     0.3000000000,    -0.3000000000
     552,     0.3200000000,    -0.3000000000
     553,     0.3400000000,    -0.3000000000
     554,     0.3600000000,    -0.3000000000
     555,     0.3800000000,    -0.3000000000
     556,     0.4000000000,    -0.3000000000
     557,     0.4200000000,    -0.3000000000
     558,     0.4400000000,    -0.3000000000
     559,     0.4600000000,    -0.3000000000
     560,     0.4800000000,    -0.3000000000
     561,     0.5000000000,    -0.3000000000
     562,    -0.5000000000,    -0.2800000000
     563,    -0.4800000000,    -0.2800000000
     564,    -0.4600000000,    -0.2800000000
     565,    -0.4400000000,    -0.2800000000
     566,    -0.4200000000,    -0.2800000000
     567,    -0.4000000000,    -0.2800000000
     568,    -0.3800000000,    -0.2800000000
     569,    -0.3600000000,    -0.2800000000
     570,    -0.3400000000,    -0.2800000000
     571,    -0.3200000000,    -0.2800000000
     572,    -0.3000000000,    -0.2800000000
     573,    -0.2800000000,    -0.2800000000
     574,    -0.2600000000,    -0.2800000000
     575,    -0.2400000000,    -0.2800000000
     576,    -0.2200000000,    -0.2800000000
     577,    -0.2000000000,    -0.2800000000
     578,    -0.1800000000,    -0.2800000000
     579,    -0.1600000000,    -0.2800000000
     580,    -0.1400000000,    -0.2800000000
     581,    -0.1200000000,    -0.2800000000
     582,    -0.1000000000,    -0.2800000000
     583,    -0.0800000000,    -0.2800000000
     584,    -0.0600000000,    -0.2800000000
     585,    -0.0400000000,    -0.2800000000
     586,    -0.0200000000,    -0.2800000000
     587,     0.0000000000,    -0.2800000000
     588,     0.0200000000,    -0.2800000000
     589,     0.0400000000,    -0.2800000000
     590,     0.0600000000,    -0.2800000000
     591,     0.0800000000,    -0.2800000000
     592,     0.1000000000,    -0.2800000000
     593,     0.1200000000,    -0.2800000000
     594,     0.1400000000,    -0.2800000000
     595,     0.1600000000,    -0.2800000000
     596,     0.1800000000,    -0.2800000000
     597,     0.2000000000,    -0.2800000000
     598,     0.2200000000,    -0.2800000000
     599,     0.2400000000,    -0.2800000000
     600,     0.2600000000,    -0.2800000000
     601,     0.2800000000,    -0.2800000000
     602,     0.3000000000,    -0.2800000000
     603,     0.3200000000,    -0.2800000000
     604,     0.3400000000,    -0.2800000000
     605,     0.3600000000,    -0.2800000000
     606,     0.3800000000,    -0.2800000000
     607,     0.4000000000,    -0.2800000000
     608,     0.4200000000,    -0.2800000000
     609,     0.4400000000,    -0.2800000000
     610,     0.4600000000,    -0.2800000000
     611,     0.4800000000,    -0.2800000000
     612,     0.5000000000,    -0.2800000000
     613,    -0.5000000000,    -0.2600000000
     614,    -0.4800000000,    -0.2600000000
     615,    -0.4600000000,    -0.2600000000
     616,    -0.4400000000,    -0.2600000000
     617,    -0.4200000000,    -0.2600000000
     618,    -0.4000000000,    -0.2600000000
     619,    -0.3800000000,    -0.2600000000
     620,    -0.3600000000,    -0.2600000000
     621,    -0.3400000000,    -0.2600000000
     622,    -0.3200000000,    -0.2600000000
     623,    -0.3000000000,    -0.2600000000
     624,    -0.2800000000,    -0.2600000000
     625,    -0.2600000000,    -0.2600000000
     626,    -0.2400000000,    -0.2600000000
     627,    -0.2200000000,    -0.2600000000
     628,    -0.2000000000,    -0.2600000000
     629,    -0.1800000000,    -0.2600000000
     630,    -0.1600000000,    -0.2600000000
     631,    -0.1400000000,    -0.2600000000
     632,    -0.1200000000,    -0.2600000000
     633,    -0.1000000000,    -0.2600000000
     634,    -0.0800000000,    -0.2600000000
     635,    -0.0600000000,    -0.2600000000
     636,    -0.0400000000,    -0.2600000000
     637,    -0.0200000000,    -0.2600000000
     638,     0.0000000000,    -0.2600000000
     639,     0.0200000000,    -0.2600000000
     640,     0.0400000000,    -0.2600000000
     641,     0.0600000000,    -0.2600000000
     642,     0.0800000000,    -0.2600000000
     643,     0.1000000000,    -0.2600000000
     644,     0.1200000000,    -0.2600000000
     645,     0.1400000000,    -0.2600000000
     646,     0.1600000000,    -0.2600000000
     647,     0.1800000000,    -0.2600000000
     648,     0.2000000000,    -0.2600000000
     649,     0.2200000000,    -0.2600000000
     650,     0.2400000000,    -0.2600000000
     651,     0.2600000000,    -0.2600000000
     652,     0.2800000000,    -0.2600000000
     653,     0.3000000000,    -0.2600000000
     654,     0.3200000000,    -0.2600000000
     655,     0.3400000000,    -0.2600000000
     656,     0.3600000000,    -0.2600000000
     657,     0.3800000000,    -0.2600000000
     658,     0.4000000000,    -0.2600000000
     659,     0.4200000000,    -0.2600000000
     660,     0.4400000000,    -0.2600000000
     661,     0.4600000000,    -0.2600000000
     662,     0.4800000000,    -0.2600000000
     663,     0.5000000000,    -0.2600000000
     664,    -0.5000000000,    -0.2400000000
     665,    -0.4800000000,    -0.2400000000
     666,    -0.4600000000,    -0.2400000000
     667,    -0.4400000000,    -0.2400000000
     668,    -0.4200000000,    -0.2400000000
     669,    -0.4000000000,    -0.2400000000
     670,    -0.3800000000,    -0.2400000000
     671,    -0.3600000000,    -0.2400000000
     672,    -0.3400000000,    -0.2400000000
     673,    -0.3200000000,    -0.2400000000
     674,    -0.3000000000,    -0.2400000000
     675,    -0.2800000000,    -0.2400000000
     676,    -0.2600000000,    -0.2400000000
     677,    -0.2400000000,    -0.2400000000
     678,    -0.2200000000,    -0.2400000000
     679,    -0.2000000000,    -0.2400000000
     680,    -0.1800000000,    -0.2400000000
     681,    -0.1600000000,    -0.2400000000
     682,    -0.1400000000,    -0.2400000000
     683,    -0.1200000000,    -0.2400000000
     684,    -0.1000000000,    -0.2400000000
     685,    -0.0800000000,    -0.2400000000
     686,    -0.0600000000,    -0.2400000000
     687,    -0.0400000000,    -0.2400000000
     688,    -0.0200000000,    -0.2400000000
     689,     0.0000000000,    -0.2400000000
     690,     0.0200000000,    -0.2400000000
     691,     0.0400000000,    -0.2400000000
     692,     0.0600000000,    -0.2400000000
     693,     0.0800000000,    -0.2400000000
     694,     0.1000000000,    -0.2400000000
     695,     0.1200000000,    -0.2400000000
     696,     0.1400000000,    -0.2400000000
     697,     0.1600000000,    -0.2400000000
     698,     0.1800000000,    -0.2400000000
     699,     0.2000000000,    -0.2400000000
     700,     0.2200000000,    -0.2400000000
     701,     0.2400000000,    -0.2400000000
     702,     0.2600000000,    -0.2400000000
     703,     0.2800000000,    -0.2400000000
     704,     0.3000000000,    -0.2400000000
     705,     0.3200000000,    -0.2400000000
     706,     0.3400000000,    -0.2400000000
     707,     0.3600000000,    -0.2400000000
     708,     0.3800000000,    -0.2400000000
     709,     0.4000000000,    -0.2400000000
     710,     0.4200000000,    -0.2400000000
     711,     0.4400000000,    -0.2400000000
     712,     0.4600000000,    -0.2400000000
     713,     0.4800000000,    -0.2400000000
     714,     0.5000000000,    -0.2400000000
     715,    -0.5000000000,    -0.2200000000
     716,    -0.4800000000,    -0.2200000000
     717,    -0.4600000000,    -0.2200000000
     718,    -0.4400000000,    -0.2200000000
     719,    -0.4200000000,    -0.2200000000
     720,    -0.4000000000,    -0.2200000000
     721,    -0.3800000000,    -0.2200000000
     722,    -0.3600000000,    -0.2200000000
     723,    -0.3400000000,    -0.2200000000
     724,    -0.3200000000,    -0.2200000000
     725,    -0.3000000000,    -0.2200000000
     726,    -0.2800000000,    -0.2200000000
     727,    -0.2600000000,    -0.2200000000
     728,    -0.2400000000,    -0.2200000000
     729,    -0.2200000000,    -0.2200000000
     730,    -0.2000000000,    -0.2200000000
     731,    -0.1800000000,    -0.2200000000
     732,    -0.1600000000,    -0.2200000000
     733,    -0.1400000000,    -0.2200000000
     734,    -0.1200000000,    -0.2200000000
     735,    -0.1000000000,    -0.2200000000
     736,    -0.0800000000,    -0.2200000000
     737,    -0.0600000000,    -0.2200000000
     738,    -0.0400000000,    -0.2200000000
     739,    -0.0200000000,    -0.2200000000
     740,     0.0000000000,    -0.2200000000
     741,     0.0200000000,    -0.2200000000
     742,     0.0400000000,    -0.2200000000
     743,     0.0600000000,    -0.2200000000
     744,     0.0800000000,    -0.2200000000
     745,     0.1000000000,    -0.2200000000
     746,     0.1200000000,    -0.2200000000
     747,     0.1400000000,    -0.2200000000
     748,     0.1600000000,    -0.2200000000
     749,     0.1800000000,    -0.2200000000
     750,     0.2000000000,    -0.2200000000
     751,     0.2200000000,    -0.2200000000
     752,     0.2400000000,    -0.2200000000
     753,     0.2600000000,    -0.2200000000
     754,     0.2800000000,    -0.2200000000
     755,     0.3000000000,    -0.2200000000
     756,     0.3200000000,    -0.2200000000
     757,     0.3400000000,    -0.2200000000
     758,     0.3600000000,    -0.2200000000
     759,     0.3800000000,    -0.2200000000
     760,     0.4000000000,    -0.2200000000
     761,     0.4200000000,    -0.2200000000
     762,     0.4400000000,    -0.2200000000
     763,     0.4600000000,    -0.2200000000
     764,     0.4800000000,    -0.2200000000
     765,     0.5000000000,    -0.2200000000
     766,    -0.5000000000,    -0.2000000000
     767,    -0.4800000000,    -0.2000000000
     768,    -0.4600000000,    -0.2000000000
     769,    -0.4400000000,    -0.2000000000
     770,    -0.4200000000,    -0.2000000000
     771,    -0.4000000000,    -0.2000000000
     772,    -0.3800000000,    -0.2000000000
     773,    -0.3600000000,    -0.2000000000
     774,    -0.3400000000,    -0.2000000000
     775,    -0.3200000000,    -0.2000000000
     776,    -0.3000000000,    -0.2000000000
     777,    -0.2800000000,    -0.2000000000
     778,    -0.2600000000,    -0.2000000000
     779,    -0.2400000000,    -0.2000000000
     780,    -0.2200000000,    -0.2000000000
     781,    -0.2000000000,    -0.2000000000
     782,    -0.1800000000,    -0.2000000000
     783,    -0.1600000000,    -0.2000000000
     784,    -0.1400000000,    -0.2000000000
     785,    -0.1200000000,    -0.2000000000
     786,    -0.1000000000,    -0.2000000000
     787,    -0.0800000000,    -0.2000000000
     788,    -0.0600000000,    -0.2000000000
     789,    -0.0400000000,    -0.2000000000
     790,    -0.0200000000,    -0.2000000000
     791,     0.0000000000,    -0.2000000000
     792,     0.0200000000,    -0.2000000000
     793,     0.0400000000,    -0.2000000000
     794,     0.0600000000,    -0.2000000000
     795,     0.0800000000,    -0.2000000000
     796,     0.1000000000,    -0.2000000000
     797,     0.1200000000,    -0.2000000000
     798,     0.1400000000,    -0.2000000000
     799,     0.1600000000,    -0.2000000000
     800,     0.1800000000,    -0.2000000000
     801,     0.2000000000,    -0.2000000000
     802,     0.2200000000,    -0.2000000000
     803,     0.2400000000,    -0.2000000000
     804,     0.2600000000,    -0.2000000000
     805,     0.2800000000,    -0.2000000000
     806,     0.3000000000,    -0.2000000000
     807,     0.3200000000,    -0.2000000000
     808,     0.3400000000,    -0.2000000000
     809,     0.3600000000,    -0.2000000000
     810,     0.3800000000,    -0.2000000000
     811,     0.4000000000,    -0.2000000000
     812,     0.4200000000,    -0.2000000000
     813,     0.4400000000,    -0.2000000000
     814,     0.4600000000,    -0.2000000000
     815,     0.4800000000,    -0.2000000000
     816,     0.5000000000,    -0.2000000000
     817,    -0.5000000000,    -0.1800000000
     818,    -0.4800000000,    -0.1800000000
     819,    -0.4600000000,    -0.1800000000
     820,    -0.4400000000,    -0.1800000000
     821,    -0.4200000000,    -0.1800000000
     822,    -0.4000000000,    -0.1800000000
     823,    -0.3800000000,    -0.1800000000
     824,    -0.3600000000,    -0.1800000000
     825,    -0.3400000000,    -0.1800000000
     826,    -0.3200000000,    -0.1800000000
     827,    -0.3000000000,    -0.1800000000
     828,    -0.2800000000,    -0.1800000000
     829,    -0.2600000000,    -0.1800000000
     830,    -0.2400000000,    -0.1800000000
     831,    -0.2200000000,    -0.1800000000
     832,    -0.2000000000,    -0.1800000000
     833,    -0.1800000000,    -0.1800000000
     834,    -0.1600000000,    -0.1800000000
     835,    -0.1400000000,    -0.1800000000
     836,    -0.1200000000,    -0.1800000000
     837,    -0.1000000000,    -0.1800000000
     838,    -0.0800000000,    -0.1800000000
     839,    -0.0600000000,    -0.1800000000
     840,    -0.0400000000,    -0.1800000000
     841,    -0.0200000000,    -0.1800000000
     842,     0.0000000000,    -0.1800000000
     843,     0.0200000000,    -0.1800000000
     844,     0.0400000000,    -0.1800000000
     845,     0.0600000000,    -0.1800000000
     846,     0.0800000000,    -0.1800000000
     847,     0.1000000000,    -0.1800000000
     848,     0.1200000000,    -0.1800000000
     849,     0.1400000000,    -0.1800000000
     850,     0.1600000000,    -0.1800000000
     851,     0.1800000000,    -0.1800000000
     852,     0.2000000000,    -0.1800000000
     853,     0.2200000000,    -0.1800000000
     854,     0.2400000000,    -0.1800000000
     855,     0.2600000000,    -0.1800000000
     856,     0.2800000000,    -0.1800000000
     857,     0.3000000000,    -0.1800000000
     858,     0.3200000000,    -0.1800000000
     859,     0.3400000000,    -0.1800000000
     860,     0.3600000000,    -0.1800000000
     861,     0.3800000000,    -0.1800000000
     862,     0.4000000000,    -0.1800000000
     863,     0.4200000000,    -0.1800000000
     864,     0.4400000000,    -0.1800000000
     865,     0.4600000000,    -0.1800000000
     866,     0.4800000000,    -0.1800000000
     867,     0.5000000000,    -0.1800000000
     868,    -0.5000000000,    -0.1600000000
     869,    -0.4800000000,    -0.1600000000
     870,    -0.4600000000,    -0.1600000000
     871,    -0.4400000000,    -0.1600000000
     872,    -0.4200000000,    -0.1600000000
     873,    -0.4000000000,    -0.1600000000
     874,    -0.3800000000,    -0.1600000000
     875,    -0.3600000000,    -0.1600000000
     876,    -0.3400000000,    -0.1600000000
     877,    -0.3200000000,    -0.1600000000
     878,    -0.3000000000,    -0.1600000000
     879,    -0.2800000000,    -0.1600000000
     880,    -0.2600000000,    -0.1600000000
     881,    -0.2400000000,    -0.1600000000
     882,    -0.2200000000,    -0.1600000000
     883,    -0.2000000000,    -0.1600000000
     884,    -0.1800000000,    -0.1600000000
     885,    -0.1600000000,    -0.1600000000
     886,    -0.1400000000,    -0.1600000000
     887,    -0.1200000000,    -0.1600000000
     888,    -0.1000000000,    -0.1600000000
     889,    -0.0800000000,    -0.1600000000
     890,    -0.0600000000,    -0.1600000000
     891,    -0.0400000000,    -0.1600000000
     892,    -0.0200000000,    -0.1600000000
     893,     0.0000000000,    -0.1600000000
     894,     0.0200000000,    -0.1600000000
     895,     0.0400000000,    -0.1600000000
     896,     0.0600000000,    -0.1600000000
     897,     0.0800000000,    -0.1600000000
     898,     0.1000000000,    -0.1600000000
     899,     0.1200000000,    -0.1600000000
     900,     0.1400000000,    -0.1600000000
     901,     0.1600000000,    -0.1600000000
     902,     0.1800000000,    -0.1600000000
     903,     0.2000000000,    -0.1600000000
     904,     0.2200000000,    -0.1600000000
     905,     0.2400000000,    -0.1600000000
     906,     0.2600000000,    -0.1600000000
     907,     0.2800000000,    -0.1600000000
     908,     0.3000000000,    -0.1600000000
     909,     0.3200000000,    -0.1600000000
     910,     0.3400000000,    -0.1600000000
     911,     0.3600000000,    -0.1600000000
     912,     0.3800000000,    -0.1600000000
     913,     0.4000000000,    -0.1600000000
     914,     0.4200000000,    -0.1600000000
     915,     0.4400000000,    -0.1600000000
     916,     0.4600000000,    -0.1600000000
     917,     0.4800000000,    -0.1600000000
     918,     0.5000000000,    -0.1600000000
     919,    -0.5000000000,    -0.1400000000
     920,    -0.4800000000,    -0.1400000000
     921,    -0.4600000000,    -0.1400000000
     922,    -0.4400000000,    -0.1400000000
     923,    -0.4200000000,    -0.1400000000
     924,    -0.4000000000,    -0.1400000000
     925,    -0.3800000000,    -0.1400000000
     926,    -0.3600000000,    -0.1400000000
     927,    -0.3400000000,    -0.1400000000
     928,    -0.3200000000,    -0.1400000000
     929,    -0.3000000000,    -0.1400000000
     930,    -0.2800000000,    -0.1400000000
     931,    -0.2600000000,    -0.1400000000
     932,    -0.2400000000,    -0.1400000000
     933,    -0.2200000000,    -0.1400000000
     934,    -0.2000000000,    -0.1400000000
     935,    -0.1800000000,    -0.1400000000
     936,    -0.1600000000,    -0.1400000000
     937,    -0.1400000000,    -0.1400000000
     938,    -0.1200000000,    -0.1400000000
     939,    -0.1000000000,    -0.1400000000
     940,    -0.0800000000,    -0.1400000000
     941,    -0.0600000000,    -0.1400000000
     942,    -0.0400000000,    -0.1400000000
     943,    -0.0200000000,    -0.1400000000
     944,     0.0000000000,    -0.1400000000
     945,     0.0200000000,    -0.1400000000
     946,     0.0400000000,    -0.1400000000
     947,     0.0600000000,    -0.1400000000
     948,     0.0800000000,    -0.1400000000
     949,     0.1000000000,    -0.1400000000
     950,     0.1200000000,    -0.1400000000
     951,     0.1400000000,    -0.1400000000
     952,     0.1600000000,    -0.1400000000
     953,     0.1800000000,    -0.1400000000
     954,     0.2000000000,    -0.1400000000
     955,     0.2200000000,    -0.1400000000
     956,     0.2400000000,    -0.1400000000
     957,     0.2600000000,    -0.1400000000
     958,     0.2800000000,    -0.1400000000
     959,     0.3000000000,    -0.1400000000
     960,     0.3200000000,    -0.1400000000
     961,     0.3400000000,    -0.1400000000
     962,     0.3600000000,    -0.1400000000
     963,     0.3800000000,    -0.1400000000
     964,     0.4000000000,    -0.1400000000
     965,     0.4200000000,    -0.1400000000
     966,     0.4400000000,    -0.1400000000
     967,     0.4600000000,    -0.1400000000
     968,     0.4800000000,    -0.1400000000
     969,     0.5000000000,    -0.1400000000
     970,    -0.5000000000,    -0.1200000000
     971,    -0.4800000000,    -0.1200000000
     972,    -0.4600000000,    -0.1200000000
     973,    -0.4400000000,    -0.1200000000
     974,    -0.4200000000,    -0.1200000000
     975,    -0.4000000000,    -0.1200000000
     976,    -0.3800000000,    -0.1200000000
     977,    -0.3600000000,    -0.1200000000
     978,    -0.3400000000,    -0.1200000000
     979,    -0.3200000000,    -0.1200000000
     980,    -0.3000000000,    -0.1200000000
     981,    -0.2800000000,    -0.1200000000
     982,    -0.2600000000,    -0.1200000000
     983,    -0.2400000000,    -0.1200000000
     984,    -0.2200000000,    -0.1200000000
     985,    -0.2000000000,    -0.1200000000
     986,    -0.1800000000,    -0.1200000000
     987,    -0.1600000000,    -0.1200000000
     988,    -0.1400000000,    -0.1200000000
     989,    -0.1200000000,    -0.1200000000
     990,    -0.1000000000,    -0.1200000000
     991,    -0.0800000000,    -0.1200000000
     992,    -0.0600000000,    -0.1200000000
     993,    -0.0400000000,    -0.1200000000
     994,    -0.0200000000,    -0.1200000000
     995,     0.0000000000,    -0.1200000000
     996,     0.0200000000,    -0.1200000000
     997,     0.0400000000,    -0.1200000000
     998,     0.0600000000,    -0.1200000000
     999,     0.0800000000,    -0.1200000000
    1000,     0.1000000000,    -0.1200000000
    1001,     0.1200000000,    -0.1200000000
    1002,     0.1400000000,    -0.1200000000
    1003,     0.1600000000,    -0.1200000000
    1004,     0.1800000000,    -0.1200000000
    1005,     0.2000000000,    -0.1200000000
    1006,     0.2200000000,    -0.1200000000
    1007,     0.2400000000,    -0.1200000000
    1008,     0.2600000000,    -0.1200000000
    1009,     0.2800000000,    -0.1200000000
    1010,     0.3000000000,    -0.1200000000
    1011,     0.3200000000,    -0.1200000000
    1012,     0.3400000000,    -0.1200000000
    1013,     0.3600000000,    -0.1200000000
    1014,     0.3800000000,    -0.1200000000
    1015,     0.4000000000,    -0.1200000000
    1016,     0.4200000000,    -0.1200000000
    1017,     0.4400000000,    -0.1200000000
    1018,     0.4600000000,    -0.1200000000
    1019,     0.4800000000,    -0.1200000000
    1020,     0.5000000000,    -0.1200000000
    1021,    -0.5000000000,    -0.1000000000
    1022,    -0.4800000000,    -0.1000000000
    1023,    -0.4600000000,    -0.1000000000
    1024,    -0.4400000000,    -0.1000000000
    1025,    -0.4200000000,    -0.1000000000
    1026,    -0.4000000000,    -0.1000000000
    1027,    -0.3800000000,    -0.1000000000
    1028,    -0.3600000000,    -0.1000000000
    1029,    -0.3400000000,    -0.1000000000
    1030,    -0.3200000000,    -0.1000000000
    1031,    -0.3000000000,    -0.1000000000
    1032,    -0.2800000000,    -0.1000000000
    1033,    -0.2600000000,    -0.1000000000
    1034,    -0.2400000000,    -0.1000000000
    1035,    -0.2200000000,    -0.1000000000
    1036,    -0.2000000000,    -0.1000000000
    1037,    -0.1800000000,    -0.1000000000
    1038,    -0.1600000000,    -0.1000000000
    1039,    -0.1400000000,    -0.1000000000
    1040,    -0.1200000000,    -0.1000000000
    1041,    -0.1000000000,    -0.1000000000
    1042,    -0.0800000000,    -0.1000000000
    1043,    -0.0600000000,    -0.1000000000
    1044,    -0.0400000000,    -0.1000000000
    1045,    -0.0200000000,    -0.1000000000
    1046,     0.0000000000,    -0.1000000000
    1047,     0.0200000000,    -0.1000000000
    1048,     0.0400000000,    -0.1000000000
    1049,     0.0600000000,    -0.1000000000
    1050,     0.0800000000,    -0.1000000000
    1051,     0.1000000000,    -0.1000000000
    1052,     0.1200000000,    -0.1000000000
    1053,     0.1400000000,    -0.1000000000
    1054,     0.1600000000,    -0.1000000000
    1055,     0.1800000000,    -0.1000000000
    1056,     0.2000000000,    -0.1000000000
    1057,     0.2200000000,    -0.1000000000
    1058,     0.2400000000,    -0.1000000000
    1059,     0.2600000000,    -0.1000000000
    1060,     0.2800000000,    -0.1000000000
    1061,     0.3000000000,    -0.1000000000
    1062,     0.3200000000,    -0.1000000000
    1063,     0.3400000000,    -0.1000000000
    1064,     0.3600000000,    -0.1000000000
    1065,     0.3800000000,    -0.1000000000
    1066,     0.4000000000,    -0.1000000000
    1067,     0.4200000000,    -0.1000000000
    1068,     0.4400000000,    -0.1000000000
    1069,     0.4600000000,    -0.1000000000
    1070,     0.4800000000,    -0.1000000000
    1071,     0.5000000000,    -0.1000000000
    1072,    -0.5000000000,    -0.0800000000
    1073,    -0.4800000000,    -0.0800000000
    1074,    -0.4600000000,    -0.0800000000
    1075,    -0.4400000000,    -0.0800000000
    1076,    -0.4200000000,    -0.0800000000
    1077,    -0.4000000000,    -0.0800000000
    1078,    -0.3800000000,    -0.0800000000
    1079,    -0.3600000000,    -0.0800000000
    1080,    -0.3400000000,    -0.0800000000
    1081,    -0.3200000000,    -0.0800000000
    1082,    -0.3000000000,    -0.0800000000
    1083,    -0.2800000000,    -0.0800000000
    1084,    -0.2600000000,    -0.0800000000
    1085,    -0.2400000000,    -0.0800000000
    1086,    -0.2200000000,    -0.0800000000
    1087,    -0.2000000000,    -0.0800000000
    1088,    -0.1800000000,    -0.0800000000
    1089,    -0.1600000000,    -0.0800000000
    1090,    -0.1400000000,    -0.0800000000
    1091,    -0.1200000000,    -0.0800000000
    1092,    -0.1000000000,    -0.0800000000
    1093,    -0.0800000000,    -0.0800000000
    1094,    -0.0600000000,    -0.0800000000
    1095,    -0.0400000000,    -0.0800000000
    1096,    -0.0200000000,    -0.0800000000
    1097,     0.0000000000,    -0.0800000000
    1098,     0.0200000000,    -0.0800000000
    1099,     0.0400000000,    -0.0800000000
    1100,     0.0600000000,    -0.0800000000
    1101,     0.0800000000,    -0.0800000000
    1102,     0.1000000000,    -0.0800000000
    1103,     0.1200000000,    -0.0800000000
    1104,     0.1400000000,    -0.0800000000
    1105,     0.1600000000,    -0.0800000000
    1106,     0.1800000000,    -0.0800000000
    1107,     0.2000000000,    -0.0800000000
    1108,     0.2200000000,    -0.0800000000
    1109,     0.2400000000,    -0.0800000000
    1110,     0.2600000000,    -0.0800000000
    1111,     0.2800000000,    -0.0800000000
    1112,     0.3000000000,    -0.0800000000
    1113,     0.3200000000,    -0.0800000000
    1114,     0.3400000000,    -0.0800000000
    1115,     0.3600000000,    -0.0800000000
    1116,     0.3800000000,    -0.0800000000
    1117,     0.4000000000,    -0.0800000000
    1118,     0.4200000000,    -0.0800000000
    1119,     0.4400000000,    -0.0800000000
    1120,     0.4600000000,    -0.0800000000
    1121,     0.4800000000,    -0.0800000000
    1122,     0.5000000000,    -0.0800000000
    1123,    -0.5000000000,    -0.0600000000
    1124,    -0.4800000000,    -0.0600000000
    1125,    -0.4600000000,    -0.0600000000
    1126,    -0.4400000000,    -0.0600000000
    1127,    -0.4200000000,    -0.0600000000
    1128,    -0.4000000000,    -0.0600000000
    1129,    -0.3800000000,    -0.0600000000
    1130,    -0.3600000000,    -0.0600000000
    1131,    -0.3400000000,    -0.0600000000
    1132,    -0.3200000000,    -0.0600000000
    1133,    -0.3000000000,    -0.0600000000
    1134,    -0.2800000000,    -0.0600000000
    1135,    -0.2600000000,    -0.0600000000
    1136,    -0.2400000000,    -0.0600000000
    1137,    -0.2200000000,    -0.0600000000
    1138,    -0.2000000000,    -0.0600000000
    1139,    -0.1800000000,    -0.0600000000
    1140,    -0.1600000000,    -0.0600000000
    1141,    -0.1400000000,    -0.0600000000
    1142,    -0.1200000000,    -0.0600000000
    1143,    -0.1000000000,    -0.0600000000
    1144,    -0.0800000000,    -0.0600000000
    1145,    -0.0600000000,    -0.0600000000
    1146,    -0.0400000000,    -0.0600000000
    1147,    -0.0200000000,    -0.0600000000
    1148,     0.0000000000,    -0.0600000000
    1149,     0.0200000000,    -0.0600000000
    1150,     0.0400000000,    -0.0600000000
    1151,     0.0600000000,    -0.0600000000
    1152,     0.0800000000,    -0.0600000000
    1153,     0.1000000000,    -0.0600000000
    1154,     0.1200000000,    -0.0600000000
    1155,     0.1400000000,    -0.0600000000
    1156,     0.1600000000,    -0.0600000000
    1157,     0.1800000000,    -0.0600000000
    1158,     0.2000000000,    -0.0600000000
    1159,     0.2200000000,    -0.0600000000
    1160,     0.2400000000,    -0.0600000000
    1161,     0.2600000000,    -0.0600000000
    1162,     0.2800000000,    -0.0600000000
    1163,     0.3000000000,    -0.0600000000
    1164,     0.3200000000,    -0.0600000000
    1165,     0.3400000000,    -0.0600000000
    1166,     0.3600000000,    -0.0600000000
    1167,     0.3800000000,    -0.0600000000
    1168,     0.4000000000,    -0.0600000000
    1169,     0.4200000000,    -0.0600000000
    1170,     0.4400000000,    -0.0600000000
    1171,     0.4600000000,    -0.0600000000
    1172,     0.4800000000,    -0.0600000000
    1173,     0.5000000000,    -0.0600000000
    1174,    -0.5000000000,    -0.0400000000
    1175,    -0.4800000000,    -0.0400000000
    1176,    -0.4600000000,    -0.0400000000
    1177,    -0.4400000000,    -0.0400000000
    1178,    -0.4200000000,    -0.0400000000
    1179,    -0.4000000000,    -0.0400000000
    1180,    -0.3800000000,    -0.0400000000
    1181,    -0.3600000000,    -0.0400000000
    1182,    -0.3400000000,    -0.0400000000
    1183,    -0.3200000000,    -0.0400000000
    1184,    -0.3000000000,    -0.0400000000
    1185,    -0.2800000000,    -0.0400000000
    1186,    -0.2600000000,    -0.0400000000
    1187,    -0.2400000000,    -0.0400000000
    1188,    -0.2200000000,    -0.0400000000
    1189,    -0.2000000000,    -0.0400000000
    1190,    -0.1800000000,    -0.0400000000
    1191,    -0.1600000000,    -0.0400000000
    1192,    -0.1400000000,    -0.0400000000
    1193,    -0.1200000000,    -0.0400000000
    1194,    -0.1000000000,    -0.0400000000
    1195,    -0.0800000000,    -0.0400000000
    1196,    -0.0600000000,    -0.0400000000
    1197,    -0.0400000000,    -0.0400000000
    1198,    -0.0200000000,    -0.0400000000
    1199,     0.0000000000,    -0.0400000000
    1200,     0.0200000000,    -0.0400000000
    1201,     0.0400000000,    -0.0400000000
    1202,     0.0600000000,    -0.0400000000
    1203,     0.0800000000,    -0.0400000000
    1204,     0.1000000000,    -0.0400000000
    1205,     0.1200000000,    -0.0400000000
    1206,     0.1400000000,    -0.0400000000
    1207,     0.1600000000,    -0.0400000000
    1208,     0.1800000000,    -0.0400000000
    1209,     0.2000000000,    -0.0400000000
    1210,     0.2200000000,    -0.0400000000
    1211,     0.2400000000,    -0.0400000000
    1212,     0.2600000000,    -0.0400000000
    1213,     0.2800000000,    -0.0400000000
    1214,     0.3000000000,    -0.0400000000
    1215,     0.3200000000,    -0.0400000000
    1216,     0.3400000000,    -0.0400000000
    1217,     0.3600000000,    -0.0400000000
    1218,     0.3800000000,    -0.0400000000
    1219,     0.4000000000,    -0.0400000000
    1220,     0.4200000000,    -0.0400000000
    1221,     0.4400000000,    -0.0400000000
    1222,     0.4600000000,    -0.0400000000
    1223,     0.4800000000,    -0.0400000000
    1224,     0.5000000000,    -0.0400000000
    1225,    -0.5000000000,    -0.0200000000
    1226,    -0.4800000000,    -0.0200000000
    1227,    -0.4600000000,    -0.0200000000
    1228,    -0.4400000000,    -0.0200000000
    1229,    -0.4200000000,    -0.0200000000
    1230,    -0.4000000000,    -0.0200000000
    1231,    -0.3800000000,    -0.0200000000
    1232,    -0.3600000000,    -0.0200000000
    1233,    -0.3400000000,    -0.0200000000
    1234,    -0.3200000000,    -0.0200000000
    1235,    -0.3000000000,    -0.0200000000
    1236,    -0.2800000000,    -0.0200000000
    1237,    -0.2600000000,    -0.0200000000
    1238,    -0.2400000000,    -0.0200000000
    1239,    -0.2200000000,    -0.0200000000
    1240,    -0.2000000000,    -0.0200000000
    1241,    -0.1800000000,    -0.0200000000
    1242,    -0.1600000000,    -0.0200000000
    1243,    -0.1400000000,    -0.0200000000
    1244,    -0.1200000000,    -0.0200000000
    1245,    -0.1000000000,    -0.0200000000
    1246,    -0.0800000000,    -0.0200000000
    1247,    -0.0600000000,    -0.0200000000
    1248,    -0.0400000000,    -0.0200000000
    1249,    -0.0200000000,    -0.0200000000
    1250,     0.0000000000,    -0.0200000000
    1251,     0.0200000000,    -0.0200000000
    1252,     0.0400000000,    -0.0200000000
    1253,     0.0600000000,    -0.0200000000
    1254,     0.0800000000,    -0.0200000000
    1255,     0.1000000000,    -0.0200000000
    1256,     0.1200000000,    -0.0200000000
    1257,     0.1400000000,    -0.0200000000
    1258,     0.1600000000,    -0.0200000000
    1259,     0.1800000000,    -0.0200000000
    1260,     0.2000000000,    -0.0200000000
    1261,     0.2200000000,    -0.0200000000
    1262,     0.2400000000,    -0.0200000000
    1263,     0.2600000000,    -0.0200000000
    1264,     0.2800000000,    -0.0200000000
    1265,     0.3000000000,    -0.0200000000
    1266,     0.3200000000,    -0.0200000000
    1267,     0.3400000000,    -0.0200000000
    1268,     0.3600000000,    -0.0200000000
    1269,     0.3800000000,    -0.0200000000
    1270,     0.4000000000,    -0.0200000000
    1271,     0.4200000000,    -0.0200000000
    1272,     0.4400000000,    -0.0200000000
    1273,     0.4600000000,    -0.0200000000
    1274,     0.4800000000,    -0.0200000000
    1275,     0.5000000000,    -0.0200000000
    1276,    -0.5000000000,     0.0000000000
    1277,    -0.4800000000,     0.0000000000
    1278,    -0.4600000000,     0.0000000000
    1279,    -0.4400000000,     0.0000000000
    1280,    -0.4200000000,     0.0000000000
    1281,    -0.4000000000,     0.0000000000
    1282,    -0.3800000000,     0.0000000000
    1283,    -0.3600000000,     0.0000000000
    1284,    -0.3400000000,     0.0000000000
    1285,    -0.3200000000,     0.0000000000
    1286,    -0.3000000000,     0.0000000000
    1287,    -0.2800000000,     0.0000000000
    1288,    -0.2600000000,     0.0000000000
    1289,    -0.2400000000,     0.0000000000
    1290,    -0.2200000000,     0.0000000000
    1291,    -0.2000000000,     0.0000000000
    1292,    -0.1800000000,     0.0000000000
    1293,    -0.1600000000,     0.0000000000
    1294,    -0.1400000000,     0.0000000000
    1295,    -0.1200000000,     0.0000000000
    1296,    -0.1000000000,     0.0000000000
    1297,    -0.0800000000,     0.0000000000
    1298,    -0.0600000000,     0.0000000000
    1299,    -0.0400000000,     0.0000000000
    1300,    -0.0200000000,     0.0000000000
    1301,     0.0000000000,     0.0000000000
    1302,     0.0200000000,     0.0000000000
    1303,     0.0400000000,     0.0000000000
    1304,     0.0600000000,     0.0000000000
    1305,     0.0800000000,     0.0000000000
    1306,     0.1000000000,     0.0000000000
    1307,     0.1200000000,     0.0000000000
    1308,     0.1400000000,     0.0000000000
    1309,     0.1600000000,     0.0000000000
    1310,     0.1800000000,     0.0000000000
    1311,     0.2000000000,     0.0000000000
    1312,     0.2200000000,     0.0000000000
    1313,     0.2400000000,     0.0000000000
    1314,     0.2600000000,     0.0000000000
    1315,     0.2800000000,     0.0000000000
    1316,     0.3000000000,     0.0000000000
    1317,     0.3200000000,     0.0000000000
    1318,     0.3400000000,     0.0000000000
    1319,     0.3600000000,     0.0000000000
    1320,     0.3800000000,     0.0000000000
    1321,     0.4000000000,     0.0000000000
    1322,     0.4200000000,     0.0000000000
    1323,     0.4400000000,     0.0000000000
    1324,     0.4600000000,     0.0000000000
    1325,     0.4800000000,     0.0000000000
    1326,     0.5000000000,     0.0000000000
    1327,    -0.5000000000,     0.0200000000
    1328,    -0.4800000000,     0.0200000000
    1329,    -0.4600000000,     0.0200000000
    1330,    -0.4400000000,     0.0200000000
    1331,    -0.4200000000,     0.0200000000
    1332,    -0.4000000000,     0.0200000000
    1333,    -0.3800000000,     0.0200000000
    1334,    -0.3600000000,     0.0200000000
    1335,    -0.3400000000,     0.0200000000
    1336,    -0.3200000000,     0.0200000000
    1337,    -0.3000000000,     0.0200000000
    1338,    -0.2800000000,     0.0200000000
    1339,    -0.2600000000,     0.0200000000
    1340,    -0.2400000000,     0.0200000000
    1341,    -0.2200000000,     0.0200000000
    1342,    -0.2000000000,     0.0200000000
    1343,    -0.1800000000,     0.0200000000
    1344,    -0.1600000000,     0.0200000000
    1345,    -0.1400000000,     0.0200000000
    1346,    -0.1200000000,     0.0200000000
    1347,    -0.1000000000,     0.0200000000
    1348,    -0.0800000000,     0.0200000000
    1349,    -0.0600000000,     0.0200000000
    1350,    -0.0400000000,     0.0200000000
    1351,    -0.0200000000,     0.0200000000
    1352,     0.0000000000,     0.0200000000
    1353,     0.0200000000,     0.0200000000
    1354,     0.0400000000,     0.0200000000
    1355,     0.0600000000,     0.0200000000
    1356,     0.0800000000,     0.0200000000
    1357,     0.1000000000,     0.0200000000
    1358,     0.1200000000,     0.0200000000
    1359,     0.1400000000,     0.0200000000
    1360,     0.1600000000,     0.0200000000
    1361,     0.1800000000,     0.0200000000
    1362,     0.2000000000,     0.0200000000
    1363,     0.2200000000,     0.0200000000
    1364,     0.2400000000,     0.0200000000
    1365,     0.2600000000,     0.0200000000
    1366,     0.2800000000,     0.0200000000
    1367,     0.3000000000,     0.0200000000
    1368,     0.3200000000,     0.0200000000
    1369,     0.3400000000,     0.0200000000
    1370,     0.3600000000,     0.0200000000
    1371,     0.3800000000,     0.0200000000
    1372,     0.4000000000,     0.0200000000
    1373,     0.4200000000,     0.0200000000
    1374,     0.4400000000,     0.0200000000
    1375,     0.4600000000,     0.0200000000
    1376,     0.4800000000,     0.0200000000
    1377,     0.5000000000,     0.0200000000
    1378,    -0.5000000000,     0.0400000000
    1379,    -0.4800000000,     0.0400000000
    1380,    -0.4600000000,     0.0400000000
    1381,    -0.4400000000,     0.0400000000
    1382,    -0.4200000000,     0.0400000000
    1383,    -0.4000000000,     0.0400000000
    1384,    -0.3800000000,     0.0400000000
    1385,    -0.3600000000,     0.0400000000
    1386,    -0.3400000000,     0.0400000000
    1387,    -0.3200000000,     0.0400000000
    1388,    -0.3000000000,     0.0400000000
    1389,    -0.2800000000,     0.0400000000
    1390,    -0.2600000000,     0.0400000000
    1391,    -0.2400000000,     0.0400000000
    1392,    -0.2200000000,     0.0400000000
    1393,    -0.2000000000,     0.0400000000
    1394,    -0.1800000000,     0.0400000000
    1395,    -0.1600000000,     0.0400000000
    1396,    -0.1400000000,     0.0400000000
    1397,    -0.1200000000,     0.0400000000
    1398,    -0.1000000000,     0.0400000000
    1399,    -0.0800000000,     0.0400000000
    1400,    -0.0600000000,     0.0400000000
    1401,    -0.0400000000,     0.0400000000
    1402,    -0.0200000000,     0.0400000000
    1403,     0.0000000000,     0.0400000000
    1404,     0.0200000000,     0.0400000000
    1405,     0.0400000000,     0.0400000000
    1406,     0.0600000000,     0.0400000000
    1407,     0.0800000000,     0.0400000000
    1408,     0.1000000000,     0.0400000000
    1409,     0.1200000000,     0.0400000000
    1410,     0.1400000000,     0.0400000000
    1411,     0.1600000000,     0.0400000000
    1412,     0.1800000000,     0.0400000000
    1413,     0.2000000000,     0.0400000000
    1414,     0.2200000000,     0.0400000000
    1415,     0.2400000000,     0.0400000000
    1416,     0.2600000000,     0.0400000000
    1417,     0.2800000000,     0.0400000000
    1418,     0.3000000000,     0.0400000000
    1419,     0.3200000000,     0.0400000000
    1420,     0.3400000000,     0.0400000000
    1421,     0.3600000000,     0.0400000000
    1422,     0.3800000000,     0.0400000000
    1423,     0.4000000000,     0.0400000000
    1424,     0.4200000000,     0.0400000000
    1425,     0.4400000000,     0.0400000000
    1426,     0.4600000000,     0.0400000000
    1427,     0.4800000000,     0.0400000000
    1428,     0.5000000000,     0.0400000000
    1429,    -0.5000000000,     0.0600000000
    1430,    -0.4800000000,     0.0600000000
    1431,    -0.4600000000,     0.0600000000
    1432,    -0.4400000000,     0.0600000000
    1433,    -0.4200000000,     0.0600000000
    1434,    -0.4000000000,     0.0600000000
    1435,    -0.3800000000,     0.0600000000
    1436,    -0.3600000000,     0.0600000000
    1437,    -0.3400000000,     0.0600000000
    1438,    -0.3200000000,     0.0600000000
    1439,    -0.3000000000,     0.0600000000
    1440,    -0.2800000000,     0.0600000000
    1441,    -0.2600000000,     0.0600000000
    1442,    -0.2400000000,     0.0600000000
    1443,    -0.2200000000,     0.0600000000
    1444,    -0.2000000000,     0.0600000000
    1445,    -0.1800000000,     0.0600000000
    1446,    -0.1600000000,     0.0600000000
    1447,    -0.1400000000,     0.0600000000
    1448,    -0.1200000000,     0.0600000000
    1449,    -0.1000000000,     0.0600000000
    1450,    -0.0800000000,     0.0600000000
    1451,    -0.0600000000,     0.0600000000
    1452,    -0.0400000000,     0.0600000000
    1453,    -0.0200000000,     0.0600000000
    1454,     0.0000000000,     0.0600000000
    1455,     0.0200000000,     0.0600000000
    1456,     0.0400000000,     0.0600000000
    1457,     0.0600000000,     0.0600000000
    1458,     0.0800000000,     0.0600000000
    1459,     0.1000000000,     0.0600000000
    1460,     0.1200000000,     0.0600000000
    1461,     0.1400000000,     0.0600000000
    1462,     0.1600000000,     0.0600000000
    1463,     0.1800000000,     0.0600000000
    1464,     0.2000000000,     0.0600000000
    1465,     0.2200000000,     0.0600000000
    1466,     0.2400000000,     0.0600000000
    1467,     0.2600000000,     0.0600000000
    1468,     0.2800000000,     0.0600000000
    1469,     0.3000000000,     0.0600000000
    1470,     0.3200000000,     0.0600000000
    1471,     0.3400000000,     0.0600000000
    1472,     0.3600000000,     0.0600000000
    1473,     0.3800000000,     0.0600000000
    1474,     0.4000000000,     0.0600000000
    1475,     0.4200000000,     0.0600000000
    1476,     0.4400000000,     0.0600000000
    1477,     0.4600000000,     0.0600000000
    1478,     0.4800000000,     0.0600000000
    1479,     0.5000000000,     0.0600000000
    1480,    -0.5000000000,     0.0800000000
    1481,    -0.4800000000,     0.0800000000
    1482,    -0.4600000000,     0.0800000000
    1483,    -0.4400000000,     0.0800000000
    1484,    -0.4200000000,     0.0800000000
    1485,    -0.4000000000,     0.0800000000
    1486,    -0.3800000000,     0.0800000000
    1487,    -0.3600000000,     0.0800000000
    1488,    -0.3400000000,     0.0800000000
    1489,    -0.3200000000,     0.0800000000
    1490,    -0.3000000000,     0.0800000000
    1491,    -0.2800000000,     0.0800000000
    1492,    -0.2600000000,     0.0800000000
    1493,    -0.2400000000,     0.0800000000
    1494,    -0.2200000000,     0.0800000000
    1495,    -0.2000000000,     0.0800000000
    1496,    -0.1800000000,     0.0800000000
    1497,    -0.1600000000,     0.0800000000
    1498,    -0.1400000000,     0.0800000000
    1499,    -0.1200000000,     0.0800000000
    1500,    -0.1000000000,     0.0800000000
    1501,    -0.0800000000,     0.0800000000
    1502,    -0.0600000000,     0.0800000000
    1503,    -0.0400000000,     0.0800000000
    1504,    -0.0200000000,     0.0800000000
    1505,     0.0000000000,     0.0800000000
    1506,     0.0200000000,     0.0800000000
    1507,     0.0400000000,     0.0800000000
    1508,     0.0600000000,     0.0800000000
    1509,     0.0800000000,     0.0800000000
    1510,     0.1000000000,     0.0800000000
    1511,     0.1200000000,     0.0800000000
    1512,     0.1400000000,     0.0800000000
    1513,     0.1600000000,     0.0800000000
    1514,     0.1800000000,     0.0800000000
    1515,     0.2000000000,     0.0800000000
    1516,     0.2200000000,     0.0800000000
    1517,     0.2400000000,     0.0800000000
    1518,     0.2600000000,     0.0800000000
    1519,     0.2800000000,     0.0800000000
    1520,     0.3000000000,     0.0800000000
    1521,     0.3200000000,     0.0800000000
    1522,     0.3400000000,     0.0800000000
    1523,     0.3600000000,     0.0800000000
    1524,     0.3800000000,     0.0800000000
    1525,     0.4000000000,     0.0800000000
    1526,     0.4200000000,     0.0800000000
    1527,     0.4400000000,     0.0800000000
    1528,     0.4600000000,     0.0800000000
    1529,     0.4800000000,     0.0800000000
    1530,     0.5000000000,     0.0800000000
    1531,    -0.5000000000,     0.1000000000
    1532,    -0.4800000000,     0.1000000000
    1533,    -0.4600000000,     0.1000000000
    1534,    -0.4400000000,     0.1000000000
    1535,    -0.4200000000,     0.1000000000
    1536,    -0.4000000000,     0.1000000000
    1537,    -0.3800000000,     0.1000000000
    1538,    -0.3600000000,     0.1000000000
    1539,    -0.3400000000,     0.1000000000
    1540,    -0.3200000000,     0.1000000000
    1541,    -0.3000000000,     0.1000000000
    1542,    -0.2800000000,     0.1000000000
    1543,    -0.2600000000,     0.1000000000
    1544,    -0.2400000000,     0.1000000000
    1545,    -0.2200000000,     0.1000000000
    1546,    -0.2000000000,     0.1000000000
    1547,    -0.1800000000,     0.1000000000
    1548,    -0.1600000000,     0.1000000000
    1549,    -0.1400000000,     0.1000000000
    1550,    -0.1200000000,     0.1000000000
    1551,    -0.1000000000,     0.1000000000
    1552,    -0.0800000000,     0.1000000000
    1553,    -0.0600000000,     0.1000000000
    1554,    -0.0400000000,     0.1000000000
    1555,    -0.0200000000,     0.1000000000
    1556,     0.0000000000,     0.1000000000
    1557,     0.0200000000,     0.1000000000
    1558,     0.0400000000,     0.1000000000
    1559,     0.0600000000,     0.1000000000
    1560,     0.0800000000,     0.1000000000
    1561,     0.1000000000,     0.1000000000
    1562,     0.1200000000,     0.1000000000
    1563,     0.1400000000,     0.1000000000
    1564,     0.1600000000,     0.1000000000
    1565,     0.1800000000,     0.1000000000
    1566,     0.2000000000,     0.1000000000
    1567,     0.2200000000,     0.1000000000
    1568,     0.2400000000,     0.1000000000
    1569,     0.2600000000,     0.1000000000
    1570,     0.2800000000,     0.1000000000
    1571,     0.3000000000,     0.1000000000
    1572,     0.3200000000,     0.1000000000
    1573,     0.3400000000,     0.1000000000
    1574,     0.3600000000,     0.1000000000
    1575,     0.3800000000,     0.1000000000
    1576,     0.4000000000,     0.1000000000
    1577,     0.4200000000,     0.1000000000
    1578,     0.4400000000,     0.1000000000
    1579,     0.4600000000,     0.1000000000
    1580,     0.4800000000,     0.1000000000
    1581,     0.5000000000,     0.1000000000
    1582,    -0.5000000000,     0.1200000000
    1583,    -0.4800000000,     0.1200000000
    1584,    -0.4600000000,     0.1200000000
    1585,    -0.4400000000,     0.1200000000
    1586,    -0.4200000000,     0.1200000000
    1587,    -0.4000000000,     0.1200000000
    1588,    -0.3800000000,     0.1200000000
    1589,    -0.3600000000,     0.1200000000
    1590,    -0.3400000000,     0.1200000000
    1591,    -0.3200000000,     0.1200000000
    1592,    -0.3000000000,     0.1200000000
    1593,    -0.2800000000,     0.1200000000
    1594,    -0.2600000000,     0.1200000000
    1595,    -0.2400000000,     0.1200000000
    1596,    -0.2200000000,     0.1200000000
    1597,    -0.2000000000,     0.1200000000
    1598,    -0.1800000000,     0.1200000000
    1599,    -0.1600000000,     0.1200000000
    1600,    -0.1400000000,     0.1200000000
    1601,    -0.1200000000,     0.1200000000
    1602,    -0.1000000000,     0.1200000000
    1603,    -0.0800000000,     0.1200000000
    1604,    -0.0600000000,     0.1200000000
    1605,    -0.0400000000,     0.1200000000
    1606,    -0.0200000000,     0.1200000000
    1607,     0.0000000000,     0.1200000000
    1608,     0.0200000000,     0.1200000000
    1609,     0.0400000000,     0.1200000000
    1610,     0.0600000000,     0.1200000000
    1611,     0.0800000000,     0.1200000000
    1612,     0.1000000000,     0.1200000000
    1613,     0.1200000000,     0.1200000000
    1614,     0.1400000000,     0.1200000000
    1615,     0.1600000000,     0.1200000000
    1616,     0.1800000000,     0.1200000000
    1617,     0.2000000000,     0.1200000000
    1618,     0.2200000000,     0.1200000000
    1619,     0.2400000000,     0.1200000000
    1620,     0.2600000000,     0.1200000000
    1621,     0.2800000000,     0.1200000000
    1622,     0.3000000000,     0.1200000000
    1623,     0.3200000000,     0.1200000000
    1624,     0.3400000000,     0.1200000000
    1625,     0.3600000000,     0.1200000000
    1626,     0.3800000000,     0.1200000000
    1627,     0.4000000000,     0.1200000000
    1628,     0.4200000000,     0.1200000000
    1629,     0.4400000000,     0.1200000000
    1630,     0.4600000000,     0.1200000000
    1631,     0.4800000000,     0.1200000000
    1632,     0.5000000000,     0.1200000000
    1633,    -0.5000000000,     0.1400000000
    1634,    -0.4800000000,     0.1400000000
    1635,    -0.4600000000,     0.1400000000
    1636,    -0.4400000000,     0.1400000000
    1637,    -0.4200000000,     0.1400000000
    1638,    -0.4000000000,     0.1400000000
    1639,    -0.3800000000,     0.1400000000
    1640,    -0.3600000000,     0.1400000000
    1641,    -0.3400000000,     0.1400000000
    1642,    -0.3200000000,     0.1400000000
    1643,    -0.3000000000,     0.1400000000
    1644,    -0.2800000000,     0.1400000000
    1645,    -0.2600000000,     0.1400000000
    1646,    -0.2400000000,     0.1400000000
    1647,    -0.2200000000,     0.1400000000
    1648,    -0.2000000000,     0.1400000000
    1649,    -0.1800000000,     0.1400000000
    1650,    -0.1600000000,     0.1400000000
    1651,    -0.1400000000,     0.1400000000
    1652,    -0.1200000000,     0.1400000000
    1653,    -0.1000000000,     0.1400000000
    1654,    -0.0800000000,     0.1400000000
    1655,    -0.0600000000,     0.1400000000
    1656,    -0.0400000000,     0.1400000000
    1657,    -0.0200000000,     0.1400000000
    1658,     0.0000000000,     0.1400000000
    1659,     0.0200000000,     0.1400000000
    1660,     0.0400000000,     0.1400000000
    1661,     0.0600000000,     0.1400000000
    1662,     0.0800000000,     0.1400000000
    1663,     0.1000000000,     0.1400000000
    1664,     0.1200000000,     0.1400000000
    1665,     0.1400000000,     0.1400000000
    1666,     0.1600000000,     0.1400000000
    1667,     0.1800000000,     0.1400000000
    1668,     0.2000000000,     0.1400000000
    1669,     0.2200000000,     0.1400000000
    1670,     0.2400000000,     0.1400000000
    1671,     0.2600000000,     0.1400000000
    1672,     0.2800000000,     0.1400000000
    1673,     0.3000000000,     0.1400000000
    1674,     0.3200000000,     0.1400000000
    1675,     0.3400000000,     0.1400000000
    1676,     0.3600000000,     0.1400000000
    1677,     0.3800000000,     0.1400000000
    1678,     0.4000000000,     0.1400000000
    1679,     0.4200000000,     0.1400000000
    1680,     0.4400000000,     0.1400000000
    1681,     0.4600000000,     0.1400000000
    1682,     0.4800000000,     0.1400000000
    1683,     0.5000000000,     0.1400000000
    1684,    -0.5000000000,     0.1600000000
    1685,    -0.4800000000,     0.1600000000
    1686,    -0.4600000000,     0.1600000000
    1687,    -0.4400000000,     0.1600000000
    1688,    -0.4200000000,     0.1600000000
    1689,    -0.4000000000,     0.1600000000
    1690,    -0.3800000000,     0.1600000000
    1691,    -0.3600000000,     0.1600000000
    1692,    -0.3400000000,     0.1600000000
    1693,    -0.3200000000,     0.1600000000
    1694,    -0.3000000000,     0.1600000000
    1695,    -0.2800000000,     0.1600000000
    1696,    -0.2600000000,     0.1600000000
    1697,    -0.2400000000,     0.1600000000
    1698,    -0.2200000000,     0.1600000000
    1699,    -0.2000000000,     0.1600000000
    1700,    -0.1800000000,     0.1600000000
    1701,    -0.1600000000,     0.1600000000
    1702,    -0.1400000000,     0.1600000000
    1703,    -0.1200000000,     0.1600000000
    1704,    -0.1000000000,     0.1600000000
    1705,    -0.0800000000,     0.1600000000
    1706,    -0.0600000000,     0.1600000000
    1707,    -0.0400000000,     0.1600000000
    1708,    -0.0200000000,     0.1600000000
    1709,     0.0000000000,     0.1600000000
    1710,     0.0200000000,     0.1600000000
    1711,     0.0400000000,     0.1600000000
    1712,     0.0600000000,     0.1600000000
    1713,     0.0800000000,     0.1600000000
    1714,     0.1000000000,     0.1600000000
    1715,     0.1200000000,     0.1600000000
    1716,     0.1400000000,     0.1600000000
    1717,     0.1600000000,     0.1600000000
    1718,     0.1800000000,     0.1600000000
    1719,     0.2000000000,     0.1600000000
    1720,     0.2200000000,     0.1600000000
    1721,     0.2400000000,     0.1600000000
    1722,     0.2600000000,     0.1600000000
    1723,     0.2800000000,     0.1600000000
    1724,     0.3000000000,     0.1600000000
    1725,     0.3200000000,     0.1600000000
    1726,     0.3400000000,     0.1600000000
    1727,     0.3600000000,     0.1600000000
    1728,     0.3800000000,     0.1600000000
    1729,     0.4000000000,     0.1600000000
    1730,     0.4200000000,     0.1600000000
    1731,     0.4400000000,     0.1600000000
    1732,     0.4600000000,     0.1600000000
    1733,     0.4800000000,     0.1600000000
    1734,     0.5000000000,     0.1600000000
    1735,    -0.5000000000,     0.1800000000
    1736,    -0.4800000000,     0.1800000000
    1737,    -0.4600000000,     0.1800000000
    1738,    -0.4400000000,     0.1800000000
    1739,    -0.4200000000,     0.1800000000
    1740,    -0.4000000000,     0.1800000000
    1741,    -0.3800000000,     0.1800000000
    1742,    -0.3600000000,     0.1800000000
    1743,    -0.3400000000,     0.1800000000
    1744,    -0.3200000000,     0.1800000000
    1745,    -0.3000000000,     0.1800000000
    1746,    -0.2800000000,     0.1800000000
    1747,    -0.2600000000,     0.1800000000
    1748,    -0.2400000000,     0.1800000000
    1749,    -0.2200000000,     0.1800000000
    1750,    -0.2000000000,     0.1800000000
    1751,    -0.1800000000,     0.1800000000
    1752,    -0.1600000000,     0.1800000000
    1753,    -0.1400000000,     0.1800000000
    1754,    -0.1200000000,     0.1800000000
    1755,    -0.1000000000,     0.1800000000
    1756,    -0.0800000000,     0.1800000000
    1757,    -0.0600000000,     0.1800000000
    1758,    -0.0400000000,     0.1800000000
    1759,    -0.0200000000,     0.1800000000
    1760,     0.0000000000,     0.1800000000
    1761,     0.0200000000,     0.1800000000
    1762,     0.0400000000,     0.1800000000
    1763,     0.0600000000,     0.1800000000
    1764,     0.0800000000,     0.1800000000
    1765,     0.1000000000,     0.1800000000
    1766,     0.1200000000,     0.1800000000
    1767,     0.1400000000,     0.1800000000
    1768,     0.1600000000,     0.1800000000
    1769,     0.1800000000,     0.1800000000
    1770,     0.2000000000,     0.1800000000
    1771,     0.2200000000,     0.1800000000
    1772,     0.2400000000,     0.1800000000
    1773,     0.2600000000,     0.1800000000
    1774,     0.2800000000,     0.1800000000
    1775,     0.3000000000,     0.1800000000
    1776,     0.3200000000,     0.1800000000
    1777,     0.3400000000,     0.1800000000
    1778,     0.3600000000,     0.1800000000
    1779,     0.3800000000,     0.1800000000
    1780,     0.4000000000,     0.1800000000
    1781,     0.4200000000,     0.1800000000
    1782,     0.4400000000,     0.1800000000
    1783,     0.4600000000,     0.1800000000
    1784,     0.4800000000,     0.1800000000
    1785,     0.5000000000,     0.1800000000
    1786,    -0.5000000000,     0.2000000000
    1787,    -0.4800000000,     0.2000000000
    1788,    -0.4600000000,     0.2000000000
    1789,    -0.4400000000,     0.2000000000
    1790,    -0.4200000000,     0.2000000000
    1791,    -0.4000000000,     0.2000000000
    1792,    -0.3800000000,     0.2000000000
    1793,    -0.3600000000,     0.2000000000
    1794,    -0.3400000000,     0.2000000000
    1795,    -0.3200000000,     0.2000000000
    1796,    -0.3000000000,     0.2000000000
    1797,    -0.2800000000,     0.2000000000
    1798,    -0.2600000000,     0.2000000000
    1799,    -0.2400000000,     0.2000000000
    1800,    -0.2200000000,     0.2000000000
    1801,    -0.2000000000,     0.2000000000
    1802,    -0.1800000000,     0.2000000000
    1803,    -0.1600000000,     0.2000000000
    1804,    -0.1400000000,     0.2000000000
    1805,    -0.1200000000,     0.2000000000
    1806,    -0.1000000000,     0.2000000000
    1807,    -0.0800000000,     0.2000000000
    1808,    -0.0600000000,     0.2000000000
    1809,    -0.0400000000,     0.2000000000
    1810,    -0.0200000000,     0.2000000000
    1811,     0.0000000000,     0.2000000000
    1812,     0.0200000000,     0.2000000000
    1813,     0.0400000000,     0.2000000000
    1814,     0.0600000000,     0.2000000000
    1815,     0.0800000000,     0.2000000000
    1816,     0.1000000000,     0.2000000000
    1817,     0.1200000000,     0.2000000000
    1818,     0.1400000000,     0.2000000000
    1819,     0.1600000000,     0.2000000000
    1820,     0.1800000000,     0.2000000000
    1821,     0.2000000000,     0.2000000000
    1822,     0.2200000000,     0.2000000000
    1823,     0.2400000000,     0.2000000000
    1824,     0.2600000000,     0.2000000000
    1825,     0.2800000000,     0.2000000000
    1826,     0.3000000000,     0.2000000000
    1827,     0.3200000000,     0.2000000000
    1828,     0.3400000000,     0.2000000000
    1829,     0.3600000000,     0.2000000000
    1830,     0.3800000000,     0.2000000000
    1831,     0.4000000000,     0.2000000000
    1832,     0.4200000000,     0.2000000000
    1833,     0.4400000000,     0.2000000000
    1834,     0.4600000000,     0.2000000000
    1835,     0.4800000000,     0.2000000000
    1836,     0.5000000000,     0.2000000000
    1837,    -0.5000000000,     0.2200000000
    1838,    -0.4800000000,     0.2200000000
    1839,    -0.4600000000,     0.2200000000
    1840,    -0.4400000000,     0.2200000000
    1841,    -0.4200000000,     0.2200000000
    1842,    -0.4000000000,     0.2200000000
    1843,    -0.3800000000,     0.2200000000
    1844,    -0.3600000000,     0.2200000000
    1845,    -0.3400000000,     0.2200000000
    1846,    -0.3200000000,     0.2200000000
    1847,    -0.3000000000,     0.2200000000
    1848,    -0.2800000000,     0.2200000000
    1849,    -0.2600000000,     0.2200000000
    1850,    -0.2400000000,     0.2200000000
    1851,    -0.2200000000,     0.2200000000
    1852,    -0.2000000000,     0.2200000000
    1853,    -0.1800000000,     0.2200000000
    1854,    -0.1600000000,     0.2200000000
    1855,    -0.1400000000,     0.2200000000
    1856,    -0.1200000000,     0.2200000000
    1857,    -0.1000000000,     0.2200000000
    1858,    -0.0800000000,     0.2200000000
    1859,    -0.0600000000,     0.2200000000
    1860,    -0.0400000000,     0.2200000000
    1861,    -0.0200000000,     0.2200000000
    1862,     0.0000000000,     0.2200000000
    1863,     0.0200000000,     0.2200000000
    1864,     0.0400000000,     0.2200000000
    1865,     0.0600000000,     0.2200000000
    1866,     0.0800000000,     0.2200000000
    1867,     0.1000000000,     0.2200000000
    1868,     0.1200000000,     0.2200000000
    1869,     0.1400000000,     0.2200000000
    1870,     0.1600000000,     0.2200000000
    1871,     0.1800000000,     0.2200000000
    1872,     0.2000000000,     0.2200000000
    1873,     0.2200000000,     0.2200000000
    1874,     0.2400000000,     0.2200000000
    1875,     0.2600000000,     0.2200000000
    1876,     0.2800000000,     0.2200000000
    1877,     0.3000000000,     0.2200000000
    1878,     0.3200000000,     0.2200000000
    1879,     0.3400000000,     0.2200000000
    1880,     0.3600000000,     0.2200000000
    1881,     0.3800000000,     0.2200000000
    1882,     0.4000000000,     0.2200000000
    1883,     0.4200000000,     0.2200000000
    1884,     0.4400000000,     0.2200000000
    1885,     0.4600000000,     0.2200000000
    1886,     0.4800000000,     0.2200000000
    1887,     0.5000000000,     0.2200000000
    1888,    -0.5000000000,     0.2400000000
    1889,    -0.4800000000,     0.2400000000
    1890,    -0.4600000000,     0.2400000000
    1891,    -0.4400000000,     0.2400000000
    1892,    -0.4200000000,     0.2400000000
    1893,    -0.4000000000,     0.2400000000
    1894,    -0.3800000000,     0.2400000000
    1895,    -0.3600000000,     0.2400000000
    1896,    -0.3400000000,     0.2400000000
    1897,    -0.3200000000,     0.2400000000
    1898,    -0.3000000000,     0.2400000000
    1899,    -0.2800000000,     0.2400000000
    1900,    -0.2600000000,     0.2400000000
    1901,    -0.2400000000,     0.2400000000
    1902,    -0.2200000000,     0.2400000000
    1903,    -0.2000000000,     0.2400000000
    1904,    -0.1800000000,     0.2400000000
    1905,    -0.1600000000,     0.2400000000
    1906,    -0.1400000000,     0.2400000000
    1907,    -0.1200000000,     0.2400000000
    1908,    -0.1000000000,     0.2400000000
    1909,    -0.0800000000,     0.2400000000
    1910,    -0.0600000000,     0.2400000000
    1911,    -0.0400000000,     0.2400000000
    1912,    -0.0200000000,     0.2400000000
    1913,     0.0000000000,     0.2400000000
    1914,     0.0200000000,     0.2400000000
    1915,     0.0400000000,     0.2400000000
    1916,     0.0600000000,     0.2400000000
    1917,     0.0800000000,     0.2400000000
    1918,     0.1000000000,     0.2400000000
    1919,     0.1200000000,     0.2400000000
    1920,     0.1400000000,     0.2400000000
    1921,     0.1600000000,     0.2400000000
    1922,     0.1800000000,     0.2400000000
    1923,     0.2000000000,     0.2400000000
    1924,     0.2200000000,     0.2400000000
    1925,     0.2400000000,     0.2400000000
    1926,     0.2600000000,     0.2400000000
    1927,     0.2800000000,     0.2400000000
    1928,     0.3000000000,     0.2400000000
    1929,     0.3200000000,     0.2400000000
    1930,     0.3400000000,     0.2400000000
    1931,     0.3600000000,     0.2400000000
    1932,     0.3800000000,     0.2400000000
    1933,     0.4000000000,     0.2400000000
    1934,     0.4200000000,     0.2400000000
    1935,     0.4400000000,     0.2400000000
    1936,     0.4600000000,     0.2400000000
    1937,     0.4800000000,     0.2400000000
    1938,     0.5000000000,     0.2400000000
    1939,    -0.5000000000,     0.2600000000
    1940,    -0.4800000000,     0.2600000000
    1941,    -0.4600000000,     0.2600000000
    1942,    -0.4400000000,     0.2600000000
    1943,    -0.4200000000,     0.2600000000
    1944,    -0.4000000000,     0.2600000000
    1945,    -0.3800000000,     0.2600000000
    1946,    -0.3600000000,     0.2600000000
    1947,    -0.3400000000,     0.2600000000
    1948,    -0.3200000000,     0.2600000000
    1949,    -0.3000000000,     0.2600000000
    1950,    -0.2800000000,     0.2600000000
    1951,    -0.2600000000,     0.2600000000
    1952,    -0.2400000000,     0.2600000000
    1953,    -0.2200000000,     0.2600000000
    1954,    -0.2000000000,     0.2600000000
    1955,    -0.1800000000,     0.2600000000
    1956,    -0.1600000000,     0.2600000000
    1957,    -0.1400000000,     0.2600000000
    1958,    -0.1200000000,     0.2600000000
    1959,    -0.1000000000,     0.2600000000
    1960,    -0.0800000000,     0.2600000000
    1961,    -0.0600000000,     0.2600000000
    1962,    -0.0400000000,     0.2600000000
    1963,    -0.0200000000,     0.2600000000
    1964,     0.0000000000,     0.2600000000
    1965,     0.0200000000,     0.2600000000
    1966,     0.0400000000,     0.2600000000
    1967,     0.0600000000,     0.2600000000
    1968,     0.0800000000,     0.2600000000
    1969,     0.1000000000,     0.2600000000
    1970,     0.1200000000,     0.2600000000
    1971,     0.1400000000,     0.2600000000
    1972,     0.1600000000,     0.2600000000
    1973,     0.1800000000,     0.2600000000
    1974,     0.2000000000,     0.2600000000
    1975,     0.2200000000,     0.2600000000
    1976,     0.2400000000,     0.2600000000
    1977,     0.2600000000,     0.2600000000
    1978,     0.2800000000,     0.2600000000
    1979,     0.3000000000,     0.2600000000
    1980,     0.3200000000,     0.2600000000
    1981,     0.3400000000,     0.2600000000
    1982,     0.3600000000,     0.2600000000
    1983,     0.3800000000,     0.2600000000
    1984,     0.4000000000,     0.2600000000
    1985,     0.4200000000,     0.2600000000
    1986,     0.4400000000,     0.2600000000
    1987,     0.4600000000,     0.2600000000
    1988,     0.4800000000,     0.2600000000
    1989,     0.5000000000,     0.2600000000
    1990,    -0.5000000000,     0.2800000000
    1991,    -0.4800000000,     0.2800000000
    1992,    -0.4600000000,     0.2800000000
    1993,    -0.4400000000,     0.2800000000
    1994,    -0.4200000000,     0.2800000000
    1995,    -0.4000000000,     0.2800000000
    1996,    -0.3800000000,     0.2800000000
    1997,    -0.3600000000,     0.2800000000
    1998,    -0.3400000000,     0.2800000000
    1999,    -0.3200000000,     0.2800000000
    2000,    -0.3000000000,     0.2800000000
    2001,    -0.2800000000,     0.2800000000
    2002,    -0.2600000000,     0.2800000000
    2003,    -0.2400000000,     0.2800000000
    2004,    -0.2200000000,     0.2800000000
    2005,    -0.2000000000,     0.2800000000
    2006,    -0.1800000000,     0.2800000000
    2007,    -0.1600000000,     0.2800000000
    2008,    -0.1400000000,     0.2800000000
    2009,    -0.1200000000,     0.2800000000
    2010,    -0.1000000000,     0.2800000000
    2011,    -0.0800000000,     0.2800000000
    2012,    -0.0600000000,     0.2800000000
    2013,    -0.0400000000,     0.2800000000
    2014,    -0.0200000000,     0.2800000000
    2015,     0.0000000000,     0.2800000000
    2016,     0.0200000000,     0.2800000000
    2017,     0.0400000000,     0.2800000000
    2018,     0.0600000000,     0.2800000000
    2019,     0.0800000000,     0.2800000000
    2020,     0.1000000000,     0.2800000000
    2021,     0.1200000000,     0.2800000000
    2022,     0.1400000000,     0.2800000000
    2023,     0.1600000000,     0.2800000000
    2024,     0.1800000000,     0.2800000000
    2025,     0.2000000000,     0.2800000000
    2026,     0.2200000000,     0.2800000000
    2027,     0.2400000000,     0.2800000000
    2028,     0.2600000000,     0.2800000000
    2029,     0.2800000000,     0.2800000000
    2030,     0.3000000000,     0.2800000000
    2031,     0.3200000000,     0.2800000000
    2032,     0.3400000000,     0.2800000000
    2033,     0.3600000000,     0.2800000000
    2034,     0.3800000000,     0.2800000000
    2035,     0.4000000000,     0.2800000000
    2036,     0.4200000000,     0.2800000000
    2037,     0.4400000000,     0.2800000000
    2038,     0.4600000000,     0.2800000000
    2039,     0.4800000000,     0.2800000000
    2040,     0.5000000000,     0.2800000000
    2041,    -0.5000000000,     0.3000000000
    2042,    -0.4800000000,     0.3000000000
    2043,    -0.4600000000,     0.3000000000
    2044,    -0.4400000000,     0.3000000000
    2045,    -0.4200000000,     0.3000000000
    2046,    -0.4000000000,     0.3000000000
    2047,    -0.3800000000,     0.3000000000
    2048,    -0.3600000000,     0.3000000000
    2049,    -0.3400000000,     0.3000000000
    2050,    -0.3200000000,     0.3000000000
    2051,    -0.3000000000,     0.3000000000
    2052,    -0.2800000000,     0.3000000000
    2053,    -0.2600000000,     0.3000000000
    2054,    -0.2400000000,     0.3000000000
    2055,    -0.2200000000,     0.3000000000
    2056,    -0.2000000000,     0.3000000000
    2057,    -0.1800000000,     0.3000000000
    2058,    -0.1600000000,     0.3000000000
    2059,    -0.1400000000,     0.3000000000
    2060,    -0.1200000000,     0.3000000000
    2061,    -0.1000000000,     0.3000000000
    2062,    -0.0800000000,     0.3000000000
    2063,    -0.0600000000,     0.3000000000
    2064,    -0.0400000000,     0.3000000000
    2065,    -0.0200000000,     0.3000000000
    2066,     0.0000000000,     0.3000000000
    2067,     0.0200000000,     0.3000000000
    2068,     0.0400000000,     0.3000000000
    2069,     0.0600000000,     0.3000000000
    2070,     0.0800000000,     0.3000000000
    2071,     0.1000000000,     0.3000000000
    2072,     0.1200000000,     0.3000000000
    2073,     0.1400000000,     0.3000000000
    2074,     0.1600000000,     0.3000000000
    2075,     0.1800000000,     0.3000000000
    2076,     0.2000000000,     0.3000000000
    2077,     0.2200000000,     0.3000000000
    2078,     0.2400000000,     0.3000000000
    2079,     0.2600000000,     0.3000000000
    2080,     0.2800000000,     0.3000000000
    2081,     0.3000000000,     0.3000000000
    2082,     0.3200000000,     0.3000000000
    2083,     0.3400000000,     0.3000000000
    2084,     0.3600000000,     0.3000000000
    2085,     0.3800000000,     0.3000000000
    2086,     0.4000000000,     0.3000000000
    2087,     0.4200000000,     0.3000000000
    2088,     0.4400000000,     0.3000000000
    2089,     0.4600000000,     0.3000000000
    2090,     0.4800000000,     0.3000000000
    2091,     0.5000000000,     0.3000000000
    2092,    -0.5000000000,     0.3200000000
    2093,    -0.4800000000,     0.3200000000
    2094,    -0.4600000000,     0.3200000000
    2095,    -0.4400000000,     0.3200000000
    2096,    -0.4200000000,     0.3200000000
    2097,    -0.4000000000,     0.3200000000
    2098,    -0.3800000000,     0.3200000000
    2099,    -0.3600000000,     0.3200000000
    2100,    -0.3400000000,     0.3200000000
    2101,    -0.3200000000,     0.3200000000
    2102,    -0.3000000000,     0.3200000000
    2103,    -0.2800000000,     0.3200000000
    2104,    -0.2600000000,     0.3200000000
    2105,    -0.2400000000,     0.3200000000
    2106,    -0.2200000000,     0.3200000000
    2107,    -0.2000000000,     0.3200000000
    2108,    -0.1800000000,     0.3200000000
    2109,    -0.1600000000,     0.3200000000
    2110,    -0.1400000000,     0.3200000000
    2111,    -0.1200000000,     0.3200000000
    2112,    -0.1000000000,     0.3200000000
    2113,    -0.0800000000,     0.3200000000
    2114,    -0.0600000000,     0.3200000000
    2115,    -0.0400000000,     0.3200000000
    2116,    -0.0200000000,     0.3200000000
    2117,     0.0000000000,     0.3200000000
    2118,     0.0200000000,     0.3200000000
    2119,     0.0400000000,     0.3200000000
    2120,     0.0600000000,     0.3200000000
    2121,     0.0800000000,     0.3200000000
    2122,     0.1000000000,     0.3200000000
    2123,     0.1200000000,     0.3200000000
    2124,     0.1400000000,     0.3200000000
    2125,     0.1600000000,     0.3200000000
    2126,     0.1800000000,     0.3200000000
    2127,     0.2000000000,     0.3200000000
    2128,     0.2200000000,     0.3200000000
    2129,     0.2400000000,     0.3200000000
    2130,     0.2600000000,     0.3200000000
    2131,     0.2800000000,     0.3200000000
    2132,     0.3000000000,     0.3200000000
    2133,     0.3200000000,     0.3200000000
    2134,     0.3400000000,     0.3200000000
    2135,     0.3600000000,     0.3200000000
    2136,     0.3800000000,     0.3200000000
    2137,     0.4000000000,     0.3200000000
    2138,     0.4200000000,     0.3200000000
    2139,     0.4400000000,     0.3200000000
    2140,     0.4600000000,     0.3200000000
    2141,     0.4800000000,     0.3200000000
    2142,     0.5000000000,     0.3200000000
    2143,    -0.5000000000,     0.3400000000
    2144,    -0.4800000000,     0.3400000000
    2145,    -0.4600000000,     0.3400000000
    2146,    -0.4400000000,     0.3400000000
    2147,    -0.4200000000,     0.3400000000
    2148,    -0.4000000000,     0.3400000000
    2149,    -0.3800000000,     0.3400000000
    2150,    -0.3600000000,     0.3400000000
    2151,    -0.3400000000,     0.3400000000
    2152,    -0.3200000000,     0.3400000000
    2153,    -0.3000000000,     0.3400000000
    2154,    -0.2800000000,     0.3400000000
    2155,    -0.2600000000,     0.3400000000
    2156,    -0.2400000000,     0.3400000000
    2157,    -0.2200000000,     0.3400000000
    2158,    -0.2000000000,     0.3400000000
    2159,    -0.1800000000,     0.3400000000
    2160,    -0.1600000000,     0.3400000000
    2161,    -0.1400000000,     0.3400000000
    2162,    -0.1200000000,     0.3400000000
    2163,    -0.1000000000,     0.3400000000
    2164,    -0.0800000000,     0.3400000000
    2165,    -0.0600000000,     0.3400000000
    2166,    -0.0400000000,     0.3400000000
    2167,    -0.0200000000,     0.3400000000
    2168,     0.0000000000,     0.3400000000
    2169,     0.0200000000,     0.3400000000
    2170,     0.0400000000,     0.3400000000
    2171,     0.0600000000,     0.3400000000
    2172,     0.0800000000,     0.3400000000
    2173,     0.1000000000,     0.3400000000
    2174,     0.1200000000,     0.3400000000
    2175,     0.1400000000,     0.3400000000
    2176,     0.1600000000,     0.3400000000
    2177,     0.1800000000,     0.3400000000
    2178,     0.2000000000,     0.3400000000
    2179,     0.2200000000,     0.3400000000
    2180,     0.2400000000,     0.3400000000
    2181,     0.2600000000,     0.3400000000
    2182,     0.2800000000,     0.3400000000
    2183,     0.3000000000,     0.3400000000
    2184,     0.3200000000,     0.3400000000
    2185,     0.3400000000,     0.3400000000
    2186,     0.3600000000,     0.3400000000
    2187,     0.3800000000,     0.3400000000
    2188,     0.4000000000,     0.3400000000
    2189,     0.4200000000,     0.3400000000
    2190,     0.4400000000,     0.3400000000
    2191,     0.4600000000,     0.3400000000
    2192,     0.4800000000,     0.3400000000
    2193,     0.5000000000,     0.3400000000
    2194,    -0.5000000000,     0.3600000000
    2195,    -0.4800000000,     0.3600000000
    2196,    -0.4600000000,     0.3600000000
    2197,    -0.4400000000,     0.3600000000
    2198,    -0.4200000000,     0.3600000000
    2199,    -0.4000000000,     0.3600000000
    2200,    -0.3800000000,     0.3600000000
    2201,    -0.3600000000,     0.3600000000
    2202,    -0.3400000000,     0.3600000000
    2203,    -0.3200000000,     0.3600000000
    2204,    -0.3000000000,     0.3600000000
    2205,    -0.2800000000,     0.3600000000
    2206,    -0.2600000000,     0.3600000000
    2207,    -0.2400000000,     0.3600000000
    2208,    -0.2200000000,     0.3600000000
    2209,    -0.2000000000,     0.3600000000
    2210,    -0.1800000000,     0.3600000000
    2211,    -0.1600000000,     0.3600000000
    2212,    -0.1400000000,     0.3600000000
    2213,    -0.1200000000,     0.3600000000
    2214,    -0.1000000000,     0.3600000000
    2215,    -0.0800000000,     0.3600000000
    2216,    -0.0600000000,     0.3600000000
    2217,    -0.0400000000,     0.3600000000
    2218,    -0.0200000000,     0.3600000000
    2219,     0.0000000000,     0.3600000000
    2220,     0.0200000000,     0.3600000000
    2221,     0.0400000000,     0.3600000000
    2222,     0.0600000000,     0.3600000000
    2223,     0.0800000000,     0.3600000000
    2224,     0.1000000000,     0.3600000000
    2225,     0.1200000000,     0.3600000000
    2226,     0.1400000000,     0.3600000000
    2227,     0.1600000000,     0.3600000000
    2228,     0.1800000000,     0.3600000000
    2229,     0.2000000000,     0.3600000000
    2230,     0.2200000000,     0.3600000000
    2231,     0.2400000000,     0.3600000000
    2232,     0.2600000000,     0.3600000000
    2233,     0.2800000000,     0.3600000000
    2234,     0.3000000000,     0.3600000000
    2235,     0.3200000000,     0.3600000000
    2236,     0.3400000000,     0.3600000000
    2237,     0.3600000000,     0.3600000000
    2238,     0.3800000000,     0.3600000000
    2239,     0.4000000000,     0.3600000000
    2240,     0.4200000000,     0.3600000000
    2241,     0.4400000000,     0.3600000000
    2242,     0.4600000000,     0.3600000000
    2243,     0.4800000000,     0.3600000000
    2244,     0.5000000000,     0.3600000000
    2245,    -0.5000000000,     0.3800000000
    2246,    -0.4800000000,     0.3800000000
    2247,    -0.4600000000,     0.3800000000
    2248,    -0.4400000000,     0.3800000000
    2249,    -0.4200000000,     0.3800000000
    2250,    -0.4000000000,     0.3800000000
    2251,    -0.3800000000,     0.3800000000
    2252,    -0.3600000000,     0.3800000000
    2253,    -0.3400000000,     0.3800000000
    2254,    -0.3200000000,     0.3800000000
    2255,    -0.3000000000,     0.3800000000
    2256,    -0.2800000000,     0.3800000000
    2257,    -0.2600000000,     0.3800000000
    2258,    -0.2400000000,     0.3800000000
    2259,    -0.2200000000,     0.3800000000
    2260,    -0.2000000000,     0.3800000000
    2261,    -0.1800000000,     0.3800000000
    2262,    -0.1600000000,     0.3800000000
    2263,    -0.1400000000,     0.3800000000
    2264,    -0.1200000000,     0.3800000000
    2265,    -0.1000000000,     0.3800000000
    2266,    -0.0800000000,     0.3800000000
    2267,    -0.0600000000,     0.3800000000
    2268,    -0.0400000000,     0.3800000000
    2269,    -0.0200000000,     0.3800000000
    2270,     0.0000000000,     0.3800000000
    2271,     0.0200000000,     0.3800000000
    2272,     0.0400000000,     0.3800000000
    2273,     0.0600000000,     0.3800000000
    2274,     0.0800000000,     0.3800000000
    2275,     0.1000000000,     0.3800000000
    2276,     0.1200000000,     0.3800000000
    2277,     0.1400000000,     0.3800000000
    2278,     0.1600000000,     0.3800000000
    2279,     0.1800000000,     0.3800000000
    2280,     0.2000000000,     0.3800000000
    2281,     0.2200000000,     0.3800000000
    2282,     0.2400000000,     0.3800000000
    2283,     0.2600000000,     0.3800000000
    2284,     0.2800000000,     0.3800000000
    2285,     0.3000000000,     0.3800000000
    2286,     0.3200000000,     0.3800000000
    2287,     0.3400000000,     0.3800000000
    2288,     0.3600000000,     0.3800000000
    2289,     0.3800000000,     0.3800000000
    2290,     0.4000000000,     0.3800000000
    2291,     0.4200000000,     0.3800000000
    2292,     0.4400000000,     0.3800000000
    2293,     0.4600000000,     0.3800000000
    2294,     0.4800000000,     0.3800000000
    2295,     0.5000000000,     0.3800000000
    2296,    -0.5000000000,     0.4000000000
    2297,    -0.4800000000,     0.4000000000
    2298,    -0.4600000000,     0.4000000000
    2299,    -0.4400000000,     0.4000000000
    2300,    -0.4200000000,     0.4000000000
    2301,    -0.4000000000,     0.4000000000
    2302,    -0.3800000000,     0.4000000000
    2303,    -0.3600000000,     0.4000000000
    2304,    -0.3400000000,     0.4000000000
    2305,    -0.3200000000,     0.4000000000
    2306,    -0.3000000000,     0.4000000000
    2307,    -0.2800000000,     0.4000000000
    2308,    -0.2600000000,     0.4000000000
    2309,    -0.2400000000,     0.4000000000
    2310,    -0.2200000000,     0.4000000000
    2311,    -0.2000000000,     0.4000000000
    2312,    -0.1800000000,     0.4000000000
    2313,    -0.1600000000,     0.4000000000
    2314,    -0.1400000000,     0.4000000000
    2315,    -0.1200000000,     0.4000000000
    2316,    -0.1000000000,     0.4000000000
    2317,    -0.0800000000,     0.4000000000
    2318,    -0.0600000000,     0.4000000000
    2319,    -0.0400000000,     0.4000000000
    2320,    -0.0200000000,     0.4000000000
    2321,     0.0000000000,     0.4000000000
    2322,     0.0200000000,     0.4000000000
    2323,     0.0400000000,     0.4000000000
    2324,     0.0600000000,     0.4000000000
    2325,     0.0800000000,     0.4000000000
    2326,     0.1000000000,     0.4000000000
    2327,     0.1200000000,     0.4000000000
    2328,     0.1400000000,     0.4000000000
    2329,     0.1600000000,     0.4000000000
    2330,     0.1800000000,     0.4000000000
    2331,     0.2000000000,     0.4000000000
    2332,     0.2200000000,     0.4000000000
    2333,     0.2400000000,     0.4000000000
    2334,     0.2600000000,     0.4000000000
    2335,     0.2800000000,     0.4000000000
    2336,     0.3000000000,     0.4000000000
    2337,     0.3200000000,     0.4000000000
    2338,     0.3400000000,     0.4000000000
    2339,     0.3600000000,     0.4000000000
    2340,     0.3800000000,     0.4000000000
    2341,     0.4000000000,     0.4000000000
    2342,     0.4200000000,     0.4000000000
    2343,     0.4400000000,     0.4000000000
    2344,     0.4600000000,     0.4000000000
    2345,     0.4800000000,     0.4000000000
    2346,     0.5000000000,     0.4000000000
    2347,    -0.5000000000,     0.4200000000
    2348,    -0.4800000000,     0.4200000000
    2349,    -0.4600000000,     0.4200000000
    2350,    -0.4400000000,     0.4200000000
    2351,    -0.4200000000,     0.4200000000
    2352,    -0.4000000000,     0.4200000000
    2353,    -0.3800000000,     0.4200000000
    2354,    -0.3600000000,     0.4200000000
    2355,    -0.3400000000,     0.4200000000
    2356,    -0.3200000000,     0.4200000000
    2357,    -0.3000000000,     0.4200000000
    2358,    -0.2800000000,     0.4200000000
    2359,    -0.2600000000,     0.4200000000
    2360,    -0.2400000000,     0.4200000000
    2361,    -0.2200000000,     0.4200000000
    2362,    -0.2000000000,     0.4200000000
    2363,    -0.1800000000,     0.4200000000
    2364,    -0.1600000000,     0.4200000000
    2365,    -0.1400000000,     0.4200000000
    2366,    -0.1200000000,     0.4200000000
    2367,    -0.1000000000,     0.4200000000
    2368,    -0.0800000000,     0.4200000000
    2369,    -0.0600000000,     0.4200000000
    2370,    -0.0400000000,     0.4200000000
    2371,    -0.0200000000,     0.4200000000
    2372,     0.0000000000,     0.4200000000
    2373,     0.0200000000,     0.4200000000
    2374,     0.0400000000,     0.4200000000
    2375,     0.0600000000,     0.4200000000
    2376,     0.0800000000,     0.4200000000
    2377,     0.1000000000,     0.4200000000
    2378,     0.1200000000,     0.4200000000
    2379,     0.1400000000,     0.4200000000
    2380,     0.1600000000,     0.4200000000
    2381,     0.1800000000,     0.4200000000
    2382,     0.2000000000,     0.4200000000
    2383,     0.2200000000,     0.4200000000
    2384,     0.2400000000,     0.4200000000
    2385,     0.2600000000,     0.4200000000
    2386,     0.2800000000,     0.4200000000
    2387,     0.3000000000,     0.4200000000
    2388,     0.3200000000,     0.4200000000
    2389,     0.3400000000,     0.4200000000
    2390,     0.3600000000,     0.4200000000
    2391,     0.3800000000,     0.4200000000
    2392,     0.4000000000,     0.4200000000
    2393,     0.4200000000,     0.4200000000
    2394,     0.4400000000,     0.4200000000
    2395,     0.4600000000,     0.4200000000
    2396,     0.4800000000,     0.4200000000
    2397,     0.5000000000,     0.4200000000
    2398,    -0.5000000000,     0.4400000000
    2399,    -0.4800000000,     0.4400000000
    2400,    -0.4600000000,     0.4400000000
    2401,    -0.4400000000,     0.4400000000
    2402,    -0.4200000000,     0.4400000000
    2403,    -0.4000000000,     0.4400000000
    2404,    -0.3800000000,     0.4400000000
    2405,    -0.3600000000,     0.4400000000
    2406,    -0.3400000000,     0.4400000000
    2407,    -0.3200000000,     0.4400000000
    2408,    -0.3000000000,     0.4400000000
    2409,    -0.2800000000,     0.4400000000
    2410,    -0.2600000000,     0.4400000000
    2411,    -0.2400000000,     0.4400000000
    2412,    -0.2200000000,     0.4400000000
    2413,    -0.2000000000,     0.4400000000
    2414,    -0.1800000000,     0.4400000000
    2415,    -0.1600000000,     0.4400000000
    2416,    -0.1400000000,     0.4400000000
    2417,    -0.1200000000,     0.4400000000
    2418,    -0.1000000000,     0.4400000000
    2419,    -0.0800000000,     0.4400000000
    2420,    -0.0600000000,     0.4400000000
    2421,    -0.0400000000,     0.4400000000
    2422,    -0.0200000000,     0.4400000000
    2423,     0.0000000000,     0.4400000000
    2424,     0.0200000000,     0.4400000000
    2425,     0.0400000000,     0.4400000000
    2426,     0.0600000000,     0.4400000000
    2427,     0.0800000000,     0.4400000000
    2428,     0.1000000000,     0.4400000000
    2429,     0.1200000000,     0.4400000000
    2430,     0.1400000000,     0.4400000000
    2431,     0.1600000000,     0.4400000000
    2432,     0.1800000000,     0.4400000000
    2433,     0.2000000000,     0.4400000000
    2434,     0.2200000000,     0.4400000000
    2435,     0.2400000000,     0.4400000000
    2436,     0.2600000000,     0.4400000000
    2437,     0.2800000000,     0.4400000000
    2438,     0.3000000000,     0.4400000000
    2439,     0.3200000000,     0.4400000000
    2440,     0.3400000000,     0.4400000000
    2441,     0.3600000000,     0.4400000000
    2442,     0.3800000000,     0.4400000000
    2443,     0.4000000000,     0.4400000000
    2444,     0.4200000000,     0.4400000000
    2445,     0.4400000000,     0.4400000000
    2446,     0.4600000000,     0.4400000000
    2447,     0.4800000000,     0.4400000000
    2448,     0.5000000000,     0.4400000000
    2449,    -0.5000000000,     0.4600000000
    2450,    -0.4800000000,     0.4600000000
    2451,    -0.4600000000,     0.4600000000
    2452,    -0.4400000000,     0.4600000000
    2453,    -0.4200000000,     0.4600000000
    2454,    -0.4000000000,     0.4600000000
    2455,    -0.3800000000,     0.4600000000
    2456,    -0.3600000000,     0.4600000000
    2457,    -0.3400000000,     0.4600000000
    2458,    -0.3200000000,     0.4600000000
    2459,    -0.3000000000,     0.4600000000
    2460,    -0.2800000000,     0.4600000000
    2461,    -0.2600000000,     0.4600000000
    2462,    -0.2400000000,     0.4600000000
    2463,    -0.2200000000,     0.4600000000
    2464,    -0.2000000000,     0.4600000000
    2465,    -0.1800000000,     0.4600000000
    2466,    -0.1600000000,     0.4600000000
    2467,    -0.1400000000,     0.4600000000
    2468,    -0.1200000000,     0.4600000000
    2469,    -0.1000000000,     0.4600000000
    2470,    -0.0800000000,     0.4600000000
    2471,    -0.0600000000,     0.4600000000
    2472,    -0.0400000000,     0.4600000000
    2473,    -0.0200000000,     0.4600000000
    2474,     0.0000000000,     0.4600000000
    2475,     0.0200000000,     0.4600000000
    2476,     0.0400000000,     0.4600000000
    2477,     0.0600000000,     0.4600000000
    2478,     0.0800000000,     0.4600000000
    2479,     0.1000000000,     0.4600000000
    2480,     0.1200000000,     0.4600000000
    2481,     0.1400000000,     0.4600000000
    2482,     0.1600000000,     0.4600000000
    2483,     0.1800000000,     0.4600000000
    2484,     0.2000000000,     0.4600000000
    2485,     0.2200000000,     0.4600000000
    2486,     0.2400000000,     0.4600000000
    2487,     0.2600000000,     0.4600000000
    2488,     0.2800000000,     0.4600000000
    2489,     0.3000000000,     0.4600000000
    2490,     0.3200000000,     0.4600000000
    2491,     0.3400000000,     0.4600000000
    2492,     0.3600000000,     0.4600000000
    2493,     0.3800000000,     0.4600000000
    2494,     0.4000000000,     0.4600000000
    2495,     0.4200000000,     0.4600000000
    2496,     0.4400000000,     0.4600000000
    2497,     0.4600000000,     0.4600000000
    2498,     0.4800000000,     0.4600000000
    2499,     0.5000000000,     0.4600000000
    2500,    -0.5000000000,     0.4800000000
    2501,    -0.4800000000,     0.4800000000
    2502,    -0.4600000000,     0.4800000000
    2503,    -0.4400000000,     0.4800000000
    2504,    -0.4200000000,     0.4800000000
    2505,    -0.4000000000,     0.4800000000
    2506,    -0.3800000000,     0.4800000000
    2507,    -0.3600000000,     0.4800000000
    2508,    -0.3400000000,     0.4800000000
    2509,    -0.3200000000,     0.4800000000
    2510,    -0.3000000000,     0.4800000000
    2511,    -0.2800000000,     0.4800000000
    2512,    -0.2600000000,     0.4800000000
    2513,    -0.2400000000,     0.4800000000
    2514,    -0.2200000000,     0.4800000000
    2515,    -0.2000000000,     0.4800000000
    2516,    -0.1800000000,     0.4800000000
    2517,    -0.1600000000,     0.4800000000
    2518,    -0.1400000000,     0.4800000000
    2519,    -0.1200000000,     0.4800000000
    2520,    -0.1000000000,     0.4800000000
    2521,    -0.0800000000,     0.4800000000
    2522,    -0.0600000000,     0.4800000000
    2523,    -0.0400000000,     0.4800000000
    2524,    -0.0200000000,     0.4800000000
    2525,     0.0000000000,     0.4800000000
    2526,     0.0200000000,     0.4800000000
    2527,     0.0400000000,     0.4800000000
    2528,     0.0600000000,     0.4800000000
    2529,     0.0800000000,     0.4800000000
    2530,     0.1000000000,     0.4800000000
    2531,     0.1200000000,     0.4800000000
    2532,     0.1400000000,     0.4800000000
    2533,     0.1600000000,     0.4800000000
    2534,     0.1800000000,     0.4800000000
    2535,     0.2000000000,     0.4800000000
    2536,     0.2200000000,     0.4800000000
    2537,     0.2400000000,     0.4800000000
    2538,     0.2600000000,     0.4800000000
    2539,     0.2800000000,     0.4800000000
    2540,     0.3000000000,     0.4800000000
    2541,     0.3200000000,     0.4800000000
    2542,     0.3400000000,     0.4800000000
    2543,     0.3600000000,     0.4800000000
    2544,     0.3800000000,     0.4800000000
    2545,     0.4000000000,     0.4800000000
    2546,     0.4200000000,     0.4800000000
    2547,     0.4400000000,     0.4800000000
    2548,     0.4600000000,     0.4800000000
    2549,     0.4800000000,     0.4800000000
    2550,     0.5000000000,     0.4800000000
    2551,    -0.5000000000,     0.5000000000
    2552,    -0.4800000000,     0.5000000000
    2553,    -0.4600000000,     0.5000000000
    2554,    -0.4400000000,     0.5000000000
    2555,    -0.4200000000,     0.5000000000
    2556,    -0.4000000000,     0.5000000000
    2557,    -0.3800000000,     0.5000000000
    2558,    -0.3600000000,     0.5000000000
    2559,    -0.3400000000,     0.5000000000
    2560,    -0.3200000000,     0.5000000000
    2561,    -0.3000000000,     0.5000000000
    2562,    -0.2800000000,     0.5000000000
    2563,    -0.2600000000,     0.5000000000
    2564,    -0.2400000000,     0.5000000000
    2565,    -0.2200000000,     0.5000000000
    2566,    -0.2000000000,     0.5000000000
    2567,    -0.1800000000,     0.5000000000
    2568,    -0.1600000000,     0.5000000000
    2569,    -0.1400000000,     0.5000000000
    2570,    -0.1200000000,     0.5000000000
    2571,    -0.1000000000,     0.5000000000
    2572,    -0.0800000000,     0.5000000000
    2573,    -0.0600000000,     0.5000000000
    2574,    -0.0400000000,     0.5000000000
    2575,    -0.0200000000,     0.5000000000
    2576,     0.0000000000,     0.5000000000
    2577,     0.0200000000,     0.5000000000
    2578,     0.0400000000,     0.5000000000
    2579,     0.0600000000,     0.5000000000
    2580,     0.0800000000,     0.5000000000
    2581,     0.1000000000,     0.5000000000
    2582,     0.1200000000,     0.5000000000
    2583,     0.1400000000,     0.5000000000
    2584,     0.1600000000,     0.5000000000
    2585,     0.1800000000,     0.5000000000
    2586,     0.2000000000,     0.5000000000
    2587,     0.2200000000,     0.5000000000
    2588,     0.2400000000,     0.5000000000
    2589,     0.2600000000,     0.5000000000
    2590,     0.2800000000,     0.5000000000
    2591,     0.3000000000,     0.5000000000
    2592,     0.3200000000,     0.5000000000
    2593,     0.3400000000,     0.5000000000
    2594,     0.3600000000,     0.5000000000
    2595,     0.3800000000,     0.5000000000
    2596,     0.4000000000,     0.5000000000
    2597,     0.4200000000,     0.5000000000
    2598,     0.4400000000,     0.5000000000
    2599,     0.4600000000,     0.5000000000
    2600,     0.4800000000,     0.5000000000
    2601,     0.5000000000,     0.5000000000
    2602,     0.0000000000,     0.6000000000
*Nset, nset=bottom_nodes
 1, 2, 3, 4, 5, 6, 7, 8, 9, 10
 11, 12, 13, 14, 15, 16, 17, 18, 19, 20
 21, 22, 23, 24, 25, 26, 27, 28, 29, 30
 31, 32, 33, 34, 35, 36, 37, 38, 39, 40
 41, 42, 43, 44, 45, 46, 47, 48, 49, 50
 51
*Nset, nset=top_nodes
 2551, 2552, 2553, 2554, 2555, 2556, 2557, 2558, 2559, 2560
 2561, 2562, 2563, 2564, 2565, 2566, 2567, 2568, 2569, 2570
 2571, 2572, 2573, 2574, 2575, 2576, 2577, 2578, 2579, 2580
 2581, 2582, 2583, 2584, 2585, 2586, 2587, 2588, 2589, 2590
 2591, 2592, 2593, 2594, 2595, 2596, 2597, 2598, 2599, 2600
 2601
*Nset, nset=RP
 2602
*User Element, type=U1, nodes=4, coordinates=2, properties=3, variables=8
 8,
*User Element, type=U2, nodes=4, coordinates=2, properties=5, variables=56
 1, 2
*Element, type=U1, elset=PHASE_QUAD
       1,       1,       2,      53,      52
       2,       2,       3,      54,      53
       3,       3,       4,      55,      54
       4,       4,       5,      56,      55
       5,       5,       6,      57,      56
       6,       6,       7,      58,      57
       7,       7,       8,      59,      58
       8,       8,       9,      60,      59
       9,       9,      10,      61,      60
      10,      10,      11,      62,      61
      11,      11,      12,      63,      62
      12,      12,      13,      64,      63
      13,      13,      14,      65,      64
      14,      14,      15,      66,      65
      15,      15,      16,      67,      66
      16,      16,      17,      68,      67
      17,      17,      18,      69,      68
      18,      18,      19,      70,      69
      19,      19,      20,      71,      70
      20,      20,      21,      72,      71
      21,      21,      22,      73,      72
      22,      22,      23,      74,      73
      23,      23,      24,      75,      74
      24,      24,      25,      76,      75
      25,      25,      26,      77,      76
      26,      26,      27,      78,      77
      27,      27,      28,      79,      78
      28,      28,      29,      80,      79
      29,      29,      30,      81,      80
      30,      30,      31,      82,      81
      31,      31,      32,      83,      82
      32,      32,      33,      84,      83
      33,      33,      34,      85,      84
      34,      34,      35,      86,      85
      35,      35,      36,      87,      86
      36,      36,      37,      88,      87
      37,      37,      38,      89,      88
      38,      38,      39,      90,      89
      39,      39,      40,      91,      90
      40,      40,      41,      92,      91
      41,      41,      42,      93,      92
      42,      42,      43,      94,      93
      43,      43,      44,      95,      94
      44,      44,      45,      96,      95
      45,      45,      46,      97,      96
      46,      46,      47,      98,      97
      47,      47,      48,      99,      98
      48,      48,      49,     100,      99
      49,      49,      50,     101,     100
      50,      50,      51,     102,     101
      51,      52,      53,     104,     103
      52,      53,      54,     105,     104
      53,      54,      55,     106,     105
      54,      55,      56,     107,     106
      55,      56,      57,     108,     107
      56,      57,      58,     109,     108
      57,      58,      59,     110,     109
      58,      59,      60,     111,     110
      59,      60,      61,     112,     111
      60,      61,      62,     113,     112
      61,      62,      63,     114,     113
      62,      63,      64,     115,     114
      63,      64,      65,     116,     115
      64,      65,      66,     117,     116
      65,      66,      67,     118,     117
      66,      67,      68,     119,     118
      67,      68,      69,     120,     119
      68,      69,      70,     121,     120
      69,      70,      71,     122,     121
      70,      71,      72,     123,     122
      71,      72,      73,     124,     123
      72,      73,      74,     125,     124
      73,      74,      75,     126,     125
      74,      75,      76,     127,     126
      75,      76,      77,     128,     127
      76,      77,      78,     129,     128
      77,      78,      79,     130,     129
      78,      79,      80,     131,     130
      79,      80,      81,     132,     131
      80,      81,      82,     133,     132
      81,      82,      83,     134,     133
      82,      83,      84,     135,     134
      83,      84,      85,     136,     135
      84,      85,      86,     137,     136
      85,      86,      87,     138,     137
      86,      87,      88,     139,     138
      87,      88,      89,     140,     139
      88,      89,      90,     141,     140
      89,      90,      91,     142,     141
      90,      91,      92,     143,     142
      91,      92,      93,     144,     143
      92,      93,      94,     145,     144
      93,      94,      95,     146,     145
      94,      95,      96,     147,     146
      95,      96,      97,     148,     147
      96,      97,      98,     149,     148
      97,      98,      99,     150,     149
      98,      99,     100,     151,     150
      99,     100,     101,     152,     151
     100,     101,     102,     153,     152
     101,     103,     104,     155,     154
     102,     104,     105,     156,     155
     103,     105,     106,     157,     156
     104,     106,     107,     158,     157
     105,     107,     108,     159,     158
     106,     108,     109,     160,     159
     107,     109,     110,     161,     160
     108,     110,     111,     162,     161
     109,     111,     112,     163,     162
     110,     112,     113,     164,     163
     111,     113,     114,     165,     164
     112,     114,     115,     166,     165
     113,     115,     116,     167,     166
     114,     116,     117,     168,     167
     115,     117,     118,     169,     168
     116,     118,     119,     170,     169
     117,     119,     120,     171,     170
     118,     120,     121,     172,     171
     119,     121,     122,     173,     172
     120,     122,     123,     174,     173
     121,     123,     124,     175,     174
     122,     124,     125,     176,     175
     123,     125,     126,     177,     176
     124,     126,     127,     178,     177
     125,     127,     128,     179,     178
     126,     128,     129,     180,     179
     127,     129,     130,     181,     180
     128,     130,     131,     182,     181
     129,     131,     132,     183,     182
     130,     132,     133,     184,     183
     131,     133,     134,     185,     184
     132,     134,     135,     186,     185
     133,     135,     136,     187,     186
     134,     136,     137,     188,     187
     135,     137,     138,     189,     188
     136,     138,     139,     190,     189
     137,     139,     140,     191,     190
     138,     140,     141,     192,     191
     139,     141,     142,     193,     192
     140,     142,     143,     194,     193
     141,     143,     144,     195,     194
     142,     144,     145,     196,     195
     143,     145,     146,     197,     196
     144,     146,     147,     198,     197
     145,     147,     148,     199,     198
     146,     148,     149,     200,     199
     147,     149,     150,     201,     200
     148,     150,     151,     202,     201
     149,     151,     152,     203,     202
     150,     152,     153,     204,     203
     151,     154,     155,     206,     205
     152,     155,     156,     207,     206
     153,     156,     157,     208,     207
     154,     157,     158,     209,     208
     155,     158,     159,     210,     209
     156,     159,     160,     211,     210
     157,     160,     161,     212,     211
     158,     161,     162,     213,     212
     159,     162,     163,     214,     213
     160,     163,     164,     215,     214
     161,     164,     165,     216,     215
     162,     165,     166,     217,     216
     163,     166,     167,     218,     217
     164,     167,     168,     219,     218
     165,     168,     169,     220,     219
     166,     169,     170,     221,     220
     167,     170,     171,     222,     221
     168,     171,     172,     223,     222
     169,     172,     173,     224,     223
     170,     173,     174,     225,     224
     171,     174,     175,     226,     225
     172,     175,     176,     227,     226
     173,     176,     177,     228,     227
     174,     177,     178,     229,     228
     175,     178,     179,     230,     229
     176,     179,     180,     231,     230
     177,     180,     181,     232,     231
     178,     181,     182,     233,     232
     179,     182,     183,     234,     233
     180,     183,     184,     235,     234
     181,     184,     185,     236,     235
     182,     185,     186,     237,     236
     183,     186,     187,     238,     237
     184,     187,     188,     239,     238
     185,     188,     189,     240,     239
     186,     189,     190,     241,     240
     187,     190,     191,     242,     241
     188,     191,     192,     243,     242
     189,     192,     193,     244,     243
     190,     193,     194,     245,     244
     191,     194,     195,     246,     245
     192,     195,     196,     247,     246
     193,     196,     197,     248,     247
     194,     197,     198,     249,     248
     195,     198,     199,     250,     249
     196,     199,     200,     251,     250
     197,     200,     201,     252,     251
     198,     201,     202,     253,     252
     199,     202,     203,     254,     253
     200,     203,     204,     255,     254
     201,     205,     206,     257,     256
     202,     206,     207,     258,     257
     203,     207,     208,     259,     258
     204,     208,     209,     260,     259
     205,     209,     210,     261,     260
     206,     210,     211,     262,     261
     207,     211,     212,     263,     262
     208,     212,     213,     264,     263
     209,     213,     214,     265,     264
     210,     214,     215,     266,     265
     211,     215,     216,     267,     266
     212,     216,     217,     268,     267
     213,     217,     218,     269,     268
     214,     218,     219,     270,     269
     215,     219,     220,     271,     270
     216,     220,     221,     272,     271
     217,     221,     222,     273,     272
     218,     222,     223,     274,     273
     219,     223,     224,     275,     274
     220,     224,     225,     276,     275
     221,     225,     226,     277,     276
     222,     226,     227,     278,     277
     223,     227,     228,     279,     278
     224,     228,     229,     280,     279
     225,     229,     230,     281,     280
     226,     230,     231,     282,     281
     227,     231,     232,     283,     282
     228,     232,     233,     284,     283
     229,     233,     234,     285,     284
     230,     234,     235,     286,     285
     231,     235,     236,     287,     286
     232,     236,     237,     288,     287
     233,     237,     238,     289,     288
     234,     238,     239,     290,     289
     235,     239,     240,     291,     290
     236,     240,     241,     292,     291
     237,     241,     242,     293,     292
     238,     242,     243,     294,     293
     239,     243,     244,     295,     294
     240,     244,     245,     296,     295
     241,     245,     246,     297,     296
     242,     246,     247,     298,     297
     243,     247,     248,     299,     298
     244,     248,     249,     300,     299
     245,     249,     250,     301,     300
     246,     250,     251,     302,     301
     247,     251,     252,     303,     302
     248,     252,     253,     304,     303
     249,     253,     254,     305,     304
     250,     254,     255,     306,     305
     251,     256,     257,     308,     307
     252,     257,     258,     309,     308
     253,     258,     259,     310,     309
     254,     259,     260,     311,     310
     255,     260,     261,     312,     311
     256,     261,     262,     313,     312
     257,     262,     263,     314,     313
     258,     263,     264,     315,     314
     259,     264,     265,     316,     315
     260,     265,     266,     317,     316
     261,     266,     267,     318,     317
     262,     267,     268,     319,     318
     263,     268,     269,     320,     319
     264,     269,     270,     321,     320
     265,     270,     271,     322,     321
     266,     271,     272,     323,     322
     267,     272,     273,     324,     323
     268,     273,     274,     325,     324
     269,     274,     275,     326,     325
     270,     275,     276,     327,     326
     271,     276,     277,     328,     327
     272,     277,     278,     329,     328
     273,     278,     279,     330,     329
     274,     279,     280,     331,     330
     275,     280,     281,     332,     331
     276,     281,     282,     333,     332
     277,     282,     283,     334,     333
     278,     283,     284,     335,     334
     279,     284,     285,     336,     335
     280,     285,     286,     337,     336
     281,     286,     287,     338,     337
     282,     287,     288,     339,     338
     283,     288,     289,     340,     339
     284,     289,     290,     341,     340
     285,     290,     291,     342,     341
     286,     291,     292,     343,     342
     287,     292,     293,     344,     343
     288,     293,     294,     345,     344
     289,     294,     295,     346,     345
     290,     295,     296,     347,     346
     291,     296,     297,     348,     347
     292,     297,     298,     349,     348
     293,     298,     299,     350,     349
     294,     299,     300,     351,     350
     295,     300,     301,     352,     351
     296,     301,     302,     353,     352
     297,     302,     303,     354,     353
     298,     303,     304,     355,     354
     299,     304,     305,     356,     355
     300,     305,     306,     357,     356
     301,     307,     308,     359,     358
     302,     308,     309,     360,     359
     303,     309,     310,     361,     360
     304,     310,     311,     362,     361
     305,     311,     312,     363,     362
     306,     312,     313,     364,     363
     307,     313,     314,     365,     364
     308,     314,     315,     366,     365
     309,     315,     316,     367,     366
     310,     316,     317,     368,     367
     311,     317,     318,     369,     368
     312,     318,     319,     370,     369
     313,     319,     320,     371,     370
     314,     320,     321,     372,     371
     315,     321,     322,     373,     372
     316,     322,     323,     374,     373
     317,     323,     324,     375,     374
     318,     324,     325,     376,     375
     319,     325,     326,     377,     376
     320,     326,     327,     378,     377
     321,     327,     328,     379,     378
     322,     328,     329,     380,     379
     323,     329,     330,     381,     380
     324,     330,     331,     382,     381
     325,     331,     332,     383,     382
     326,     332,     333,     384,     383
     327,     333,     334,     385,     384
     328,     334,     335,     386,     385
     329,     335,     336,     387,     386
     330,     336,     337,     388,     387
     331,     337,     338,     389,     388
     332,     338,     339,     390,     389
     333,     339,     340,     391,     390
     334,     340,     341,     392,     391
     335,     341,     342,     393,     392
     336,     342,     343,     394,     393
     337,     343,     344,     395,     394
     338,     344,     345,     396,     395
     339,     345,     346,     397,     396
     340,     346,     347,     398,     397
     341,     347,     348,     399,     398
     342,     348,     349,     400,     399
     343,     349,     350,     401,     400
     344,     350,     351,     402,     401
     345,     351,     352,     403,     402
     346,     352,     353,     404,     403
     347,     353,     354,     405,     404
     348,     354,     355,     406,     405
     349,     355,     356,     407,     406
     350,     356,     357,     408,     407
     351,     358,     359,     410,     409
     352,     359,     360,     411,     410
     353,     360,     361,     412,     411
     354,     361,     362,     413,     412
     355,     362,     363,     414,     413
     356,     363,     364,     415,     414
     357,     364,     365,     416,     415
     358,     365,     366,     417,     416
     359,     366,     367,     418,     417
     360,     367,     368,     419,     418
     361,     368,     369,     420,     419
     362,     369,     370,     421,     420
     363,     370,     371,     422,     421
     364,     371,     372,     423,     422
     365,     372,     373,     424,     423
     366,     373,     374,     425,     424
     367,     374,     375,     426,     425
     368,     375,     376,     427,     426
     369,     376,     377,     428,     427
     370,     377,     378,     429,     428
     371,     378,     379,     430,     429
     372,     379,     380,     431,     430
     373,     380,     381,     432,     431
     374,     381,     382,     433,     432
     375,     382,     383,     434,     433
     376,     383,     384,     435,     434
     377,     384,     385,     436,     435
     378,     385,     386,     437,     436
     379,     386,     387,     438,     437
     380,     387,     388,     439,     438
     381,     388,     389,     440,     439
     382,     389,     390,     441,     440
     383,     390,     391,     442,     441
     384,     391,     392,     443,     442
     385,     392,     393,     444,     443
     386,     393,     394,     445,     444
     387,     394,     395,     446,     445
     388,     395,     396,     447,     446
     389,     396,     397,     448,     447
     390,     397,     398,     449,     448
     391,     398,     399,     450,     449
     392,     399,     400,     451,     450
     393,     400,     401,     452,     451
     394,     401,     402,     453,     452
     395,     402,     403,     454,     453
     396,     403,     404,     455,     454
     397,     404,     405,     456,     455
     398,     405,     406,     457,     456
     399,     406,     407,     458,     457
     400,     407,     408,     459,     458
     401,     409,     410,     461,     460
     402,     410,     411,     462,     461
     403,     411,     412,     463,     462
     404,     412,     413,     464,     463
     405,     413,     414,     465,     464
     406,     414,     415,     466,     465
     407,     415,     416,     467,     466
     408,     416,     417,     468,     467
     409,     417,     418,     469,     468
     410,     418,     419,     470,     469
     411,     419,     420,     471,     470
     412,     420,     421,     472,     471
     413,     421,     422,     473,     472
     414,     422,     423,     474,     473
     415,     423,     424,     475,     474
     416,     424,     425,     476,     475
     417,     425,     426,     477,     476
     418,     426,     427,     478,     477
     419,     427,     428,     479,     478
     420,     428,     429,     480,     479
     421,     429,     430,     481,     480
     422,     430,     431,     482,     481
     423,     431,     432,     483,     482
     424,     432,     433,     484,     483
     425,     433,     434,     485,     484
     426,     434,     435,     486,     485
     427,     435,     436,     487,     486
     428,     436,     437,     488,     487
     429,     437,     438,     489,     488
     430,     438,     439,     490,     489
     431,     439,     440,     491,     490
     432,     440,     441,     492,     491
     433,     441,     442,     493,     492
     434,     442,     443,     494,     493
     435,     443,     444,     495,     494
     436,     444,     445,     496,     495
     437,     445,     446,     497,     496
     438,     446,     447,     498,     497
     439,     447,     448,     499,     498
     440,     448,     449,     500,     499
     441,     449,     450,     501,     500
     442,     450,     451,     502,     501
     443,     451,     452,     503,     502
     444,     452,     453,     504,     503
     445,     453,     454,     505,     504
     446,     454,     455,     506,     505
     447,     455,     456,     507,     506
     448,     456,     457,     508,     507
     449,     457,     458,     509,     508
     450,     458,     459,     510,     509
     451,     460,     461,     512,     511
     452,     461,     462,     513,     512
     453,     462,     463,     514,     513
     454,     463,     464,     515,     514
     455,     464,     465,     516,     515
     456,     465,     466,     517,     516
     457,     466,     467,     518,     517
     458,     467,     468,     519,     518
     459,     468,     469,     520,     519
     460,     469,     470,     521,     520
     461,     470,     471,     522,     521
     462,     471,     472,     523,     522
     463,     472,     473,     524,     523
     464,     473,     474,     525,     524
     465,     474,     475,     526,     525
     466,     475,     476,     527,     526
     467,     476,     477,     528,     527
     468,     477,     478,     529,     528
     469,     478,     479,     530,     529
     470,     479,     480,     531,     530
     471,     480,     481,     532,     531
     472,     481,     482,     533,     532
     473,     482,     483,     534,     533
     474,     483,     484,     535,     534
     475,     484,     485,     536,     535
     476,     485,     486,     537,     536
     477,     486,     487,     538,     537
     478,     487,     488,     539,     538
     479,     488,     489,     540,     539
     480,     489,     490,     541,     540
     481,     490,     491,     542,     541
     482,     491,     492,     543,     542
     483,     492,     493,     544,     543
     484,     493,     494,     545,     544
     485,     494,     495,     546,     545
     486,     495,     496,     547,     546
     487,     496,     497,     548,     547
     488,     497,     498,     549,     548
     489,     498,     499,     550,     549
     490,     499,     500,     551,     550
     491,     500,     501,     552,     551
     492,     501,     502,     553,     552
     493,     502,     503,     554,     553
     494,     503,     504,     555,     554
     495,     504,     505,     556,     555
     496,     505,     506,     557,     556
     497,     506,     507,     558,     557
     498,     507,     508,     559,     558
     499,     508,     509,     560,     559
     500,     509,     510,     561,     560
     501,     511,     512,     563,     562
     502,     512,     513,     564,     563
     503,     513,     514,     565,     564
     504,     514,     515,     566,     565
     505,     515,     516,     567,     566
     506,     516,     517,     568,     567
     507,     517,     518,     569,     568
     508,     518,     519,     570,     569
     509,     519,     520,     571,     570
     510,     520,     521,     572,     571
     511,     521,     522,     573,     572
     512,     522,     523,     574,     573
     513,     523,     524,     575,     574
     514,     524,     525,     576,     575
     515,     525,     526,     577,     576
     516,     526,     527,     578,     577
     517,     527,     528,     579,     578
     518,     528,     529,     580,     579
     519,     529,     530,     581,     580
     520,     530,     531,     582,     581
     521,     531,     532,     583,     582
     522,     532,     533,     584,     583
     523,     533,     534,     585,     584
     524,     534,     535,     586,     585
     525,     535,     536,     587,     586
     526,     536,     537,     588,     587
     527,     537,     538,     589,     588
     528,     538,     539,     590,     589
     529,     539,     540,     591,     590
     530,     540,     541,     592,     591
     531,     541,     542,     593,     592
     532,     542,     543,     594,     593
     533,     543,     544,     595,     594
     534,     544,     545,     596,     595
     535,     545,     546,     597,     596
     536,     546,     547,     598,     597
     537,     547,     548,     599,     598
     538,     548,     549,     600,     599
     539,     549,     550,     601,     600
     540,     550,     551,     602,     601
     541,     551,     552,     603,     602
     542,     552,     553,     604,     603
     543,     553,     554,     605,     604
     544,     554,     555,     606,     605
     545,     555,     556,     607,     606
     546,     556,     557,     608,     607
     547,     557,     558,     609,     608
     548,     558,     559,     610,     609
     549,     559,     560,     611,     610
     550,     560,     561,     612,     611
     551,     562,     563,     614,     613
     552,     563,     564,     615,     614
     553,     564,     565,     616,     615
     554,     565,     566,     617,     616
     555,     566,     567,     618,     617
     556,     567,     568,     619,     618
     557,     568,     569,     620,     619
     558,     569,     570,     621,     620
     559,     570,     571,     622,     621
     560,     571,     572,     623,     622
     561,     572,     573,     624,     623
     562,     573,     574,     625,     624
     563,     574,     575,     626,     625
     564,     575,     576,     627,     626
     565,     576,     577,     628,     627
     566,     577,     578,     629,     628
     567,     578,     579,     630,     629
     568,     579,     580,     631,     630
     569,     580,     581,     632,     631
     570,     581,     582,     633,     632
     571,     582,     583,     634,     633
     572,     583,     584,     635,     634
     573,     584,     585,     636,     635
     574,     585,     586,     637,     636
     575,     586,     587,     638,     637
     576,     587,     588,     639,     638
     577,     588,     589,     640,     639
     578,     589,     590,     641,     640
     579,     590,     591,     642,     641
     580,     591,     592,     643,     642
     581,     592,     593,     644,     643
     582,     593,     594,     645,     644
     583,     594,     595,     646,     645
     584,     595,     596,     647,     646
     585,     596,     597,     648,     647
     586,     597,     598,     649,     648
     587,     598,     599,     650,     649
     588,     599,     600,     651,     650
     589,     600,     601,     652,     651
     590,     601,     602,     653,     652
     591,     602,     603,     654,     653
     592,     603,     604,     655,     654
     593,     604,     605,     656,     655
     594,     605,     606,     657,     656
     595,     606,     607,     658,     657
     596,     607,     608,     659,     658
     597,     608,     609,     660,     659
     598,     609,     610,     661,     660
     599,     610,     611,     662,     661
     600,     611,     612,     663,     662
     601,     613,     614,     665,     664
     602,     614,     615,     666,     665
     603,     615,     616,     667,     666
     604,     616,     617,     668,     667
     605,     617,     618,     669,     668
     606,     618,     619,     670,     669
     607,     619,     620,     671,     670
     608,     620,     621,     672,     671
     609,     621,     622,     673,     672
     610,     622,     623,     674,     673
     611,     623,     624,     675,     674
     612,     624,     625,     676,     675
     613,     625,     626,     677,     676
     614,     626,     627,     678,     677
     615,     627,     628,     679,     678
     616,     628,     629,     680,     679
     617,     629,     630,     681,     680
     618,     630,     631,     682,     681
     619,     631,     632,     683,     682
     620,     632,     633,     684,     683
     621,     633,     634,     685,     684
     622,     634,     635,     686,     685
     623,     635,     636,     687,     686
     624,     636,     637,     688,     687
     625,     637,     638,     689,     688
     626,     638,     639,     690,     689
     627,     639,     640,     691,     690
     628,     640,     641,     692,     691
     629,     641,     642,     693,     692
     630,     642,     643,     694,     693
     631,     643,     644,     695,     694
     632,     644,     645,     696,     695
     633,     645,     646,     697,     696
     634,     646,     647,     698,     697
     635,     647,     648,     699,     698
     636,     648,     649,     700,     699
     637,     649,     650,     701,     700
     638,     650,     651,     702,     701
     639,     651,     652,     703,     702
     640,     652,     653,     704,     703
     641,     653,     654,     705,     704
     642,     654,     655,     706,     705
     643,     655,     656,     707,     706
     644,     656,     657,     708,     707
     645,     657,     658,     709,     708
     646,     658,     659,     710,     709
     647,     659,     660,     711,     710
     648,     660,     661,     712,     711
     649,     661,     662,     713,     712
     650,     662,     663,     714,     713
     651,     664,     665,     716,     715
     652,     665,     666,     717,     716
     653,     666,     667,     718,     717
     654,     667,     668,     719,     718
     655,     668,     669,     720,     719
     656,     669,     670,     721,     720
     657,     670,     671,     722,     721
     658,     671,     672,     723,     722
     659,     672,     673,     724,     723
     660,     673,     674,     725,     724
     661,     674,     675,     726,     725
     662,     675,     676,     727,     726
     663,     676,     677,     728,     727
     664,     677,     678,     729,     728
     665,     678,     679,     730,     729
     666,     679,     680,     731,     730
     667,     680,     681,     732,     731
     668,     681,     682,     733,     732
     669,     682,     683,     734,     733
     670,     683,     684,     735,     734
     671,     684,     685,     736,     735
     672,     685,     686,     737,     736
     673,     686,     687,     738,     737
     674,     687,     688,     739,     738
     675,     688,     689,     740,     739
     676,     689,     690,     741,     740
     677,     690,     691,     742,     741
     678,     691,     692,     743,     742
     679,     692,     693,     744,     743
     680,     693,     694,     745,     744
     681,     694,     695,     746,     745
     682,     695,     696,     747,     746
     683,     696,     697,     748,     747
     684,     697,     698,     749,     748
     685,     698,     699,     750,     749
     686,     699,     700,     751,     750
     687,     700,     701,     752,     751
     688,     701,     702,     753,     752
     689,     702,     703,     754,     753
     690,     703,     704,     755,     754
     691,     704,     705,     756,     755
     692,     705,     706,     757,     756
     693,     706,     707,     758,     757
     694,     707,     708,     759,     758
     695,     708,     709,     760,     759
     696,     709,     710,     761,     760
     697,     710,     711,     762,     761
     698,     711,     712,     763,     762
     699,     712,     713,     764,     763
     700,     713,     714,     765,     764
     701,     715,     716,     767,     766
     702,     716,     717,     768,     767
     703,     717,     718,     769,     768
     704,     718,     719,     770,     769
     705,     719,     720,     771,     770
     706,     720,     721,     772,     771
     707,     721,     722,     773,     772
     708,     722,     723,     774,     773
     709,     723,     724,     775,     774
     710,     724,     725,     776,     775
     711,     725,     726,     777,     776
     712,     726,     727,     778,     777
     713,     727,     728,     779,     778
     714,     728,     729,     780,     779
     715,     729,     730,     781,     780
     716,     730,     731,     782,     781
     717,     731,     732,     783,     782
     718,     732,     733,     784,     783
     719,     733,     734,     785,     784
     720,     734,     735,     786,     785
     721,     735,     736,     787,     786
     722,     736,     737,     788,     787
     723,     737,     738,     789,     788
     724,     738,     739,     790,     789
     725,     739,     740,     791,     790
     726,     740,     741,     792,     791
     727,     741,     742,     793,     792
     728,     742,     743,     794,     793
     729,     743,     744,     795,     794
     730,     744,     745,     796,     795
     731,     745,     746,     797,     796
     732,     746,     747,     798,     797
     733,     747,     748,     799,     798
     734,     748,     749,     800,     799
     735,     749,     750,     801,     800
     736,     750,     751,     802,     801
     737,     751,     752,     803,     802
     738,     752,     753,     804,     803
     739,     753,     754,     805,     804
     740,     754,     755,     806,     805
     741,     755,     756,     807,     806
     742,     756,     757,     808,     807
     743,     757,     758,     809,     808
     744,     758,     759,     810,     809
     745,     759,     760,     811,     810
     746,     760,     761,     812,     811
     747,     761,     762,     813,     812
     748,     762,     763,     814,     813
     749,     763,     764,     815,     814
     750,     764,     765,     816,     815
     751,     766,     767,     818,     817
     752,     767,     768,     819,     818
     753,     768,     769,     820,     819
     754,     769,     770,     821,     820
     755,     770,     771,     822,     821
     756,     771,     772,     823,     822
     757,     772,     773,     824,     823
     758,     773,     774,     825,     824
     759,     774,     775,     826,     825
     760,     775,     776,     827,     826
     761,     776,     777,     828,     827
     762,     777,     778,     829,     828
     763,     778,     779,     830,     829
     764,     779,     780,     831,     830
     765,     780,     781,     832,     831
     766,     781,     782,     833,     832
     767,     782,     783,     834,     833
     768,     783,     784,     835,     834
     769,     784,     785,     836,     835
     770,     785,     786,     837,     836
     771,     786,     787,     838,     837
     772,     787,     788,     839,     838
     773,     788,     789,     840,     839
     774,     789,     790,     841,     840
     775,     790,     791,     842,     841
     776,     791,     792,     843,     842
     777,     792,     793,     844,     843
     778,     793,     794,     845,     844
     779,     794,     795,     846,     845
     780,     795,     796,     847,     846
     781,     796,     797,     848,     847
     782,     797,     798,     849,     848
     783,     798,     799,     850,     849
     784,     799,     800,     851,     850
     785,     800,     801,     852,     851
     786,     801,     802,     853,     852
     787,     802,     803,     854,     853
     788,     803,     804,     855,     854
     789,     804,     805,     856,     855
     790,     805,     806,     857,     856
     791,     806,     807,     858,     857
     792,     807,     808,     859,     858
     793,     808,     809,     860,     859
     794,     809,     810,     861,     860
     795,     810,     811,     862,     861
     796,     811,     812,     863,     862
     797,     812,     813,     864,     863
     798,     813,     814,     865,     864
     799,     814,     815,     866,     865
     800,     815,     816,     867,     866
     801,     817,     818,     869,     868
     802,     818,     819,     870,     869
     803,     819,     820,     871,     870
     804,     820,     821,     872,     871
     805,     821,     822,     873,     872
     806,     822,     823,     874,     873
     807,     823,     824,     875,     874
     808,     824,     825,     876,     875
     809,     825,     826,     877,     876
     810,     826,     827,     878,     877
     811,     827,     828,     879,     878
     812,     828,     829,     880,     879
     813,     829,     830,     881,     880
     814,     830,     831,     882,     881
     815,     831,     832,     883,     882
     816,     832,     833,     884,     883
     817,     833,     834,     885,     884
     818,     834,     835,     886,     885
     819,     835,     836,     887,     886
     820,     836,     837,     888,     887
     821,     837,     838,     889,     888
     822,     838,     839,     890,     889
     823,     839,     840,     891,     890
     824,     840,     841,     892,     891
     825,     841,     842,     893,     892
     826,     842,     843,     894,     893
     827,     843,     844,     895,     894
     828,     844,     845,     896,     895
     829,     845,     846,     897,     896
     830,     846,     847,     898,     897
     831,     847,     848,     899,     898
     832,     848,     849,     900,     899
     833,     849,     850,     901,     900
     834,     850,     851,     902,     901
     835,     851,     852,     903,     902
     836,     852,     853,     904,     903
     837,     853,     854,     905,     904
     838,     854,     855,     906,     905
     839,     855,     856,     907,     906
     840,     856,     857,     908,     907
     841,     857,     858,     909,     908
     842,     858,     859,     910,     909
     843,     859,     860,     911,     910
     844,     860,     861,     912,     911
     845,     861,     862,     913,     912
     846,     862,     863,     914,     913
     847,     863,     864,     915,     914
     848,     864,     865,     916,     915
     849,     865,     866,     917,     916
     850,     866,     867,     918,     917
     851,     868,     869,     920,     919
     852,     869,     870,     921,     920
     853,     870,     871,     922,     921
     854,     871,     872,     923,     922
     855,     872,     873,     924,     923
     856,     873,     874,     925,     924
     857,     874,     875,     926,     925
     858,     875,     876,     927,     926
     859,     876,     877,     928,     927
     860,     877,     878,     929,     928
     861,     878,     879,     930,     929
     862,     879,     880,     931,     930
     863,     880,     881,     932,     931
     864,     881,     882,     933,     932
     865,     882,     883,     934,     933
     866,     883,     884,     935,     934
     867,     884,     885,     936,     935
     868,     885,     886,     937,     936
     869,     886,     887,     938,     937
     870,     887,     888,     939,     938
     871,     888,     889,     940,     939
     872,     889,     890,     941,     940
     873,     890,     891,     942,     941
     874,     891,     892,     943,     942
     875,     892,     893,     944,     943
     876,     893,     894,     945,     944
     877,     894,     895,     946,     945
     878,     895,     896,     947,     946
     879,     896,     897,     948,     947
     880,     897,     898,     949,     948
     881,     898,     899,     950,     949
     882,     899,     900,     951,     950
     883,     900,     901,     952,     951
     884,     901,     902,     953,     952
     885,     902,     903,     954,     953
     886,     903,     904,     955,     954
     887,     904,     905,     956,     955
     888,     905,     906,     957,     956
     889,     906,     907,     958,     957
     890,     907,     908,     959,     958
     891,     908,     909,     960,     959
     892,     909,     910,     961,     960
     893,     910,     911,     962,     961
     894,     911,     912,     963,     962
     895,     912,     913,     964,     963
     896,     913,     914,     965,     964
     897,     914,     915,     966,     965
     898,     915,     916,     967,     966
     899,     916,     917,     968,     967
     900,     917,     918,     969,     968
     901,     919,     920,     971,     970
     902,     920,     921,     972,     971
     903,     921,     922,     973,     972
     904,     922,     923,     974,     973
     905,     923,     924,     975,     974
     906,     924,     925,     976,     975
     907,     925,     926,     977,     976
     908,     926,     927,     978,     977
     909,     927,     928,     979,     978
     910,     928,     929,     980,     979
     911,     929,     930,     981,     980
     912,     930,     931,     982,     981
     913,     931,     932,     983,     982
     914,     932,     933,     984,     983
     915,     933,     934,     985,     984
     916,     934,     935,     986,     985
     917,     935,     936,     987,     986
     918,     936,     937,     988,     987
     919,     937,     938,     989,     988
     920,     938,     939,     990,     989
     921,     939,     940,     991,     990
     922,     940,     941,     992,     991
     923,     941,     942,     993,     992
     924,     942,     943,     994,     993
     925,     943,     944,     995,     994
     926,     944,     945,     996,     995
     927,     945,     946,     997,     996
     928,     946,     947,     998,     997
     929,     947,     948,     999,     998
     930,     948,     949,    1000,     999
     931,     949,     950,    1001,    1000
     932,     950,     951,    1002,    1001
     933,     951,     952,    1003,    1002
     934,     952,     953,    1004,    1003
     935,     953,     954,    1005,    1004
     936,     954,     955,    1006,    1005
     937,     955,     956,    1007,    1006
     938,     956,     957,    1008,    1007
     939,     957,     958,    1009,    1008
     940,     958,     959,    1010,    1009
     941,     959,     960,    1011,    1010
     942,     960,     961,    1012,    1011
     943,     961,     962,    1013,    1012
     944,     962,     963,    1014,    1013
     945,     963,     964,    1015,    1014
     946,     964,     965,    1016,    1015
     947,     965,     966,    1017,    1016
     948,     966,     967,    1018,    1017
     949,     967,     968,    1019,    1018
     950,     968,     969,    1020,    1019
     951,     970,     971,    1022,    1021
     952,     971,     972,    1023,    1022
     953,     972,     973,    1024,    1023
     954,     973,     974,    1025,    1024
     955,     974,     975,    1026,    1025
     956,     975,     976,    1027,    1026
     957,     976,     977,    1028,    1027
     958,     977,     978,    1029,    1028
     959,     978,     979,    1030,    1029
     960,     979,     980,    1031,    1030
     961,     980,     981,    1032,    1031
     962,     981,     982,    1033,    1032
     963,     982,     983,    1034,    1033
     964,     983,     984,    1035,    1034
     965,     984,     985,    1036,    1035
     966,     985,     986,    1037,    1036
     967,     986,     987,    1038,    1037
     968,     987,     988,    1039,    1038
     969,     988,     989,    1040,    1039
     970,     989,     990,    1041,    1040
     971,     990,     991,    1042,    1041
     972,     991,     992,    1043,    1042
     973,     992,     993,    1044,    1043
     974,     993,     994,    1045,    1044
     975,     994,     995,    1046,    1045
     976,     995,     996,    1047,    1046
     977,     996,     997,    1048,    1047
     978,     997,     998,    1049,    1048
     979,     998,     999,    1050,    1049
     980,     999,    1000,    1051,    1050
     981,    1000,    1001,    1052,    1051
     982,    1001,    1002,    1053,    1052
     983,    1002,    1003,    1054,    1053
     984,    1003,    1004,    1055,    1054
     985,    1004,    1005,    1056,    1055
     986,    1005,    1006,    1057,    1056
     987,    1006,    1007,    1058,    1057
     988,    1007,    1008,    1059,    1058
     989,    1008,    1009,    1060,    1059
     990,    1009,    1010,    1061,    1060
     991,    1010,    1011,    1062,    1061
     992,    1011,    1012,    1063,    1062
     993,    1012,    1013,    1064,    1063
     994,    1013,    1014,    1065,    1064
     995,    1014,    1015,    1066,    1065
     996,    1015,    1016,    1067,    1066
     997,    1016,    1017,    1068,    1067
     998,    1017,    1018,    1069,    1068
     999,    1018,    1019,    1070,    1069
    1000,    1019,    1020,    1071,    1070
    1001,    1021,    1022,    1073,    1072
    1002,    1022,    1023,    1074,    1073
    1003,    1023,    1024,    1075,    1074
    1004,    1024,    1025,    1076,    1075
    1005,    1025,    1026,    1077,    1076
    1006,    1026,    1027,    1078,    1077
    1007,    1027,    1028,    1079,    1078
    1008,    1028,    1029,    1080,    1079
    1009,    1029,    1030,    1081,    1080
    1010,    1030,    1031,    1082,    1081
    1011,    1031,    1032,    1083,    1082
    1012,    1032,    1033,    1084,    1083
    1013,    1033,    1034,    1085,    1084
    1014,    1034,    1035,    1086,    1085
    1015,    1035,    1036,    1087,    1086
    1016,    1036,    1037,    1088,    1087
    1017,    1037,    1038,    1089,    1088
    1018,    1038,    1039,    1090,    1089
    1019,    1039,    1040,    1091,    1090
    1020,    1040,    1041,    1092,    1091
    1021,    1041,    1042,    1093,    1092
    1022,    1042,    1043,    1094,    1093
    1023,    1043,    1044,    1095,    1094
    1024,    1044,    1045,    1096,    1095
    1025,    1045,    1046,    1097,    1096
    1026,    1046,    1047,    1098,    1097
    1027,    1047,    1048,    1099,    1098
    1028,    1048,    1049,    1100,    1099
    1029,    1049,    1050,    1101,    1100
    1030,    1050,    1051,    1102,    1101
    1031,    1051,    1052,    1103,    1102
    1032,    1052,    1053,    1104,    1103
    1033,    1053,    1054,    1105,    1104
    1034,    1054,    1055,    1106,    1105
    1035,    1055,    1056,    1107,    1106
    1036,    1056,    1057,    1108,    1107
    1037,    1057,    1058,    1109,    1108
    1038,    1058,    1059,    1110,    1109
    1039,    1059,    1060,    1111,    1110
    1040,    1060,    1061,    1112,    1111
    1041,    1061,    1062,    1113,    1112
    1042,    1062,    1063,    1114,    1113
    1043,    1063,    1064,    1115,    1114
    1044,    1064,    1065,    1116,    1115
    1045,    1065,    1066,    1117,    1116
    1046,    1066,    1067,    1118,    1117
    1047,    1067,    1068,    1119,    1118
    1048,    1068,    1069,    1120,    1119
    1049,    1069,    1070,    1121,    1120
    1050,    1070,    1071,    1122,    1121
    1051,    1072,    1073,    1124,    1123
    1052,    1073,    1074,    1125,    1124
    1053,    1074,    1075,    1126,    1125
    1054,    1075,    1076,    1127,    1126
    1055,    1076,    1077,    1128,    1127
    1056,    1077,    1078,    1129,    1128
    1057,    1078,    1079,    1130,    1129
    1058,    1079,    1080,    1131,    1130
    1059,    1080,    1081,    1132,    1131
    1060,    1081,    1082,    1133,    1132
    1061,    1082,    1083,    1134,    1133
    1062,    1083,    1084,    1135,    1134
    1063,    1084,    1085,    1136,    1135
    1064,    1085,    1086,    1137,    1136
    1065,    1086,    1087,    1138,    1137
    1066,    1087,    1088,    1139,    1138
    1067,    1088,    1089,    1140,    1139
    1068,    1089,    1090,    1141,    1140
    1069,    1090,    1091,    1142,    1141
    1070,    1091,    1092,    1143,    1142
    1071,    1092,    1093,    1144,    1143
    1072,    1093,    1094,    1145,    1144
    1073,    1094,    1095,    1146,    1145
    1074,    1095,    1096,    1147,    1146
    1075,    1096,    1097,    1148,    1147
    1076,    1097,    1098,    1149,    1148
    1077,    1098,    1099,    1150,    1149
    1078,    1099,    1100,    1151,    1150
    1079,    1100,    1101,    1152,    1151
    1080,    1101,    1102,    1153,    1152
    1081,    1102,    1103,    1154,    1153
    1082,    1103,    1104,    1155,    1154
    1083,    1104,    1105,    1156,    1155
    1084,    1105,    1106,    1157,    1156
    1085,    1106,    1107,    1158,    1157
    1086,    1107,    1108,    1159,    1158
    1087,    1108,    1109,    1160,    1159
    1088,    1109,    1110,    1161,    1160
    1089,    1110,    1111,    1162,    1161
    1090,    1111,    1112,    1163,    1162
    1091,    1112,    1113,    1164,    1163
    1092,    1113,    1114,    1165,    1164
    1093,    1114,    1115,    1166,    1165
    1094,    1115,    1116,    1167,    1166
    1095,    1116,    1117,    1168,    1167
    1096,    1117,    1118,    1169,    1168
    1097,    1118,    1119,    1170,    1169
    1098,    1119,    1120,    1171,    1170
    1099,    1120,    1121,    1172,    1171
    1100,    1121,    1122,    1173,    1172
    1101,    1123,    1124,    1175,    1174
    1102,    1124,    1125,    1176,    1175
    1103,    1125,    1126,    1177,    1176
    1104,    1126,    1127,    1178,    1177
    1105,    1127,    1128,    1179,    1178
    1106,    1128,    1129,    1180,    1179
    1107,    1129,    1130,    1181,    1180
    1108,    1130,    1131,    1182,    1181
    1109,    1131,    1132,    1183,    1182
    1110,    1132,    1133,    1184,    1183
    1111,    1133,    1134,    1185,    1184
    1112,    1134,    1135,    1186,    1185
    1113,    1135,    1136,    1187,    1186
    1114,    1136,    1137,    1188,    1187
    1115,    1137,    1138,    1189,    1188
    1116,    1138,    1139,    1190,    1189
    1117,    1139,    1140,    1191,    1190
    1118,    1140,    1141,    1192,    1191
    1119,    1141,    1142,    1193,    1192
    1120,    1142,    1143,    1194,    1193
    1121,    1143,    1144,    1195,    1194
    1122,    1144,    1145,    1196,    1195
    1123,    1145,    1146,    1197,    1196
    1124,    1146,    1147,    1198,    1197
    1125,    1147,    1148,    1199,    1198
    1126,    1148,    1149,    1200,    1199
    1127,    1149,    1150,    1201,    1200
    1128,    1150,    1151,    1202,    1201
    1129,    1151,    1152,    1203,    1202
    1130,    1152,    1153,    1204,    1203
    1131,    1153,    1154,    1205,    1204
    1132,    1154,    1155,    1206,    1205
    1133,    1155,    1156,    1207,    1206
    1134,    1156,    1157,    1208,    1207
    1135,    1157,    1158,    1209,    1208
    1136,    1158,    1159,    1210,    1209
    1137,    1159,    1160,    1211,    1210
    1138,    1160,    1161,    1212,    1211
    1139,    1161,    1162,    1213,    1212
    1140,    1162,    1163,    1214,    1213
    1141,    1163,    1164,    1215,    1214
    1142,    1164,    1165,    1216,    1215
    1143,    1165,    1166,    1217,    1216
    1144,    1166,    1167,    1218,    1217
    1145,    1167,    1168,    1219,    1218
    1146,    1168,    1169,    1220,    1219
    1147,    1169,    1170,    1221,    1220
    1148,    1170,    1171,    1222,    1221
    1149,    1171,    1172,    1223,    1222
    1150,    1172,    1173,    1224,    1223
    1151,    1174,    1175,    1226,    1225
    1152,    1175,    1176,    1227,    1226
    1153,    1176,    1177,    1228,    1227
    1154,    1177,    1178,    1229,    1228
    1155,    1178,    1179,    1230,    1229
    1156,    1179,    1180,    1231,    1230
    1157,    1180,    1181,    1232,    1231
    1158,    1181,    1182,    1233,    1232
    1159,    1182,    1183,    1234,    1233
    1160,    1183,    1184,    1235,    1234
    1161,    1184,    1185,    1236,    1235
    1162,    1185,    1186,    1237,    1236
    1163,    1186,    1187,    1238,    1237
    1164,    1187,    1188,    1239,    1238
    1165,    1188,    1189,    1240,    1239
    1166,    1189,    1190,    1241,    1240
    1167,    1190,    1191,    1242,    1241
    1168,    1191,    1192,    1243,    1242
    1169,    1192,    1193,    1244,    1243
    1170,    1193,    1194,    1245,    1244
    1171,    1194,    1195,    1246,    1245
    1172,    1195,    1196,    1247,    1246
    1173,    1196,    1197,    1248,    1247
    1174,    1197,    1198,    1249,    1248
    1175,    1198,    1199,    1250,    1249
    1176,    1199,    1200,    1251,    1250
    1177,    1200,    1201,    1252,    1251
    1178,    1201,    1202,    1253,    1252
    1179,    1202,    1203,    1254,    1253
    1180,    1203,    1204,    1255,    1254
    1181,    1204,    1205,    1256,    1255
    1182,    1205,    1206,    1257,    1256
    1183,    1206,    1207,    1258,    1257
    1184,    1207,    1208,    1259,    1258
    1185,    1208,    1209,    1260,    1259
    1186,    1209,    1210,    1261,    1260
    1187,    1210,    1211,    1262,    1261
    1188,    1211,    1212,    1263,    1262
    1189,    1212,    1213,    1264,    1263
    1190,    1213,    1214,    1265,    1264
    1191,    1214,    1215,    1266,    1265
    1192,    1215,    1216,    1267,    1266
    1193,    1216,    1217,    1268,    1267
    1194,    1217,    1218,    1269,    1268
    1195,    1218,    1219,    1270,    1269
    1196,    1219,    1220,    1271,    1270
    1197,    1220,    1221,    1272,    1271
    1198,    1221,    1222,    1273,    1272
    1199,    1222,    1223,    1274,    1273
    1200,    1223,    1224,    1275,    1274
    1201,    1225,    1226,    1277,    1276
    1202,    1226,    1227,    1278,    1277
    1203,    1227,    1228,    1279,    1278
    1204,    1228,    1229,    1280,    1279
    1205,    1229,    1230,    1281,    1280
    1206,    1230,    1231,    1282,    1281
    1207,    1231,    1232,    1283,    1282
    1208,    1232,    1233,    1284,    1283
    1209,    1233,    1234,    1285,    1284
    1210,    1234,    1235,    1286,    1285
    1211,    1235,    1236,    1287,    1286
    1212,    1236,    1237,    1288,    1287
    1213,    1237,    1238,    1289,    1288
    1214,    1238,    1239,    1290,    1289
    1215,    1239,    1240,    1291,    1290
    1216,    1240,    1241,    1292,    1291
    1217,    1241,    1242,    1293,    1292
    1218,    1242,    1243,    1294,    1293
    1219,    1243,    1244,    1295,    1294
    1220,    1244,    1245,    1296,    1295
    1221,    1245,    1246,    1297,    1296
    1222,    1246,    1247,    1298,    1297
    1223,    1247,    1248,    1299,    1298
    1224,    1248,    1249,    1300,    1299
    1225,    1249,    1250,    1301,    1300
    1226,    1250,    1251,    1302,    1301
    1227,    1251,    1252,    1303,    1302
    1228,    1252,    1253,    1304,    1303
    1229,    1253,    1254,    1305,    1304
    1230,    1254,    1255,    1306,    1305
    1231,    1255,    1256,    1307,    1306
    1232,    1256,    1257,    1308,    1307
    1233,    1257,    1258,    1309,    1308
    1234,    1258,    1259,    1310,    1309
    1235,    1259,    1260,    1311,    1310
    1236,    1260,    1261,    1312,    1311
    1237,    1261,    1262,    1313,    1312
    1238,    1262,    1263,    1314,    1313
    1239,    1263,    1264,    1315,    1314
    1240,    1264,    1265,    1316,    1315
    1241,    1265,    1266,    1317,    1316
    1242,    1266,    1267,    1318,    1317
    1243,    1267,    1268,    1319,    1318
    1244,    1268,    1269,    1320,    1319
    1245,    1269,    1270,    1321,    1320
    1246,    1270,    1271,    1322,    1321
    1247,    1271,    1272,    1323,    1322
    1248,    1272,    1273,    1324,    1323
    1249,    1273,    1274,    1325,    1324
    1250,    1274,    1275,    1326,    1325
    1251,    1276,    1277,    1328,    1327
    1252,    1277,    1278,    1329,    1328
    1253,    1278,    1279,    1330,    1329
    1254,    1279,    1280,    1331,    1330
    1255,    1280,    1281,    1332,    1331
    1256,    1281,    1282,    1333,    1332
    1257,    1282,    1283,    1334,    1333
    1258,    1283,    1284,    1335,    1334
    1259,    1284,    1285,    1336,    1335
    1260,    1285,    1286,    1337,    1336
    1261,    1286,    1287,    1338,    1337
    1262,    1287,    1288,    1339,    1338
    1263,    1288,    1289,    1340,    1339
    1264,    1289,    1290,    1341,    1340
    1265,    1290,    1291,    1342,    1341
    1266,    1291,    1292,    1343,    1342
    1267,    1292,    1293,    1344,    1343
    1268,    1293,    1294,    1345,    1344
    1269,    1294,    1295,    1346,    1345
    1270,    1295,    1296,    1347,    1346
    1271,    1296,    1297,    1348,    1347
    1272,    1297,    1298,    1349,    1348
    1273,    1298,    1299,    1350,    1349
    1274,    1299,    1300,    1351,    1350
    1275,    1300,    1301,    1352,    1351
    1276,    1301,    1302,    1353,    1352
    1277,    1302,    1303,    1354,    1353
    1278,    1303,    1304,    1355,    1354
    1279,    1304,    1305,    1356,    1355
    1280,    1305,    1306,    1357,    1356
    1281,    1306,    1307,    1358,    1357
    1282,    1307,    1308,    1359,    1358
    1283,    1308,    1309,    1360,    1359
    1284,    1309,    1310,    1361,    1360
    1285,    1310,    1311,    1362,    1361
    1286,    1311,    1312,    1363,    1362
    1287,    1312,    1313,    1364,    1363
    1288,    1313,    1314,    1365,    1364
    1289,    1314,    1315,    1366,    1365
    1290,    1315,    1316,    1367,    1366
    1291,    1316,    1317,    1368,    1367
    1292,    1317,    1318,    1369,    1368
    1293,    1318,    1319,    1370,    1369
    1294,    1319,    1320,    1371,    1370
    1295,    1320,    1321,    1372,    1371
    1296,    1321,    1322,    1373,    1372
    1297,    1322,    1323,    1374,    1373
    1298,    1323,    1324,    1375,    1374
    1299,    1324,    1325,    1376,    1375
    1300,    1325,    1326,    1377,    1376
    1301,    1327,    1328,    1379,    1378
    1302,    1328,    1329,    1380,    1379
    1303,    1329,    1330,    1381,    1380
    1304,    1330,    1331,    1382,    1381
    1305,    1331,    1332,    1383,    1382
    1306,    1332,    1333,    1384,    1383
    1307,    1333,    1334,    1385,    1384
    1308,    1334,    1335,    1386,    1385
    1309,    1335,    1336,    1387,    1386
    1310,    1336,    1337,    1388,    1387
    1311,    1337,    1338,    1389,    1388
    1312,    1338,    1339,    1390,    1389
    1313,    1339,    1340,    1391,    1390
    1314,    1340,    1341,    1392,    1391
    1315,    1341,    1342,    1393,    1392
    1316,    1342,    1343,    1394,    1393
    1317,    1343,    1344,    1395,    1394
    1318,    1344,    1345,    1396,    1395
    1319,    1345,    1346,    1397,    1396
    1320,    1346,    1347,    1398,    1397
    1321,    1347,    1348,    1399,    1398
    1322,    1348,    1349,    1400,    1399
    1323,    1349,    1350,    1401,    1400
    1324,    1350,    1351,    1402,    1401
    1325,    1351,    1352,    1403,    1402
    1326,    1352,    1353,    1404,    1403
    1327,    1353,    1354,    1405,    1404
    1328,    1354,    1355,    1406,    1405
    1329,    1355,    1356,    1407,    1406
    1330,    1356,    1357,    1408,    1407
    1331,    1357,    1358,    1409,    1408
    1332,    1358,    1359,    1410,    1409
    1333,    1359,    1360,    1411,    1410
    1334,    1360,    1361,    1412,    1411
    1335,    1361,    1362,    1413,    1412
    1336,    1362,    1363,    1414,    1413
    1337,    1363,    1364,    1415,    1414
    1338,    1364,    1365,    1416,    1415
    1339,    1365,    1366,    1417,    1416
    1340,    1366,    1367,    1418,    1417
    1341,    1367,    1368,    1419,    1418
    1342,    1368,    1369,    1420,    1419
    1343,    1369,    1370,    1421,    1420
    1344,    1370,    1371,    1422,    1421
    1345,    1371,    1372,    1423,    1422
    1346,    1372,    1373,    1424,    1423
    1347,    1373,    1374,    1425,    1424
    1348,    1374,    1375,    1426,    1425
    1349,    1375,    1376,    1427,    1426
    1350,    1376,    1377,    1428,    1427
    1351,    1378,    1379,    1430,    1429
    1352,    1379,    1380,    1431,    1430
    1353,    1380,    1381,    1432,    1431
    1354,    1381,    1382,    1433,    1432
    1355,    1382,    1383,    1434,    1433
    1356,    1383,    1384,    1435,    1434
    1357,    1384,    1385,    1436,    1435
    1358,    1385,    1386,    1437,    1436
    1359,    1386,    1387,    1438,    1437
    1360,    1387,    1388,    1439,    1438
    1361,    1388,    1389,    1440,    1439
    1362,    1389,    1390,    1441,    1440
    1363,    1390,    1391,    1442,    1441
    1364,    1391,    1392,    1443,    1442
    1365,    1392,    1393,    1444,    1443
    1366,    1393,    1394,    1445,    1444
    1367,    1394,    1395,    1446,    1445
    1368,    1395,    1396,    1447,    1446
    1369,    1396,    1397,    1448,    1447
    1370,    1397,    1398,    1449,    1448
    1371,    1398,    1399,    1450,    1449
    1372,    1399,    1400,    1451,    1450
    1373,    1400,    1401,    1452,    1451
    1374,    1401,    1402,    1453,    1452
    1375,    1402,    1403,    1454,    1453
    1376,    1403,    1404,    1455,    1454
    1377,    1404,    1405,    1456,    1455
    1378,    1405,    1406,    1457,    1456
    1379,    1406,    1407,    1458,    1457
    1380,    1407,    1408,    1459,    1458
    1381,    1408,    1409,    1460,    1459
    1382,    1409,    1410,    1461,    1460
    1383,    1410,    1411,    1462,    1461
    1384,    1411,    1412,    1463,    1462
    1385,    1412,    1413,    1464,    1463
    1386,    1413,    1414,    1465,    1464
    1387,    1414,    1415,    1466,    1465
    1388,    1415,    1416,    1467,    1466
    1389,    1416,    1417,    1468,    1467
    1390,    1417,    1418,    1469,    1468
    1391,    1418,    1419,    1470,    1469
    1392,    1419,    1420,    1471,    1470
    1393,    1420,    1421,    1472,    1471
    1394,    1421,    1422,    1473,    1472
    1395,    1422,    1423,    1474,    1473
    1396,    1423,    1424,    1475,    1474
    1397,    1424,    1425,    1476,    1475
    1398,    1425,    1426,    1477,    1476
    1399,    1426,    1427,    1478,    1477
    1400,    1427,    1428,    1479,    1478
    1401,    1429,    1430,    1481,    1480
    1402,    1430,    1431,    1482,    1481
    1403,    1431,    1432,    1483,    1482
    1404,    1432,    1433,    1484,    1483
    1405,    1433,    1434,    1485,    1484
    1406,    1434,    1435,    1486,    1485
    1407,    1435,    1436,    1487,    1486
    1408,    1436,    1437,    1488,    1487
    1409,    1437,    1438,    1489,    1488
    1410,    1438,    1439,    1490,    1489
    1411,    1439,    1440,    1491,    1490
    1412,    1440,    1441,    1492,    1491
    1413,    1441,    1442,    1493,    1492
    1414,    1442,    1443,    1494,    1493
    1415,    1443,    1444,    1495,    1494
    1416,    1444,    1445,    1496,    1495
    1417,    1445,    1446,    1497,    1496
    1418,    1446,    1447,    1498,    1497
    1419,    1447,    1448,    1499,    1498
    1420,    1448,    1449,    1500,    1499
    1421,    1449,    1450,    1501,    1500
    1422,    1450,    1451,    1502,    1501
    1423,    1451,    1452,    1503,    1502
    1424,    1452,    1453,    1504,    1503
    1425,    1453,    1454,    1505,    1504
    1426,    1454,    1455,    1506,    1505
    1427,    1455,    1456,    1507,    1506
    1428,    1456,    1457,    1508,    1507
    1429,    1457,    1458,    1509,    1508
    1430,    1458,    1459,    1510,    1509
    1431,    1459,    1460,    1511,    1510
    1432,    1460,    1461,    1512,    1511
    1433,    1461,    1462,    1513,    1512
    1434,    1462,    1463,    1514,    1513
    1435,    1463,    1464,    1515,    1514
    1436,    1464,    1465,    1516,    1515
    1437,    1465,    1466,    1517,    1516
    1438,    1466,    1467,    1518,    1517
    1439,    1467,    1468,    1519,    1518
    1440,    1468,    1469,    1520,    1519
    1441,    1469,    1470,    1521,    1520
    1442,    1470,    1471,    1522,    1521
    1443,    1471,    1472,    1523,    1522
    1444,    1472,    1473,    1524,    1523
    1445,    1473,    1474,    1525,    1524
    1446,    1474,    1475,    1526,    1525
    1447,    1475,    1476,    1527,    1526
    1448,    1476,    1477,    1528,    1527
    1449,    1477,    1478,    1529,    1528
    1450,    1478,    1479,    1530,    1529
    1451,    1480,    1481,    1532,    1531
    1452,    1481,    1482,    1533,    1532
    1453,    1482,    1483,    1534,    1533
    1454,    1483,    1484,    1535,    1534
    1455,    1484,    1485,    1536,    1535
    1456,    1485,    1486,    1537,    1536
    1457,    1486,    1487,    1538,    1537
    1458,    1487,    1488,    1539,    1538
    1459,    1488,    1489,    1540,    1539
    1460,    1489,    1490,    1541,    1540
    1461,    1490,    1491,    1542,    1541
    1462,    1491,    1492,    1543,    1542
    1463,    1492,    1493,    1544,    1543
    1464,    1493,    1494,    1545,    1544
    1465,    1494,    1495,    1546,    1545
    1466,    1495,    1496,    1547,    1546
    1467,    1496,    1497,    1548,    1547
    1468,    1497,    1498,    1549,    1548
    1469,    1498,    1499,    1550,    1549
    1470,    1499,    1500,    1551,    1550
    1471,    1500,    1501,    1552,    1551
    1472,    1501,    1502,    1553,    1552
    1473,    1502,    1503,    1554,    1553
    1474,    1503,    1504,    1555,    1554
    1475,    1504,    1505,    1556,    1555
    1476,    1505,    1506,    1557,    1556
    1477,    1506,    1507,    1558,    1557
    1478,    1507,    1508,    1559,    1558
    1479,    1508,    1509,    1560,    1559
    1480,    1509,    1510,    1561,    1560
    1481,    1510,    1511,    1562,    1561
    1482,    1511,    1512,    1563,    1562
    1483,    1512,    1513,    1564,    1563
    1484,    1513,    1514,    1565,    1564
    1485,    1514,    1515,    1566,    1565
    1486,    1515,    1516,    1567,    1566
    1487,    1516,    1517,    1568,    1567
    1488,    1517,    1518,    1569,    1568
    1489,    1518,    1519,    1570,    1569
    1490,    1519,    1520,    1571,    1570
    1491,    1520,    1521,    1572,    1571
    1492,    1521,    1522,    1573,    1572
    1493,    1522,    1523,    1574,    1573
    1494,    1523,    1524,    1575,    1574
    1495,    1524,    1525,    1576,    1575
    1496,    1525,    1526,    1577,    1576
    1497,    1526,    1527,    1578,    1577
    1498,    1527,    1528,    1579,    1578
    1499,    1528,    1529,    1580,    1579
    1500,    1529,    1530,    1581,    1580
    1501,    1531,    1532,    1583,    1582
    1502,    1532,    1533,    1584,    1583
    1503,    1533,    1534,    1585,    1584
    1504,    1534,    1535,    1586,    1585
    1505,    1535,    1536,    1587,    1586
    1506,    1536,    1537,    1588,    1587
    1507,    1537,    1538,    1589,    1588
    1508,    1538,    1539,    1590,    1589
    1509,    1539,    1540,    1591,    1590
    1510,    1540,    1541,    1592,    1591
    1511,    1541,    1542,    1593,    1592
    1512,    1542,    1543,    1594,    1593
    1513,    1543,    1544,    1595,    1594
    1514,    1544,    1545,    1596,    1595
    1515,    1545,    1546,    1597,    1596
    1516,    1546,    1547,    1598,    1597
    1517,    1547,    1548,    1599,    1598
    1518,    1548,    1549,    1600,    1599
    1519,    1549,    1550,    1601,    1600
    1520,    1550,    1551,    1602,    1601
    1521,    1551,    1552,    1603,    1602
    1522,    1552,    1553,    1604,    1603
    1523,    1553,    1554,    1605,    1604
    1524,    1554,    1555,    1606,    1605
    1525,    1555,    1556,    1607,    1606
    1526,    1556,    1557,    1608,    1607
    1527,    1557,    1558,    1609,    1608
    1528,    1558,    1559,    1610,    1609
    1529,    1559,    1560,    1611,    1610
    1530,    1560,    1561,    1612,    1611
    1531,    1561,    1562,    1613,    1612
    1532,    1562,    1563,    1614,    1613
    1533,    1563,    1564,    1615,    1614
    1534,    1564,    1565,    1616,    1615
    1535,    1565,    1566,    1617,    1616
    1536,    1566,    1567,    1618,    1617
    1537,    1567,    1568,    1619,    1618
    1538,    1568,    1569,    1620,    1619
    1539,    1569,    1570,    1621,    1620
    1540,    1570,    1571,    1622,    1621
    1541,    1571,    1572,    1623,    1622
    1542,    1572,    1573,    1624,    1623
    1543,    1573,    1574,    1625,    1624
    1544,    1574,    1575,    1626,    1625
    1545,    1575,    1576,    1627,    1626
    1546,    1576,    1577,    1628,    1627
    1547,    1577,    1578,    1629,    1628
    1548,    1578,    1579,    1630,    1629
    1549,    1579,    1580,    1631,    1630
    1550,    1580,    1581,    1632,    1631
    1551,    1582,    1583,    1634,    1633
    1552,    1583,    1584,    1635,    1634
    1553,    1584,    1585,    1636,    1635
    1554,    1585,    1586,    1637,    1636
    1555,    1586,    1587,    1638,    1637
    1556,    1587,    1588,    1639,    1638
    1557,    1588,    1589,    1640,    1639
    1558,    1589,    1590,    1641,    1640
    1559,    1590,    1591,    1642,    1641
    1560,    1591,    1592,    1643,    1642
    1561,    1592,    1593,    1644,    1643
    1562,    1593,    1594,    1645,    1644
    1563,    1594,    1595,    1646,    1645
    1564,    1595,    1596,    1647,    1646
    1565,    1596,    1597,    1648,    1647
    1566,    1597,    1598,    1649,    1648
    1567,    1598,    1599,    1650,    1649
    1568,    1599,    1600,    1651,    1650
    1569,    1600,    1601,    1652,    1651
    1570,    1601,    1602,    1653,    1652
    1571,    1602,    1603,    1654,    1653
    1572,    1603,    1604,    1655,    1654
    1573,    1604,    1605,    1656,    1655
    1574,    1605,    1606,    1657,    1656
    1575,    1606,    1607,    1658,    1657
    1576,    1607,    1608,    1659,    1658
    1577,    1608,    1609,    1660,    1659
    1578,    1609,    1610,    1661,    1660
    1579,    1610,    1611,    1662,    1661
    1580,    1611,    1612,    1663,    1662
    1581,    1612,    1613,    1664,    1663
    1582,    1613,    1614,    1665,    1664
    1583,    1614,    1615,    1666,    1665
    1584,    1615,    1616,    1667,    1666
    1585,    1616,    1617,    1668,    1667
    1586,    1617,    1618,    1669,    1668
    1587,    1618,    1619,    1670,    1669
    1588,    1619,    1620,    1671,    1670
    1589,    1620,    1621,    1672,    1671
    1590,    1621,    1622,    1673,    1672
    1591,    1622,    1623,    1674,    1673
    1592,    1623,    1624,    1675,    1674
    1593,    1624,    1625,    1676,    1675
    1594,    1625,    1626,    1677,    1676
    1595,    1626,    1627,    1678,    1677
    1596,    1627,    1628,    1679,    1678
    1597,    1628,    1629,    1680,    1679
    1598,    1629,    1630,    1681,    1680
    1599,    1630,    1631,    1682,    1681
    1600,    1631,    1632,    1683,    1682
    1601,    1633,    1634,    1685,    1684
    1602,    1634,    1635,    1686,    1685
    1603,    1635,    1636,    1687,    1686
    1604,    1636,    1637,    1688,    1687
    1605,    1637,    1638,    1689,    1688
    1606,    1638,    1639,    1690,    1689
    1607,    1639,    1640,    1691,    1690
    1608,    1640,    1641,    1692,    1691
    1609,    1641,    1642,    1693,    1692
    1610,    1642,    1643,    1694,    1693
    1611,    1643,    1644,    1695,    1694
    1612,    1644,    1645,    1696,    1695
    1613,    1645,    1646,    1697,    1696
    1614,    1646,    1647,    1698,    1697
    1615,    1647,    1648,    1699,    1698
    1616,    1648,    1649,    1700,    1699
    1617,    1649,    1650,    1701,    1700
    1618,    1650,    1651,    1702,    1701
    1619,    1651,    1652,    1703,    1702
    1620,    1652,    1653,    1704,    1703
    1621,    1653,    1654,    1705,    1704
    1622,    1654,    1655,    1706,    1705
    1623,    1655,    1656,    1707,    1706
    1624,    1656,    1657,    1708,    1707
    1625,    1657,    1658,    1709,    1708
    1626,    1658,    1659,    1710,    1709
    1627,    1659,    1660,    1711,    1710
    1628,    1660,    1661,    1712,    1711
    1629,    1661,    1662,    1713,    1712
    1630,    1662,    1663,    1714,    1713
    1631,    1663,    1664,    1715,    1714
    1632,    1664,    1665,    1716,    1715
    1633,    1665,    1666,    1717,    1716
    1634,    1666,    1667,    1718,    1717
    1635,    1667,    1668,    1719,    1718
    1636,    1668,    1669,    1720,    1719
    1637,    1669,    1670,    1721,    1720
    1638,    1670,    1671,    1722,    1721
    1639,    1671,    1672,    1723,    1722
    1640,    1672,    1673,    1724,    1723
    1641,    1673,    1674,    1725,    1724
    1642,    1674,    1675,    1726,    1725
    1643,    1675,    1676,    1727,    1726
    1644,    1676,    1677,    1728,    1727
    1645,    1677,    1678,    1729,    1728
    1646,    1678,    1679,    1730,    1729
    1647,    1679,    1680,    1731,    1730
    1648,    1680,    1681,    1732,    1731
    1649,    1681,    1682,    1733,    1732
    1650,    1682,    1683,    1734,    1733
    1651,    1684,    1685,    1736,    1735
    1652,    1685,    1686,    1737,    1736
    1653,    1686,    1687,    1738,    1737
    1654,    1687,    1688,    1739,    1738
    1655,    1688,    1689,    1740,    1739
    1656,    1689,    1690,    1741,    1740
    1657,    1690,    1691,    1742,    1741
    1658,    1691,    1692,    1743,    1742
    1659,    1692,    1693,    1744,    1743
    1660,    1693,    1694,    1745,    1744
    1661,    1694,    1695,    1746,    1745
    1662,    1695,    1696,    1747,    1746
    1663,    1696,    1697,    1748,    1747
    1664,    1697,    1698,    1749,    1748
    1665,    1698,    1699,    1750,    1749
    1666,    1699,    1700,    1751,    1750
    1667,    1700,    1701,    1752,    1751
    1668,    1701,    1702,    1753,    1752
    1669,    1702,    1703,    1754,    1753
    1670,    1703,    1704,    1755,    1754
    1671,    1704,    1705,    1756,    1755
    1672,    1705,    1706,    1757,    1756
    1673,    1706,    1707,    1758,    1757
    1674,    1707,    1708,    1759,    1758
    1675,    1708,    1709,    1760,    1759
    1676,    1709,    1710,    1761,    1760
    1677,    1710,    1711,    1762,    1761
    1678,    1711,    1712,    1763,    1762
    1679,    1712,    1713,    1764,    1763
    1680,    1713,    1714,    1765,    1764
    1681,    1714,    1715,    1766,    1765
    1682,    1715,    1716,    1767,    1766
    1683,    1716,    1717,    1768,    1767
    1684,    1717,    1718,    1769,    1768
    1685,    1718,    1719,    1770,    1769
    1686,    1719,    1720,    1771,    1770
    1687,    1720,    1721,    1772,    1771
    1688,    1721,    1722,    1773,    1772
    1689,    1722,    1723,    1774,    1773
    1690,    1723,    1724,    1775,    1774
    1691,    1724,    1725,    1776,    1775
    1692,    1725,    1726,    1777,    1776
    1693,    1726,    1727,    1778,    1777
    1694,    1727,    1728,    1779,    1778
    1695,    1728,    1729,    1780,    1779
    1696,    1729,    1730,    1781,    1780
    1697,    1730,    1731,    1782,    1781
    1698,    1731,    1732,    1783,    1782
    1699,    1732,    1733,    1784,    1783
    1700,    1733,    1734,    1785,    1784
    1701,    1735,    1736,    1787,    1786
    1702,    1736,    1737,    1788,    1787
    1703,    1737,    1738,    1789,    1788
    1704,    1738,    1739,    1790,    1789
    1705,    1739,    1740,    1791,    1790
    1706,    1740,    1741,    1792,    1791
    1707,    1741,    1742,    1793,    1792
    1708,    1742,    1743,    1794,    1793
    1709,    1743,    1744,    1795,    1794
    1710,    1744,    1745,    1796,    1795
    1711,    1745,    1746,    1797,    1796
    1712,    1746,    1747,    1798,    1797
    1713,    1747,    1748,    1799,    1798
    1714,    1748,    1749,    1800,    1799
    1715,    1749,    1750,    1801,    1800
    1716,    1750,    1751,    1802,    1801
    1717,    1751,    1752,    1803,    1802
    1718,    1752,    1753,    1804,    1803
    1719,    1753,    1754,    1805,    1804
    1720,    1754,    1755,    1806,    1805
    1721,    1755,    1756,    1807,    1806
    1722,    1756,    1757,    1808,    1807
    1723,    1757,    1758,    1809,    1808
    1724,    1758,    1759,    1810,    1809
    1725,    1759,    1760,    1811,    1810
    1726,    1760,    1761,    1812,    1811
    1727,    1761,    1762,    1813,    1812
    1728,    1762,    1763,    1814,    1813
    1729,    1763,    1764,    1815,    1814
    1730,    1764,    1765,    1816,    1815
    1731,    1765,    1766,    1817,    1816
    1732,    1766,    1767,    1818,    1817
    1733,    1767,    1768,    1819,    1818
    1734,    1768,    1769,    1820,    1819
    1735,    1769,    1770,    1821,    1820
    1736,    1770,    1771,    1822,    1821
    1737,    1771,    1772,    1823,    1822
    1738,    1772,    1773,    1824,    1823
    1739,    1773,    1774,    1825,    1824
    1740,    1774,    1775,    1826,    1825
    1741,    1775,    1776,    1827,    1826
    1742,    1776,    1777,    1828,    1827
    1743,    1777,    1778,    1829,    1828
    1744,    1778,    1779,    1830,    1829
    1745,    1779,    1780,    1831,    1830
    1746,    1780,    1781,    1832,    1831
    1747,    1781,    1782,    1833,    1832
    1748,    1782,    1783,    1834,    1833
    1749,    1783,    1784,    1835,    1834
    1750,    1784,    1785,    1836,    1835
    1751,    1786,    1787,    1838,    1837
    1752,    1787,    1788,    1839,    1838
    1753,    1788,    1789,    1840,    1839
    1754,    1789,    1790,    1841,    1840
    1755,    1790,    1791,    1842,    1841
    1756,    1791,    1792,    1843,    1842
    1757,    1792,    1793,    1844,    1843
    1758,    1793,    1794,    1845,    1844
    1759,    1794,    1795,    1846,    1845
    1760,    1795,    1796,    1847,    1846
    1761,    1796,    1797,    1848,    1847
    1762,    1797,    1798,    1849,    1848
    1763,    1798,    1799,    1850,    1849
    1764,    1799,    1800,    1851,    1850
    1765,    1800,    1801,    1852,    1851
    1766,    1801,    1802,    1853,    1852
    1767,    1802,    1803,    1854,    1853
    1768,    1803,    1804,    1855,    1854
    1769,    1804,    1805,    1856,    1855
    1770,    1805,    1806,    1857,    1856
    1771,    1806,    1807,    1858,    1857
    1772,    1807,    1808,    1859,    1858
    1773,    1808,    1809,    1860,    1859
    1774,    1809,    1810,    1861,    1860
    1775,    1810,    1811,    1862,    1861
    1776,    1811,    1812,    1863,    1862
    1777,    1812,    1813,    1864,    1863
    1778,    1813,    1814,    1865,    1864
    1779,    1814,    1815,    1866,    1865
    1780,    1815,    1816,    1867,    1866
    1781,    1816,    1817,    1868,    1867
    1782,    1817,    1818,    1869,    1868
    1783,    1818,    1819,    1870,    1869
    1784,    1819,    1820,    1871,    1870
    1785,    1820,    1821,    1872,    1871
    1786,    1821,    1822,    1873,    1872
    1787,    1822,    1823,    1874,    1873
    1788,    1823,    1824,    1875,    1874
    1789,    1824,    1825,    1876,    1875
    1790,    1825,    1826,    1877,    1876
    1791,    1826,    1827,    1878,    1877
    1792,    1827,    1828,    1879,    1878
    1793,    1828,    1829,    1880,    1879
    1794,    1829,    1830,    1881,    1880
    1795,    1830,    1831,    1882,    1881
    1796,    1831,    1832,    1883,    1882
    1797,    1832,    1833,    1884,    1883
    1798,    1833,    1834,    1885,    1884
    1799,    1834,    1835,    1886,    1885
    1800,    1835,    1836,    1887,    1886
    1801,    1837,    1838,    1889,    1888
    1802,    1838,    1839,    1890,    1889
    1803,    1839,    1840,    1891,    1890
    1804,    1840,    1841,    1892,    1891
    1805,    1841,    1842,    1893,    1892
    1806,    1842,    1843,    1894,    1893
    1807,    1843,    1844,    1895,    1894
    1808,    1844,    1845,    1896,    1895
    1809,    1845,    1846,    1897,    1896
    1810,    1846,    1847,    1898,    1897
    1811,    1847,    1848,    1899,    1898
    1812,    1848,    1849,    1900,    1899
    1813,    1849,    1850,    1901,    1900
    1814,    1850,    1851,    1902,    1901
    1815,    1851,    1852,    1903,    1902
    1816,    1852,    1853,    1904,    1903
    1817,    1853,    1854,    1905,    1904
    1818,    1854,    1855,    1906,    1905
    1819,    1855,    1856,    1907,    1906
    1820,    1856,    1857,    1908,    1907
    1821,    1857,    1858,    1909,    1908
    1822,    1858,    1859,    1910,    1909
    1823,    1859,    1860,    1911,    1910
    1824,    1860,    1861,    1912,    1911
    1825,    1861,    1862,    1913,    1912
    1826,    1862,    1863,    1914,    1913
    1827,    1863,    1864,    1915,    1914
    1828,    1864,    1865,    1916,    1915
    1829,    1865,    1866,    1917,    1916
    1830,    1866,    1867,    1918,    1917
    1831,    1867,    1868,    1919,    1918
    1832,    1868,    1869,    1920,    1919
    1833,    1869,    1870,    1921,    1920
    1834,    1870,    1871,    1922,    1921
    1835,    1871,    1872,    1923,    1922
    1836,    1872,    1873,    1924,    1923
    1837,    1873,    1874,    1925,    1924
    1838,    1874,    1875,    1926,    1925
    1839,    1875,    1876,    1927,    1926
    1840,    1876,    1877,    1928,    1927
    1841,    1877,    1878,    1929,    1928
    1842,    1878,    1879,    1930,    1929
    1843,    1879,    1880,    1931,    1930
    1844,    1880,    1881,    1932,    1931
    1845,    1881,    1882,    1933,    1932
    1846,    1882,    1883,    1934,    1933
    1847,    1883,    1884,    1935,    1934
    1848,    1884,    1885,    1936,    1935
    1849,    1885,    1886,    1937,    1936
    1850,    1886,    1887,    1938,    1937
    1851,    1888,    1889,    1940,    1939
    1852,    1889,    1890,    1941,    1940
    1853,    1890,    1891,    1942,    1941
    1854,    1891,    1892,    1943,    1942
    1855,    1892,    1893,    1944,    1943
    1856,    1893,    1894,    1945,    1944
    1857,    1894,    1895,    1946,    1945
    1858,    1895,    1896,    1947,    1946
    1859,    1896,    1897,    1948,    1947
    1860,    1897,    1898,    1949,    1948
    1861,    1898,    1899,    1950,    1949
    1862,    1899,    1900,    1951,    1950
    1863,    1900,    1901,    1952,    1951
    1864,    1901,    1902,    1953,    1952
    1865,    1902,    1903,    1954,    1953
    1866,    1903,    1904,    1955,    1954
    1867,    1904,    1905,    1956,    1955
    1868,    1905,    1906,    1957,    1956
    1869,    1906,    1907,    1958,    1957
    1870,    1907,    1908,    1959,    1958
    1871,    1908,    1909,    1960,    1959
    1872,    1909,    1910,    1961,    1960
    1873,    1910,    1911,    1962,    1961
    1874,    1911,    1912,    1963,    1962
    1875,    1912,    1913,    1964,    1963
    1876,    1913,    1914,    1965,    1964
    1877,    1914,    1915,    1966,    1965
    1878,    1915,    1916,    1967,    1966
    1879,    1916,    1917,    1968,    1967
    1880,    1917,    1918,    1969,    1968
    1881,    1918,    1919,    1970,    1969
    1882,    1919,    1920,    1971,    1970
    1883,    1920,    1921,    1972,    1971
    1884,    1921,    1922,    1973,    1972
    1885,    1922,    1923,    1974,    1973
    1886,    1923,    1924,    1975,    1974
    1887,    1924,    1925,    1976,    1975
    1888,    1925,    1926,    1977,    1976
    1889,    1926,    1927,    1978,    1977
    1890,    1927,    1928,    1979,    1978
    1891,    1928,    1929,    1980,    1979
    1892,    1929,    1930,    1981,    1980
    1893,    1930,    1931,    1982,    1981
    1894,    1931,    1932,    1983,    1982
    1895,    1932,    1933,    1984,    1983
    1896,    1933,    1934,    1985,    1984
    1897,    1934,    1935,    1986,    1985
    1898,    1935,    1936,    1987,    1986
    1899,    1936,    1937,    1988,    1987
    1900,    1937,    1938,    1989,    1988
    1901,    1939,    1940,    1991,    1990
    1902,    1940,    1941,    1992,    1991
    1903,    1941,    1942,    1993,    1992
    1904,    1942,    1943,    1994,    1993
    1905,    1943,    1944,    1995,    1994
    1906,    1944,    1945,    1996,    1995
    1907,    1945,    1946,    1997,    1996
    1908,    1946,    1947,    1998,    1997
    1909,    1947,    1948,    1999,    1998
    1910,    1948,    1949,    2000,    1999
    1911,    1949,    1950,    2001,    2000
    1912,    1950,    1951,    2002,    2001
    1913,    1951,    1952,    2003,    2002
    1914,    1952,    1953,    2004,    2003
    1915,    1953,    1954,    2005,    2004
    1916,    1954,    1955,    2006,    2005
    1917,    1955,    1956,    2007,    2006
    1918,    1956,    1957,    2008,    2007
    1919,    1957,    1958,    2009,    2008
    1920,    1958,    1959,    2010,    2009
    1921,    1959,    1960,    2011,    2010
    1922,    1960,    1961,    2012,    2011
    1923,    1961,    1962,    2013,    2012
    1924,    1962,    1963,    2014,    2013
    1925,    1963,    1964,    2015,    2014
    1926,    1964,    1965,    2016,    2015
    1927,    1965,    1966,    2017,    2016
    1928,    1966,    1967,    2018,    2017
    1929,    1967,    1968,    2019,    2018
    1930,    1968,    1969,    2020,    2019
    1931,    1969,    1970,    2021,    2020
    1932,    1970,    1971,    2022,    2021
    1933,    1971,    1972,    2023,    2022
    1934,    1972,    1973,    2024,    2023
    1935,    1973,    1974,    2025,    2024
    1936,    1974,    1975,    2026,    2025
    1937,    1975,    1976,    2027,    2026
    1938,    1976,    1977,    2028,    2027
    1939,    1977,    1978,    2029,    2028
    1940,    1978,    1979,    2030,    2029
    1941,    1979,    1980,    2031,    2030
    1942,    1980,    1981,    2032,    2031
    1943,    1981,    1982,    2033,    2032
    1944,    1982,    1983,    2034,    2033
    1945,    1983,    1984,    2035,    2034
    1946,    1984,    1985,    2036,    2035
    1947,    1985,    1986,    2037,    2036
    1948,    1986,    1987,    2038,    2037
    1949,    1987,    1988,    2039,    2038
    1950,    1988,    1989,    2040,    2039
    1951,    1990,    1991,    2042,    2041
    1952,    1991,    1992,    2043,    2042
    1953,    1992,    1993,    2044,    2043
    1954,    1993,    1994,    2045,    2044
    1955,    1994,    1995,    2046,    2045
    1956,    1995,    1996,    2047,    2046
    1957,    1996,    1997,    2048,    2047
    1958,    1997,    1998,    2049,    2048
    1959,    1998,    1999,    2050,    2049
    1960,    1999,    2000,    2051,    2050
    1961,    2000,    2001,    2052,    2051
    1962,    2001,    2002,    2053,    2052
    1963,    2002,    2003,    2054,    2053
    1964,    2003,    2004,    2055,    2054
    1965,    2004,    2005,    2056,    2055
    1966,    2005,    2006,    2057,    2056
    1967,    2006,    2007,    2058,    2057
    1968,    2007,    2008,    2059,    2058
    1969,    2008,    2009,    2060,    2059
    1970,    2009,    2010,    2061,    2060
    1971,    2010,    2011,    2062,    2061
    1972,    2011,    2012,    2063,    2062
    1973,    2012,    2013,    2064,    2063
    1974,    2013,    2014,    2065,    2064
    1975,    2014,    2015,    2066,    2065
    1976,    2015,    2016,    2067,    2066
    1977,    2016,    2017,    2068,    2067
    1978,    2017,    2018,    2069,    2068
    1979,    2018,    2019,    2070,    2069
    1980,    2019,    2020,    2071,    2070
    1981,    2020,    2021,    2072,    2071
    1982,    2021,    2022,    2073,    2072
    1983,    2022,    2023,    2074,    2073
    1984,    2023,    2024,    2075,    2074
    1985,    2024,    2025,    2076,    2075
    1986,    2025,    2026,    2077,    2076
    1987,    2026,    2027,    2078,    2077
    1988,    2027,    2028,    2079,    2078
    1989,    2028,    2029,    2080,    2079
    1990,    2029,    2030,    2081,    2080
    1991,    2030,    2031,    2082,    2081
    1992,    2031,    2032,    2083,    2082
    1993,    2032,    2033,    2084,    2083
    1994,    2033,    2034,    2085,    2084
    1995,    2034,    2035,    2086,    2085
    1996,    2035,    2036,    2087,    2086
    1997,    2036,    2037,    2088,    2087
    1998,    2037,    2038,    2089,    2088
    1999,    2038,    2039,    2090,    2089
    2000,    2039,    2040,    2091,    2090
    2001,    2041,    2042,    2093,    2092
    2002,    2042,    2043,    2094,    2093
    2003,    2043,    2044,    2095,    2094
    2004,    2044,    2045,    2096,    2095
    2005,    2045,    2046,    2097,    2096
    2006,    2046,    2047,    2098,    2097
    2007,    2047,    2048,    2099,    2098
    2008,    2048,    2049,    2100,    2099
    2009,    2049,    2050,    2101,    2100
    2010,    2050,    2051,    2102,    2101
    2011,    2051,    2052,    2103,    2102
    2012,    2052,    2053,    2104,    2103
    2013,    2053,    2054,    2105,    2104
    2014,    2054,    2055,    2106,    2105
    2015,    2055,    2056,    2107,    2106
    2016,    2056,    2057,    2108,    2107
    2017,    2057,    2058,    2109,    2108
    2018,    2058,    2059,    2110,    2109
    2019,    2059,    2060,    2111,    2110
    2020,    2060,    2061,    2112,    2111
    2021,    2061,    2062,    2113,    2112
    2022,    2062,    2063,    2114,    2113
    2023,    2063,    2064,    2115,    2114
    2024,    2064,    2065,    2116,    2115
    2025,    2065,    2066,    2117,    2116
    2026,    2066,    2067,    2118,    2117
    2027,    2067,    2068,    2119,    2118
    2028,    2068,    2069,    2120,    2119
    2029,    2069,    2070,    2121,    2120
    2030,    2070,    2071,    2122,    2121
    2031,    2071,    2072,    2123,    2122
    2032,    2072,    2073,    2124,    2123
    2033,    2073,    2074,    2125,    2124
    2034,    2074,    2075,    2126,    2125
    2035,    2075,    2076,    2127,    2126
    2036,    2076,    2077,    2128,    2127
    2037,    2077,    2078,    2129,    2128
    2038,    2078,    2079,    2130,    2129
    2039,    2079,    2080,    2131,    2130
    2040,    2080,    2081,    2132,    2131
    2041,    2081,    2082,    2133,    2132
    2042,    2082,    2083,    2134,    2133
    2043,    2083,    2084,    2135,    2134
    2044,    2084,    2085,    2136,    2135
    2045,    2085,    2086,    2137,    2136
    2046,    2086,    2087,    2138,    2137
    2047,    2087,    2088,    2139,    2138
    2048,    2088,    2089,    2140,    2139
    2049,    2089,    2090,    2141,    2140
    2050,    2090,    2091,    2142,    2141
    2051,    2092,    2093,    2144,    2143
    2052,    2093,    2094,    2145,    2144
    2053,    2094,    2095,    2146,    2145
    2054,    2095,    2096,    2147,    2146
    2055,    2096,    2097,    2148,    2147
    2056,    2097,    2098,    2149,    2148
    2057,    2098,    2099,    2150,    2149
    2058,    2099,    2100,    2151,    2150
    2059,    2100,    2101,    2152,    2151
    2060,    2101,    2102,    2153,    2152
    2061,    2102,    2103,    2154,    2153
    2062,    2103,    2104,    2155,    2154
    2063,    2104,    2105,    2156,    2155
    2064,    2105,    2106,    2157,    2156
    2065,    2106,    2107,    2158,    2157
    2066,    2107,    2108,    2159,    2158
    2067,    2108,    2109,    2160,    2159
    2068,    2109,    2110,    2161,    2160
    2069,    2110,    2111,    2162,    2161
    2070,    2111,    2112,    2163,    2162
    2071,    2112,    2113,    2164,    2163
    2072,    2113,    2114,    2165,    2164
    2073,    2114,    2115,    2166,    2165
    2074,    2115,    2116,    2167,    2166
    2075,    2116,    2117,    2168,    2167
    2076,    2117,    2118,    2169,    2168
    2077,    2118,    2119,    2170,    2169
    2078,    2119,    2120,    2171,    2170
    2079,    2120,    2121,    2172,    2171
    2080,    2121,    2122,    2173,    2172
    2081,    2122,    2123,    2174,    2173
    2082,    2123,    2124,    2175,    2174
    2083,    2124,    2125,    2176,    2175
    2084,    2125,    2126,    2177,    2176
    2085,    2126,    2127,    2178,    2177
    2086,    2127,    2128,    2179,    2178
    2087,    2128,    2129,    2180,    2179
    2088,    2129,    2130,    2181,    2180
    2089,    2130,    2131,    2182,    2181
    2090,    2131,    2132,    2183,    2182
    2091,    2132,    2133,    2184,    2183
    2092,    2133,    2134,    2185,    2184
    2093,    2134,    2135,    2186,    2185
    2094,    2135,    2136,    2187,    2186
    2095,    2136,    2137,    2188,    2187
    2096,    2137,    2138,    2189,    2188
    2097,    2138,    2139,    2190,    2189
    2098,    2139,    2140,    2191,    2190
    2099,    2140,    2141,    2192,    2191
    2100,    2141,    2142,    2193,    2192
    2101,    2143,    2144,    2195,    2194
    2102,    2144,    2145,    2196,    2195
    2103,    2145,    2146,    2197,    2196
    2104,    2146,    2147,    2198,    2197
    2105,    2147,    2148,    2199,    2198
    2106,    2148,    2149,    2200,    2199
    2107,    2149,    2150,    2201,    2200
    2108,    2150,    2151,    2202,    2201
    2109,    2151,    2152,    2203,    2202
    2110,    2152,    2153,    2204,    2203
    2111,    2153,    2154,    2205,    2204
    2112,    2154,    2155,    2206,    2205
    2113,    2155,    2156,    2207,    2206
    2114,    2156,    2157,    2208,    2207
    2115,    2157,    2158,    2209,    2208
    2116,    2158,    2159,    2210,    2209
    2117,    2159,    2160,    2211,    2210
    2118,    2160,    2161,    2212,    2211
    2119,    2161,    2162,    2213,    2212
    2120,    2162,    2163,    2214,    2213
    2121,    2163,    2164,    2215,    2214
    2122,    2164,    2165,    2216,    2215
    2123,    2165,    2166,    2217,    2216
    2124,    2166,    2167,    2218,    2217
    2125,    2167,    2168,    2219,    2218
    2126,    2168,    2169,    2220,    2219
    2127,    2169,    2170,    2221,    2220
    2128,    2170,    2171,    2222,    2221
    2129,    2171,    2172,    2223,    2222
    2130,    2172,    2173,    2224,    2223
    2131,    2173,    2174,    2225,    2224
    2132,    2174,    2175,    2226,    2225
    2133,    2175,    2176,    2227,    2226
    2134,    2176,    2177,    2228,    2227
    2135,    2177,    2178,    2229,    2228
    2136,    2178,    2179,    2230,    2229
    2137,    2179,    2180,    2231,    2230
    2138,    2180,    2181,    2232,    2231
    2139,    2181,    2182,    2233,    2232
    2140,    2182,    2183,    2234,    2233
    2141,    2183,    2184,    2235,    2234
    2142,    2184,    2185,    2236,    2235
    2143,    2185,    2186,    2237,    2236
    2144,    2186,    2187,    2238,    2237
    2145,    2187,    2188,    2239,    2238
    2146,    2188,    2189,    2240,    2239
    2147,    2189,    2190,    2241,    2240
    2148,    2190,    2191,    2242,    2241
    2149,    2191,    2192,    2243,    2242
    2150,    2192,    2193,    2244,    2243
    2151,    2194,    2195,    2246,    2245
    2152,    2195,    2196,    2247,    2246
    2153,    2196,    2197,    2248,    2247
    2154,    2197,    2198,    2249,    2248
    2155,    2198,    2199,    2250,    2249
    2156,    2199,    2200,    2251,    2250
    2157,    2200,    2201,    2252,    2251
    2158,    2201,    2202,    2253,    2252
    2159,    2202,    2203,    2254,    2253
    2160,    2203,    2204,    2255,    2254
    2161,    2204,    2205,    2256,    2255
    2162,    2205,    2206,    2257,    2256
    2163,    2206,    2207,    2258,    2257
    2164,    2207,    2208,    2259,    2258
    2165,    2208,    2209,    2260,    2259
    2166,    2209,    2210,    2261,    2260
    2167,    2210,    2211,    2262,    2261
    2168,    2211,    2212,    2263,    2262
    2169,    2212,    2213,    2264,    2263
    2170,    2213,    2214,    2265,    2264
    2171,    2214,    2215,    2266,    2265
    2172,    2215,    2216,    2267,    2266
    2173,    2216,    2217,    2268,    2267
    2174,    2217,    2218,    2269,    2268
    2175,    2218,    2219,    2270,    2269
    2176,    2219,    2220,    2271,    2270
    2177,    2220,    2221,    2272,    2271
    2178,    2221,    2222,    2273,    2272
    2179,    2222,    2223,    2274,    2273
    2180,    2223,    2224,    2275,    2274
    2181,    2224,    2225,    2276,    2275
    2182,    2225,    2226,    2277,    2276
    2183,    2226,    2227,    2278,    2277
    2184,    2227,    2228,    2279,    2278
    2185,    2228,    2229,    2280,    2279
    2186,    2229,    2230,    2281,    2280
    2187,    2230,    2231,    2282,    2281
    2188,    2231,    2232,    2283,    2282
    2189,    2232,    2233,    2284,    2283
    2190,    2233,    2234,    2285,    2284
    2191,    2234,    2235,    2286,    2285
    2192,    2235,    2236,    2287,    2286
    2193,    2236,    2237,    2288,    2287
    2194,    2237,    2238,    2289,    2288
    2195,    2238,    2239,    2290,    2289
    2196,    2239,    2240,    2291,    2290
    2197,    2240,    2241,    2292,    2291
    2198,    2241,    2242,    2293,    2292
    2199,    2242,    2243,    2294,    2293
    2200,    2243,    2244,    2295,    2294
    2201,    2245,    2246,    2297,    2296
    2202,    2246,    2247,    2298,    2297
    2203,    2247,    2248,    2299,    2298
    2204,    2248,    2249,    2300,    2299
    2205,    2249,    2250,    2301,    2300
    2206,    2250,    2251,    2302,    2301
    2207,    2251,    2252,    2303,    2302
    2208,    2252,    2253,    2304,    2303
    2209,    2253,    2254,    2305,    2304
    2210,    2254,    2255,    2306,    2305
    2211,    2255,    2256,    2307,    2306
    2212,    2256,    2257,    2308,    2307
    2213,    2257,    2258,    2309,    2308
    2214,    2258,    2259,    2310,    2309
    2215,    2259,    2260,    2311,    2310
    2216,    2260,    2261,    2312,    2311
    2217,    2261,    2262,    2313,    2312
    2218,    2262,    2263,    2314,    2313
    2219,    2263,    2264,    2315,    2314
    2220,    2264,    2265,    2316,    2315
    2221,    2265,    2266,    2317,    2316
    2222,    2266,    2267,    2318,    2317
    2223,    2267,    2268,    2319,    2318
    2224,    2268,    2269,    2320,    2319
    2225,    2269,    2270,    2321,    2320
    2226,    2270,    2271,    2322,    2321
    2227,    2271,    2272,    2323,    2322
    2228,    2272,    2273,    2324,    2323
    2229,    2273,    2274,    2325,    2324
    2230,    2274,    2275,    2326,    2325
    2231,    2275,    2276,    2327,    2326
    2232,    2276,    2277,    2328,    2327
    2233,    2277,    2278,    2329,    2328
    2234,    2278,    2279,    2330,    2329
    2235,    2279,    2280,    2331,    2330
    2236,    2280,    2281,    2332,    2331
    2237,    2281,    2282,    2333,    2332
    2238,    2282,    2283,    2334,    2333
    2239,    2283,    2284,    2335,    2334
    2240,    2284,    2285,    2336,    2335
    2241,    2285,    2286,    2337,    2336
    2242,    2286,    2287,    2338,    2337
    2243,    2287,    2288,    2339,    2338
    2244,    2288,    2289,    2340,    2339
    2245,    2289,    2290,    2341,    2340
    2246,    2290,    2291,    2342,    2341
    2247,    2291,    2292,    2343,    2342
    2248,    2292,    2293,    2344,    2343
    2249,    2293,    2294,    2345,    2344
    2250,    2294,    2295,    2346,    2345
    2251,    2296,    2297,    2348,    2347
    2252,    2297,    2298,    2349,    2348
    2253,    2298,    2299,    2350,    2349
    2254,    2299,    2300,    2351,    2350
    2255,    2300,    2301,    2352,    2351
    2256,    2301,    2302,    2353,    2352
    2257,    2302,    2303,    2354,    2353
    2258,    2303,    2304,    2355,    2354
    2259,    2304,    2305,    2356,    2355
    2260,    2305,    2306,    2357,    2356
    2261,    2306,    2307,    2358,    2357
    2262,    2307,    2308,    2359,    2358
    2263,    2308,    2309,    2360,    2359
    2264,    2309,    2310,    2361,    2360
    2265,    2310,    2311,    2362,    2361
    2266,    2311,    2312,    2363,    2362
    2267,    2312,    2313,    2364,    2363
    2268,    2313,    2314,    2365,    2364
    2269,    2314,    2315,    2366,    2365
    2270,    2315,    2316,    2367,    2366
    2271,    2316,    2317,    2368,    2367
    2272,    2317,    2318,    2369,    2368
    2273,    2318,    2319,    2370,    2369
    2274,    2319,    2320,    2371,    2370
    2275,    2320,    2321,    2372,    2371
    2276,    2321,    2322,    2373,    2372
    2277,    2322,    2323,    2374,    2373
    2278,    2323,    2324,    2375,    2374
    2279,    2324,    2325,    2376,    2375
    2280,    2325,    2326,    2377,    2376
    2281,    2326,    2327,    2378,    2377
    2282,    2327,    2328,    2379,    2378
    2283,    2328,    2329,    2380,    2379
    2284,    2329,    2330,    2381,    2380
    2285,    2330,    2331,    2382,    2381
    2286,    2331,    2332,    2383,    2382
    2287,    2332,    2333,    2384,    2383
    2288,    2333,    2334,    2385,    2384
    2289,    2334,    2335,    2386,    2385
    2290,    2335,    2336,    2387,    2386
    2291,    2336,    2337,    2388,    2387
    2292,    2337,    2338,    2389,    2388
    2293,    2338,    2339,    2390,    2389
    2294,    2339,    2340,    2391,    2390
    2295,    2340,    2341,    2392,    2391
    2296,    2341,    2342,    2393,    2392
    2297,    2342,    2343,    2394,    2393
    2298,    2343,    2344,    2395,    2394
    2299,    2344,    2345,    2396,    2395
    2300,    2345,    2346,    2397,    2396
    2301,    2347,    2348,    2399,    2398
    2302,    2348,    2349,    2400,    2399
    2303,    2349,    2350,    2401,    2400
    2304,    2350,    2351,    2402,    2401
    2305,    2351,    2352,    2403,    2402
    2306,    2352,    2353,    2404,    2403
    2307,    2353,    2354,    2405,    2404
    2308,    2354,    2355,    2406,    2405
    2309,    2355,    2356,    2407,    2406
    2310,    2356,    2357,    2408,    2407
    2311,    2357,    2358,    2409,    2408
    2312,    2358,    2359,    2410,    2409
    2313,    2359,    2360,    2411,    2410
    2314,    2360,    2361,    2412,    2411
    2315,    2361,    2362,    2413,    2412
    2316,    2362,    2363,    2414,    2413
    2317,    2363,    2364,    2415,    2414
    2318,    2364,    2365,    2416,    2415
    2319,    2365,    2366,    2417,    2416
    2320,    2366,    2367,    2418,    2417
    2321,    2367,    2368,    2419,    2418
    2322,    2368,    2369,    2420,    2419
    2323,    2369,    2370,    2421,    2420
    2324,    2370,    2371,    2422,    2421
    2325,    2371,    2372,    2423,    2422
    2326,    2372,    2373,    2424,    2423
    2327,    2373,    2374,    2425,    2424
    2328,    2374,    2375,    2426,    2425
    2329,    2375,    2376,    2427,    2426
    2330,    2376,    2377,    2428,    2427
    2331,    2377,    2378,    2429,    2428
    2332,    2378,    2379,    2430,    2429
    2333,    2379,    2380,    2431,    2430
    2334,    2380,    2381,    2432,    2431
    2335,    2381,    2382,    2433,    2432
    2336,    2382,    2383,    2434,    2433
    2337,    2383,    2384,    2435,    2434
    2338,    2384,    2385,    2436,    2435
    2339,    2385,    2386,    2437,    2436
    2340,    2386,    2387,    2438,    2437
    2341,    2387,    2388,    2439,    2438
    2342,    2388,    2389,    2440,    2439
    2343,    2389,    2390,    2441,    2440
    2344,    2390,    2391,    2442,    2441
    2345,    2391,    2392,    2443,    2442
    2346,    2392,    2393,    2444,    2443
    2347,    2393,    2394,    2445,    2444
    2348,    2394,    2395,    2446,    2445
    2349,    2395,    2396,    2447,    2446
    2350,    2396,    2397,    2448,    2447
    2351,    2398,    2399,    2450,    2449
    2352,    2399,    2400,    2451,    2450
    2353,    2400,    2401,    2452,    2451
    2354,    2401,    2402,    2453,    2452
    2355,    2402,    2403,    2454,    2453
    2356,    2403,    2404,    2455,    2454
    2357,    2404,    2405,    2456,    2455
    2358,    2405,    2406,    2457,    2456
    2359,    2406,    2407,    2458,    2457
    2360,    2407,    2408,    2459,    2458
    2361,    2408,    2409,    2460,    2459
    2362,    2409,    2410,    2461,    2460
    2363,    2410,    2411,    2462,    2461
    2364,    2411,    2412,    2463,    2462
    2365,    2412,    2413,    2464,    2463
    2366,    2413,    2414,    2465,    2464
    2367,    2414,    2415,    2466,    2465
    2368,    2415,    2416,    2467,    2466
    2369,    2416,    2417,    2468,    2467
    2370,    2417,    2418,    2469,    2468
    2371,    2418,    2419,    2470,    2469
    2372,    2419,    2420,    2471,    2470
    2373,    2420,    2421,    2472,    2471
    2374,    2421,    2422,    2473,    2472
    2375,    2422,    2423,    2474,    2473
    2376,    2423,    2424,    2475,    2474
    2377,    2424,    2425,    2476,    2475
    2378,    2425,    2426,    2477,    2476
    2379,    2426,    2427,    2478,    2477
    2380,    2427,    2428,    2479,    2478
    2381,    2428,    2429,    2480,    2479
    2382,    2429,    2430,    2481,    2480
    2383,    2430,    2431,    2482,    2481
    2384,    2431,    2432,    2483,    2482
    2385,    2432,    2433,    2484,    2483
    2386,    2433,    2434,    2485,    2484
    2387,    2434,    2435,    2486,    2485
    2388,    2435,    2436,    2487,    2486
    2389,    2436,    2437,    2488,    2487
    2390,    2437,    2438,    2489,    2488
    2391,    2438,    2439,    2490,    2489
    2392,    2439,    2440,    2491,    2490
    2393,    2440,    2441,    2492,    2491
    2394,    2441,    2442,    2493,    2492
    2395,    2442,    2443,    2494,    2493
    2396,    2443,    2444,    2495,    2494
    2397,    2444,    2445,    2496,    2495
    2398,    2445,    2446,    2497,    2496
    2399,    2446,    2447,    2498,    2497
    2400,    2447,    2448,    2499,    2498
    2401,    2449,    2450,    2501,    2500
    2402,    2450,    2451,    2502,    2501
    2403,    2451,    2452,    2503,    2502
    2404,    2452,    2453,    2504,    2503
    2405,    2453,    2454,    2505,    2504
    2406,    2454,    2455,    2506,    2505
    2407,    2455,    2456,    2507,    2506
    2408,    2456,    2457,    2508,    2507
    2409,    2457,    2458,    2509,    2508
    2410,    2458,    2459,    2510,    2509
    2411,    2459,    2460,    2511,    2510
    2412,    2460,    2461,    2512,    2511
    2413,    2461,    2462,    2513,    2512
    2414,    2462,    2463,    2514,    2513
    2415,    2463,    2464,    2515,    2514
    2416,    2464,    2465,    2516,    2515
    2417,    2465,    2466,    2517,    2516
    2418,    2466,    2467,    2518,    2517
    2419,    2467,    2468,    2519,    2518
    2420,    2468,    2469,    2520,    2519
    2421,    2469,    2470,    2521,    2520
    2422,    2470,    2471,    2522,    2521
    2423,    2471,    2472,    2523,    2522
    2424,    2472,    2473,    2524,    2523
    2425,    2473,    2474,    2525,    2524
    2426,    2474,    2475,    2526,    2525
    2427,    2475,    2476,    2527,    2526
    2428,    2476,    2477,    2528,    2527
    2429,    2477,    2478,    2529,    2528
    2430,    2478,    2479,    2530,    2529
    2431,    2479,    2480,    2531,    2530
    2432,    2480,    2481,    2532,    2531
    2433,    2481,    2482,    2533,    2532
    2434,    2482,    2483,    2534,    2533
    2435,    2483,    2484,    2535,    2534
    2436,    2484,    2485,    2536,    2535
    2437,    2485,    2486,    2537,    2536
    2438,    2486,    2487,    2538,    2537
    2439,    2487,    2488,    2539,    2538
    2440,    2488,    2489,    2540,    2539
    2441,    2489,    2490,    2541,    2540
    2442,    2490,    2491,    2542,    2541
    2443,    2491,    2492,    2543,    2542
    2444,    2492,    2493,    2544,    2543
    2445,    2493,    2494,    2545,    2544
    2446,    2494,    2495,    2546,    2545
    2447,    2495,    2496,    2547,    2546
    2448,    2496,    2497,    2548,    2547
    2449,    2497,    2498,    2549,    2548
    2450,    2498,    2499,    2550,    2549
    2451,    2500,    2501,    2552,    2551
    2452,    2501,    2502,    2553,    2552
    2453,    2502,    2503,    2554,    2553
    2454,    2503,    2504,    2555,    2554
    2455,    2504,    2505,    2556,    2555
    2456,    2505,    2506,    2557,    2556
    2457,    2506,    2507,    2558,    2557
    2458,    2507,    2508,    2559,    2558
    2459,    2508,    2509,    2560,    2559
    2460,    2509,    2510,    2561,    2560
    2461,    2510,    2511,    2562,    2561
    2462,    2511,    2512,    2563,    2562
    2463,    2512,    2513,    2564,    2563
    2464,    2513,    2514,    2565,    2564
    2465,    2514,    2515,    2566,    2565
    2466,    2515,    2516,    2567,    2566
    2467,    2516,    2517,    2568,    2567
    2468,    2517,    2518,    2569,    2568
    2469,    2518,    2519,    2570,    2569
    2470,    2519,    2520,    2571,    2570
    2471,    2520,    2521,    2572,    2571
    2472,    2521,    2522,    2573,    2572
    2473,    2522,    2523,    2574,    2573
    2474,    2523,    2524,    2575,    2574
    2475,    2524,    2525,    2576,    2575
    2476,    2525,    2526,    2577,    2576
    2477,    2526,    2527,    2578,    2577
    2478,    2527,    2528,    2579,    2578
    2479,    2528,    2529,    2580,    2579
    2480,    2529,    2530,    2581,    2580
    2481,    2530,    2531,    2582,    2581
    2482,    2531,    2532,    2583,    2582
    2483,    2532,    2533,    2584,    2583
    2484,    2533,    2534,    2585,    2584
    2485,    2534,    2535,    2586,    2585
    2486,    2535,    2536,    2587,    2586
    2487,    2536,    2537,    2588,    2587
    2488,    2537,    2538,    2589,    2588
    2489,    2538,    2539,    2590,    2589
    2490,    2539,    2540,    2591,    2590
    2491,    2540,    2541,    2592,    2591
    2492,    2541,    2542,    2593,    2592
    2493,    2542,    2543,    2594,    2593
    2494,    2543,    2544,    2595,    2594
    2495,    2544,    2545,    2596,    2595
    2496,    2545,    2546,    2597,    2596
    2497,    2546,    2547,    2598,    2597
    2498,    2547,    2548,    2599,    2598
    2499,    2548,    2549,    2600,    2599
    2500,    2549,    2550,    2601,    2600
*Element, type=U2, elset=DISP_QUAD
    2602,       1,       2,      53,      52
    2603,       2,       3,      54,      53
    2604,       3,       4,      55,      54
    2605,       4,       5,      56,      55
    2606,       5,       6,      57,      56
    2607,       6,       7,      58,      57
    2608,       7,       8,      59,      58
    2609,       8,       9,      60,      59
    2610,       9,      10,      61,      60
    2611,      10,      11,      62,      61
    2612,      11,      12,      63,      62
    2613,      12,      13,      64,      63
    2614,      13,      14,      65,      64
    2615,      14,      15,      66,      65
    2616,      15,      16,      67,      66
    2617,      16,      17,      68,      67
    2618,      17,      18,      69,      68
    2619,      18,      19,      70,      69
    2620,      19,      20,      71,      70
    2621,      20,      21,      72,      71
    2622,      21,      22,      73,      72
    2623,      22,      23,      74,      73
    2624,      23,      24,      75,      74
    2625,      24,      25,      76,      75
    2626,      25,      26,      77,      76
    2627,      26,      27,      78,      77
    2628,      27,      28,      79,      78
    2629,      28,      29,      80,      79
    2630,      29,      30,      81,      80
    2631,      30,      31,      82,      81
    2632,      31,      32,      83,      82
    2633,      32,      33,      84,      83
    2634,      33,      34,      85,      84
    2635,      34,      35,      86,      85
    2636,      35,      36,      87,      86
    2637,      36,      37,      88,      87
    2638,      37,      38,      89,      88
    2639,      38,      39,      90,      89
    2640,      39,      40,      91,      90
    2641,      40,      41,      92,      91
    2642,      41,      42,      93,      92
    2643,      42,      43,      94,      93
    2644,      43,      44,      95,      94
    2645,      44,      45,      96,      95
    2646,      45,      46,      97,      96
    2647,      46,      47,      98,      97
    2648,      47,      48,      99,      98
    2649,      48,      49,     100,      99
    2650,      49,      50,     101,     100
    2651,      50,      51,     102,     101
    2652,      52,      53,     104,     103
    2653,      53,      54,     105,     104
    2654,      54,      55,     106,     105
    2655,      55,      56,     107,     106
    2656,      56,      57,     108,     107
    2657,      57,      58,     109,     108
    2658,      58,      59,     110,     109
    2659,      59,      60,     111,     110
    2660,      60,      61,     112,     111
    2661,      61,      62,     113,     112
    2662,      62,      63,     114,     113
    2663,      63,      64,     115,     114
    2664,      64,      65,     116,     115
    2665,      65,      66,     117,     116
    2666,      66,      67,     118,     117
    2667,      67,      68,     119,     118
    2668,      68,      69,     120,     119
    2669,      69,      70,     121,     120
    2670,      70,      71,     122,     121
    2671,      71,      72,     123,     122
    2672,      72,      73,     124,     123
    2673,      73,      74,     125,     124
    2674,      74,      75,     126,     125
    2675,      75,      76,     127,     126
    2676,      76,      77,     128,     127
    2677,      77,      78,     129,     128
    2678,      78,      79,     130,     129
    2679,      79,      80,     131,     130
    2680,      80,      81,     132,     131
    2681,      81,      82,     133,     132
    2682,      82,      83,     134,     133
    2683,      83,      84,     135,     134
    2684,      84,      85,     136,     135
    2685,      85,      86,     137,     136
    2686,      86,      87,     138,     137
    2687,      87,      88,     139,     138
    2688,      88,      89,     140,     139
    2689,      89,      90,     141,     140
    2690,      90,      91,     142,     141
    2691,      91,      92,     143,     142
    2692,      92,      93,     144,     143
    2693,      93,      94,     145,     144
    2694,      94,      95,     146,     145
    2695,      95,      96,     147,     146
    2696,      96,      97,     148,     147
    2697,      97,      98,     149,     148
    2698,      98,      99,     150,     149
    2699,      99,     100,     151,     150
    2700,     100,     101,     152,     151
    2701,     101,     102,     153,     152
    2702,     103,     104,     155,     154
    2703,     104,     105,     156,     155
    2704,     105,     106,     157,     156
    2705,     106,     107,     158,     157
    2706,     107,     108,     159,     158
    2707,     108,     109,     160,     159
    2708,     109,     110,     161,     160
    2709,     110,     111,     162,     161
    2710,     111,     112,     163,     162
    2711,     112,     113,     164,     163
    2712,     113,     114,     165,     164
    2713,     114,     115,     166,     165
    2714,     115,     116,     167,     166
    2715,     116,     117,     168,     167
    2716,     117,     118,     169,     168
    2717,     118,     119,     170,     169
    2718,     119,     120,     171,     170
    2719,     120,     121,     172,     171
    2720,     121,     122,     173,     172
    2721,     122,     123,     174,     173
    2722,     123,     124,     175,     174
    2723,     124,     125,     176,     175
    2724,     125,     126,     177,     176
    2725,     126,     127,     178,     177
    2726,     127,     128,     179,     178
    2727,     128,     129,     180,     179
    2728,     129,     130,     181,     180
    2729,     130,     131,     182,     181
    2730,     131,     132,     183,     182
    2731,     132,     133,     184,     183
    2732,     133,     134,     185,     184
    2733,     134,     135,     186,     185
    2734,     135,     136,     187,     186
    2735,     136,     137,     188,     187
    2736,     137,     138,     189,     188
    2737,     138,     139,     190,     189
    2738,     139,     140,     191,     190
    2739,     140,     141,     192,     191
    2740,     141,     142,     193,     192
    2741,     142,     143,     194,     193
    2742,     143,     144,     195,     194
    2743,     144,     145,     196,     195
    2744,     145,     146,     197,     196
    2745,     146,     147,     198,     197
    2746,     147,     148,     199,     198
    2747,     148,     149,     200,     199
    2748,     149,     150,     201,     200
    2749,     150,     151,     202,     201
    2750,     151,     152,     203,     202
    2751,     152,     153,     204,     203
    2752,     154,     155,     206,     205
    2753,     155,     156,     207,     206
    2754,     156,     157,     208,     207
    2755,     157,     158,     209,     208
    2756,     158,     159,     210,     209
    2757,     159,     160,     211,     210
    2758,     160,     161,     212,     211
    2759,     161,     162,     213,     212
    2760,     162,     163,     214,     213
    2761,     163,     164,     215,     214
    2762,     164,     165,     216,     215
    2763,     165,     166,     217,     216
    2764,     166,     167,     218,     217
    2765,     167,     168,     219,     218
    2766,     168,     169,     220,     219
    2767,     169,     170,     221,     220
    2768,     170,     171,     222,     221
    2769,     171,     172,     223,     222
    2770,     172,     173,     224,     223
    2771,     173,     174,     225,     224
    2772,     174,     175,     226,     225
    2773,     175,     176,     227,     226
    2774,     176,     177,     228,     227
    2775,     177,     178,     229,     228
    2776,     178,     179,     230,     229
    2777,     179,     180,     231,     230
    2778,     180,     181,     232,     231
    2779,     181,     182,     233,     232
    2780,     182,     183,     234,     233
    2781,     183,     184,     235,     234
    2782,     184,     185,     236,     235
    2783,     185,     186,     237,     236
    2784,     186,     187,     238,     237
    2785,     187,     188,     239,     238
    2786,     188,     189,     240,     239
    2787,     189,     190,     241,     240
    2788,     190,     191,     242,     241
    2789,     191,     192,     243,     242
    2790,     192,     193,     244,     243
    2791,     193,     194,     245,     244
    2792,     194,     195,     246,     245
    2793,     195,     196,     247,     246
    2794,     196,     197,     248,     247
    2795,     197,     198,     249,     248
    2796,     198,     199,     250,     249
    2797,     199,     200,     251,     250
    2798,     200,     201,     252,     251
    2799,     201,     202,     253,     252
    2800,     202,     203,     254,     253
    2801,     203,     204,     255,     254
    2802,     205,     206,     257,     256
    2803,     206,     207,     258,     257
    2804,     207,     208,     259,     258
    2805,     208,     209,     260,     259
    2806,     209,     210,     261,     260
    2807,     210,     211,     262,     261
    2808,     211,     212,     263,     262
    2809,     212,     213,     264,     263
    2810,     213,     214,     265,     264
    2811,     214,     215,     266,     265
    2812,     215,     216,     267,     266
    2813,     216,     217,     268,     267
    2814,     217,     218,     269,     268
    2815,     218,     219,     270,     269
    2816,     219,     220,     271,     270
    2817,     220,     221,     272,     271
    2818,     221,     222,     273,     272
    2819,     222,     223,     274,     273
    2820,     223,     224,     275,     274
    2821,     224,     225,     276,     275
    2822,     225,     226,     277,     276
    2823,     226,     227,     278,     277
    2824,     227,     228,     279,     278
    2825,     228,     229,     280,     279
    2826,     229,     230,     281,     280
    2827,     230,     231,     282,     281
    2828,     231,     232,     283,     282
    2829,     232,     233,     284,     283
    2830,     233,     234,     285,     284
    2831,     234,     235,     286,     285
    2832,     235,     236,     287,     286
    2833,     236,     237,     288,     287
    2834,     237,     238,     289,     288
    2835,     238,     239,     290,     289
    2836,     239,     240,     291,     290
    2837,     240,     241,     292,     291
    2838,     241,     242,     293,     292
    2839,     242,     243,     294,     293
    2840,     243,     244,     295,     294
    2841,     244,     245,     296,     295
    2842,     245,     246,     297,     296
    2843,     246,     247,     298,     297
    2844,     247,     248,     299,     298
    2845,     248,     249,     300,     299
    2846,     249,     250,     301,     300
    2847,     250,     251,     302,     301
    2848,     251,     252,     303,     302
    2849,     252,     253,     304,     303
    2850,     253,     254,     305,     304
    2851,     254,     255,     306,     305
    2852,     256,     257,     308,     307
    2853,     257,     258,     309,     308
    2854,     258,     259,     310,     309
    2855,     259,     260,     311,     310
    2856,     260,     261,     312,     311
    2857,     261,     262,     313,     312
    2858,     262,     263,     314,     313
    2859,     263,     264,     315,     314
    2860,     264,     265,     316,     315
    2861,     265,     266,     317,     316
    2862,     266,     267,     318,     317
    2863,     267,     268,     319,     318
    2864,     268,     269,     320,     319
    2865,     269,     270,     321,     320
    2866,     270,     271,     322,     321
    2867,     271,     272,     323,     322
    2868,     272,     273,     324,     323
    2869,     273,     274,     325,     324
    2870,     274,     275,     326,     325
    2871,     275,     276,     327,     326
    2872,     276,     277,     328,     327
    2873,     277,     278,     329,     328
    2874,     278,     279,     330,     329
    2875,     279,     280,     331,     330
    2876,     280,     281,     332,     331
    2877,     281,     282,     333,     332
    2878,     282,     283,     334,     333
    2879,     283,     284,     335,     334
    2880,     284,     285,     336,     335
    2881,     285,     286,     337,     336
    2882,     286,     287,     338,     337
    2883,     287,     288,     339,     338
    2884,     288,     289,     340,     339
    2885,     289,     290,     341,     340
    2886,     290,     291,     342,     341
    2887,     291,     292,     343,     342
    2888,     292,     293,     344,     343
    2889,     293,     294,     345,     344
    2890,     294,     295,     346,     345
    2891,     295,     296,     347,     346
    2892,     296,     297,     348,     347
    2893,     297,     298,     349,     348
    2894,     298,     299,     350,     349
    2895,     299,     300,     351,     350
    2896,     300,     301,     352,     351
    2897,     301,     302,     353,     352
    2898,     302,     303,     354,     353
    2899,     303,     304,     355,     354
    2900,     304,     305,     356,     355
    2901,     305,     306,     357,     356
    2902,     307,     308,     359,     358
    2903,     308,     309,     360,     359
    2904,     309,     310,     361,     360
    2905,     310,     311,     362,     361
    2906,     311,     312,     363,     362
    2907,     312,     313,     364,     363
    2908,     313,     314,     365,     364
    2909,     314,     315,     366,     365
    2910,     315,     316,     367,     366
    2911,     316,     317,     368,     367
    2912,     317,     318,     369,     368
    2913,     318,     319,     370,     369
    2914,     319,     320,     371,     370
    2915,     320,     321,     372,     371
    2916,     321,     322,     373,     372
    2917,     322,     323,     374,     373
    2918,     323,     324,     375,     374
    2919,     324,     325,     376,     375
    2920,     325,     326,     377,     376
    2921,     326,     327,     378,     377
    2922,     327,     328,     379,     378
    2923,     328,     329,     380,     379
    2924,     329,     330,     381,     380
    2925,     330,     331,     382,     381
    2926,     331,     332,     383,     382
    2927,     332,     333,     384,     383
    2928,     333,     334,     385,     384
    2929,     334,     335,     386,     385
    2930,     335,     336,     387,     386
    2931,     336,     337,     388,     387
    2932,     337,     338,     389,     388
    2933,     338,     339,     390,     389
    2934,     339,     340,     391,     390
    2935,     340,     341,     392,     391
    2936,     341,     342,     393,     392
    2937,     342,     343,     394,     393
    2938,     343,     344,     395,     394
    2939,     344,     345,     396,     395
    2940,     345,     346,     397,     396
    2941,     346,     347,     398,     397
    2942,     347,     348,     399,     398
    2943,     348,     349,     400,     399
    2944,     349,     350,     401,     400
    2945,     350,     351,     402,     401
    2946,     351,     352,     403,     402
    2947,     352,     353,     404,     403
    2948,     353,     354,     405,     404
    2949,     354,     355,     406,     405
    2950,     355,     356,     407,     406
    2951,     356,     357,     408,     407
    2952,     358,     359,     410,     409
    2953,     359,     360,     411,     410
    2954,     360,     361,     412,     411
    2955,     361,     362,     413,     412
    2956,     362,     363,     414,     413
    2957,     363,     364,     415,     414
    2958,     364,     365,     416,     415
    2959,     365,     366,     417,     416
    2960,     366,     367,     418,     417
    2961,     367,     368,     419,     418
    2962,     368,     369,     420,     419
    2963,     369,     370,     421,     420
    2964,     370,     371,     422,     421
    2965,     371,     372,     423,     422
    2966,     372,     373,     424,     423
    2967,     373,     374,     425,     424
    2968,     374,     375,     426,     425
    2969,     375,     376,     427,     426
    2970,     376,     377,     428,     427
    2971,     377,     378,     429,     428
    2972,     378,     379,     430,     429
    2973,     379,     380,     431,     430
    2974,     380,     381,     432,     431
    2975,     381,     382,     433,     432
    2976,     382,     383,     434,     433
    2977,     383,     384,     435,     434
    2978,     384,     385,     436,     435
    2979,     385,     386,     437,     436
    2980,     386,     387,     438,     437
    2981,     387,     388,     439,     438
    2982,     388,     389,     440,     439
    2983,     389,     390,     441,     440
    2984,     390,     391,     442,     441
    2985,     391,     392,     443,     442
    2986,     392,     393,     444,     443
    2987,     393,     394,     445,     444
    2988,     394,     395,     446,     445
    2989,     395,     396,     447,     446
    2990,     396,     397,     448,     447
    2991,     397,     398,     449,     448
    2992,     398,     399,     450,     449
    2993,     399,     400,     451,     450
    2994,     400,     401,     452,     451
    2995,     401,     402,     453,     452
    2996,     402,     403,     454,     453
    2997,     403,     404,     455,     454
    2998,     404,     405,     456,     455
    2999,     405,     406,     457,     456
    3000,     406,     407,     458,     457
    3001,     407,     408,     459,     458
    3002,     409,     410,     461,     460
    3003,     410,     411,     462,     461
    3004,     411,     412,     463,     462
    3005,     412,     413,     464,     463
    3006,     413,     414,     465,     464
    3007,     414,     415,     466,     465
    3008,     415,     416,     467,     466
    3009,     416,     417,     468,     467
    3010,     417,     418,     469,     468
    3011,     418,     419,     470,     469
    3012,     419,     420,     471,     470
    3013,     420,     421,     472,     471
    3014,     421,     422,     473,     472
    3015,     422,     423,     474,     473
    3016,     423,     424,     475,     474
    3017,     424,     425,     476,     475
    3018,     425,     426,     477,     476
    3019,     426,     427,     478,     477
    3020,     427,     428,     479,     478
    3021,     428,     429,     480,     479
    3022,     429,     430,     481,     480
    3023,     430,     431,     482,     481
    3024,     431,     432,     483,     482
    3025,     432,     433,     484,     483
    3026,     433,     434,     485,     484
    3027,     434,     435,     486,     485
    3028,     435,     436,     487,     486
    3029,     436,     437,     488,     487
    3030,     437,     438,     489,     488
    3031,     438,     439,     490,     489
    3032,     439,     440,     491,     490
    3033,     440,     441,     492,     491
    3034,     441,     442,     493,     492
    3035,     442,     443,     494,     493
    3036,     443,     444,     495,     494
    3037,     444,     445,     496,     495
    3038,     445,     446,     497,     496
    3039,     446,     447,     498,     497
    3040,     447,     448,     499,     498
    3041,     448,     449,     500,     499
    3042,     449,     450,     501,     500
    3043,     450,     451,     502,     501
    3044,     451,     452,     503,     502
    3045,     452,     453,     504,     503
    3046,     453,     454,     505,     504
    3047,     454,     455,     506,     505
    3048,     455,     456,     507,     506
    3049,     456,     457,     508,     507
    3050,     457,     458,     509,     508
    3051,     458,     459,     510,     509
    3052,     460,     461,     512,     511
    3053,     461,     462,     513,     512
    3054,     462,     463,     514,     513
    3055,     463,     464,     515,     514
    3056,     464,     465,     516,     515
    3057,     465,     466,     517,     516
    3058,     466,     467,     518,     517
    3059,     467,     468,     519,     518
    3060,     468,     469,     520,     519
    3061,     469,     470,     521,     520
    3062,     470,     471,     522,     521
    3063,     471,     472,     523,     522
    3064,     472,     473,     524,     523
    3065,     473,     474,     525,     524
    3066,     474,     475,     526,     525
    3067,     475,     476,     527,     526
    3068,     476,     477,     528,     527
    3069,     477,     478,     529,     528
    3070,     478,     479,     530,     529
    3071,     479,     480,     531,     530
    3072,     480,     481,     532,     531
    3073,     481,     482,     533,     532
    3074,     482,     483,     534,     533
    3075,     483,     484,     535,     534
    3076,     484,     485,     536,     535
    3077,     485,     486,     537,     536
    3078,     486,     487,     538,     537
    3079,     487,     488,     539,     538
    3080,     488,     489,     540,     539
    3081,     489,     490,     541,     540
    3082,     490,     491,     542,     541
    3083,     491,     492,     543,     542
    3084,     492,     493,     544,     543
    3085,     493,     494,     545,     544
    3086,     494,     495,     546,     545
    3087,     495,     496,     547,     546
    3088,     496,     497,     548,     547
    3089,     497,     498,     549,     548
    3090,     498,     499,     550,     549
    3091,     499,     500,     551,     550
    3092,     500,     501,     552,     551
    3093,     501,     502,     553,     552
    3094,     502,     503,     554,     553
    3095,     503,     504,     555,     554
    3096,     504,     505,     556,     555
    3097,     505,     506,     557,     556
    3098,     506,     507,     558,     557
    3099,     507,     508,     559,     558
    3100,     508,     509,     560,     559
    3101,     509,     510,     561,     560
    3102,     511,     512,     563,     562
    3103,     512,     513,     564,     563
    3104,     513,     514,     565,     564
    3105,     514,     515,     566,     565
    3106,     515,     516,     567,     566
    3107,     516,     517,     568,     567
    3108,     517,     518,     569,     568
    3109,     518,     519,     570,     569
    3110,     519,     520,     571,     570
    3111,     520,     521,     572,     571
    3112,     521,     522,     573,     572
    3113,     522,     523,     574,     573
    3114,     523,     524,     575,     574
    3115,     524,     525,     576,     575
    3116,     525,     526,     577,     576
    3117,     526,     527,     578,     577
    3118,     527,     528,     579,     578
    3119,     528,     529,     580,     579
    3120,     529,     530,     581,     580
    3121,     530,     531,     582,     581
    3122,     531,     532,     583,     582
    3123,     532,     533,     584,     583
    3124,     533,     534,     585,     584
    3125,     534,     535,     586,     585
    3126,     535,     536,     587,     586
    3127,     536,     537,     588,     587
    3128,     537,     538,     589,     588
    3129,     538,     539,     590,     589
    3130,     539,     540,     591,     590
    3131,     540,     541,     592,     591
    3132,     541,     542,     593,     592
    3133,     542,     543,     594,     593
    3134,     543,     544,     595,     594
    3135,     544,     545,     596,     595
    3136,     545,     546,     597,     596
    3137,     546,     547,     598,     597
    3138,     547,     548,     599,     598
    3139,     548,     549,     600,     599
    3140,     549,     550,     601,     600
    3141,     550,     551,     602,     601
    3142,     551,     552,     603,     602
    3143,     552,     553,     604,     603
    3144,     553,     554,     605,     604
    3145,     554,     555,     606,     605
    3146,     555,     556,     607,     606
    3147,     556,     557,     608,     607
    3148,     557,     558,     609,     608
    3149,     558,     559,     610,     609
    3150,     559,     560,     611,     610
    3151,     560,     561,     612,     611
    3152,     562,     563,     614,     613
    3153,     563,     564,     615,     614
    3154,     564,     565,     616,     615
    3155,     565,     566,     617,     616
    3156,     566,     567,     618,     617
    3157,     567,     568,     619,     618
    3158,     568,     569,     620,     619
    3159,     569,     570,     621,     620
    3160,     570,     571,     622,     621
    3161,     571,     572,     623,     622
    3162,     572,     573,     624,     623
    3163,     573,     574,     625,     624
    3164,     574,     575,     626,     625
    3165,     575,     576,     627,     626
    3166,     576,     577,     628,     627
    3167,     577,     578,     629,     628
    3168,     578,     579,     630,     629
    3169,     579,     580,     631,     630
    3170,     580,     581,     632,     631
    3171,     581,     582,     633,     632
    3172,     582,     583,     634,     633
    3173,     583,     584,     635,     634
    3174,     584,     585,     636,     635
    3175,     585,     586,     637,     636
    3176,     586,     587,     638,     637
    3177,     587,     588,     639,     638
    3178,     588,     589,     640,     639
    3179,     589,     590,     641,     640
    3180,     590,     591,     642,     641
    3181,     591,     592,     643,     642
    3182,     592,     593,     644,     643
    3183,     593,     594,     645,     644
    3184,     594,     595,     646,     645
    3185,     595,     596,     647,     646
    3186,     596,     597,     648,     647
    3187,     597,     598,     649,     648
    3188,     598,     599,     650,     649
    3189,     599,     600,     651,     650
    3190,     600,     601,     652,     651
    3191,     601,     602,     653,     652
    3192,     602,     603,     654,     653
    3193,     603,     604,     655,     654
    3194,     604,     605,     656,     655
    3195,     605,     606,     657,     656
    3196,     606,     607,     658,     657
    3197,     607,     608,     659,     658
    3198,     608,     609,     660,     659
    3199,     609,     610,     661,     660
    3200,     610,     611,     662,     661
    3201,     611,     612,     663,     662
    3202,     613,     614,     665,     664
    3203,     614,     615,     666,     665
    3204,     615,     616,     667,     666
    3205,     616,     617,     668,     667
    3206,     617,     618,     669,     668
    3207,     618,     619,     670,     669
    3208,     619,     620,     671,     670
    3209,     620,     621,     672,     671
    3210,     621,     622,     673,     672
    3211,     622,     623,     674,     673
    3212,     623,     624,     675,     674
    3213,     624,     625,     676,     675
    3214,     625,     626,     677,     676
    3215,     626,     627,     678,     677
    3216,     627,     628,     679,     678
    3217,     628,     629,     680,     679
    3218,     629,     630,     681,     680
    3219,     630,     631,     682,     681
    3220,     631,     632,     683,     682
    3221,     632,     633,     684,     683
    3222,     633,     634,     685,     684
    3223,     634,     635,     686,     685
    3224,     635,     636,     687,     686
    3225,     636,     637,     688,     687
    3226,     637,     638,     689,     688
    3227,     638,     639,     690,     689
    3228,     639,     640,     691,     690
    3229,     640,     641,     692,     691
    3230,     641,     642,     693,     692
    3231,     642,     643,     694,     693
    3232,     643,     644,     695,     694
    3233,     644,     645,     696,     695
    3234,     645,     646,     697,     696
    3235,     646,     647,     698,     697
    3236,     647,     648,     699,     698
    3237,     648,     649,     700,     699
    3238,     649,     650,     701,     700
    3239,     650,     651,     702,     701
    3240,     651,     652,     703,     702
    3241,     652,     653,     704,     703
    3242,     653,     654,     705,     704
    3243,     654,     655,     706,     705
    3244,     655,     656,     707,     706
    3245,     656,     657,     708,     707
    3246,     657,     658,     709,     708
    3247,     658,     659,     710,     709
    3248,     659,     660,     711,     710
    3249,     660,     661,     712,     711
    3250,     661,     662,     713,     712
    3251,     662,     663,     714,     713
    3252,     664,     665,     716,     715
    3253,     665,     666,     717,     716
    3254,     666,     667,     718,     717
    3255,     667,     668,     719,     718
    3256,     668,     669,     720,     719
    3257,     669,     670,     721,     720
    3258,     670,     671,     722,     721
    3259,     671,     672,     723,     722
    3260,     672,     673,     724,     723
    3261,     673,     674,     725,     724
    3262,     674,     675,     726,     725
    3263,     675,     676,     727,     726
    3264,     676,     677,     728,     727
    3265,     677,     678,     729,     728
    3266,     678,     679,     730,     729
    3267,     679,     680,     731,     730
    3268,     680,     681,     732,     731
    3269,     681,     682,     733,     732
    3270,     682,     683,     734,     733
    3271,     683,     684,     735,     734
    3272,     684,     685,     736,     735
    3273,     685,     686,     737,     736
    3274,     686,     687,     738,     737
    3275,     687,     688,     739,     738
    3276,     688,     689,     740,     739
    3277,     689,     690,     741,     740
    3278,     690,     691,     742,     741
    3279,     691,     692,     743,     742
    3280,     692,     693,     744,     743
    3281,     693,     694,     745,     744
    3282,     694,     695,     746,     745
    3283,     695,     696,     747,     746
    3284,     696,     697,     748,     747
    3285,     697,     698,     749,     748
    3286,     698,     699,     750,     749
    3287,     699,     700,     751,     750
    3288,     700,     701,     752,     751
    3289,     701,     702,     753,     752
    3290,     702,     703,     754,     753
    3291,     703,     704,     755,     754
    3292,     704,     705,     756,     755
    3293,     705,     706,     757,     756
    3294,     706,     707,     758,     757
    3295,     707,     708,     759,     758
    3296,     708,     709,     760,     759
    3297,     709,     710,     761,     760
    3298,     710,     711,     762,     761
    3299,     711,     712,     763,     762
    3300,     712,     713,     764,     763
    3301,     713,     714,     765,     764
    3302,     715,     716,     767,     766
    3303,     716,     717,     768,     767
    3304,     717,     718,     769,     768
    3305,     718,     719,     770,     769
    3306,     719,     720,     771,     770
    3307,     720,     721,     772,     771
    3308,     721,     722,     773,     772
    3309,     722,     723,     774,     773
    3310,     723,     724,     775,     774
    3311,     724,     725,     776,     775
    3312,     725,     726,     777,     776
    3313,     726,     727,     778,     777
    3314,     727,     728,     779,     778
    3315,     728,     729,     780,     779
    3316,     729,     730,     781,     780
    3317,     730,     731,     782,     781
    3318,     731,     732,     783,     782
    3319,     732,     733,     784,     783
    3320,     733,     734,     785,     784
    3321,     734,     735,     786,     785
    3322,     735,     736,     787,     786
    3323,     736,     737,     788,     787
    3324,     737,     738,     789,     788
    3325,     738,     739,     790,     789
    3326,     739,     740,     791,     790
    3327,     740,     741,     792,     791
    3328,     741,     742,     793,     792
    3329,     742,     743,     794,     793
    3330,     743,     744,     795,     794
    3331,     744,     745,     796,     795
    3332,     745,     746,     797,     796
    3333,     746,     747,     798,     797
    3334,     747,     748,     799,     798
    3335,     748,     749,     800,     799
    3336,     749,     750,     801,     800
    3337,     750,     751,     802,     801
    3338,     751,     752,     803,     802
    3339,     752,     753,     804,     803
    3340,     753,     754,     805,     804
    3341,     754,     755,     806,     805
    3342,     755,     756,     807,     806
    3343,     756,     757,     808,     807
    3344,     757,     758,     809,     808
    3345,     758,     759,     810,     809
    3346,     759,     760,     811,     810
    3347,     760,     761,     812,     811
    3348,     761,     762,     813,     812
    3349,     762,     763,     814,     813
    3350,     763,     764,     815,     814
    3351,     764,     765,     816,     815
    3352,     766,     767,     818,     817
    3353,     767,     768,     819,     818
    3354,     768,     769,     820,     819
    3355,     769,     770,     821,     820
    3356,     770,     771,     822,     821
    3357,     771,     772,     823,     822
    3358,     772,     773,     824,     823
    3359,     773,     774,     825,     824
    3360,     774,     775,     826,     825
    3361,     775,     776,     827,     826
    3362,     776,     777,     828,     827
    3363,     777,     778,     829,     828
    3364,     778,     779,     830,     829
    3365,     779,     780,     831,     830
    3366,     780,     781,     832,     831
    3367,     781,     782,     833,     832
    3368,     782,     783,     834,     833
    3369,     783,     784,     835,     834
    3370,     784,     785,     836,     835
    3371,     785,     786,     837,     836
    3372,     786,     787,     838,     837
    3373,     787,     788,     839,     838
    3374,     788,     789,     840,     839
    3375,     789,     790,     841,     840
    3376,     790,     791,     842,     841
    3377,     791,     792,     843,     842
    3378,     792,     793,     844,     843
    3379,     793,     794,     845,     844
    3380,     794,     795,     846,     845
    3381,     795,     796,     847,     846
    3382,     796,     797,     848,     847
    3383,     797,     798,     849,     848
    3384,     798,     799,     850,     849
    3385,     799,     800,     851,     850
    3386,     800,     801,     852,     851
    3387,     801,     802,     853,     852
    3388,     802,     803,     854,     853
    3389,     803,     804,     855,     854
    3390,     804,     805,     856,     855
    3391,     805,     806,     857,     856
    3392,     806,     807,     858,     857
    3393,     807,     808,     859,     858
    3394,     808,     809,     860,     859
    3395,     809,     810,     861,     860
    3396,     810,     811,     862,     861
    3397,     811,     812,     863,     862
    3398,     812,     813,     864,     863
    3399,     813,     814,     865,     864
    3400,     814,     815,     866,     865
    3401,     815,     816,     867,     866
    3402,     817,     818,     869,     868
    3403,     818,     819,     870,     869
    3404,     819,     820,     871,     870
    3405,     820,     821,     872,     871
    3406,     821,     822,     873,     872
    3407,     822,     823,     874,     873
    3408,     823,     824,     875,     874
    3409,     824,     825,     876,     875
    3410,     825,     826,     877,     876
    3411,     826,     827,     878,     877
    3412,     827,     828,     879,     878
    3413,     828,     829,     880,     879
    3414,     829,     830,     881,     880
    3415,     830,     831,     882,     881
    3416,     831,     832,     883,     882
    3417,     832,     833,     884,     883
    3418,     833,     834,     885,     884
    3419,     834,     835,     886,     885
    3420,     835,     836,     887,     886
    3421,     836,     837,     888,     887
    3422,     837,     838,     889,     888
    3423,     838,     839,     890,     889
    3424,     839,     840,     891,     890
    3425,     840,     841,     892,     891
    3426,     841,     842,     893,     892
    3427,     842,     843,     894,     893
    3428,     843,     844,     895,     894
    3429,     844,     845,     896,     895
    3430,     845,     846,     897,     896
    3431,     846,     847,     898,     897
    3432,     847,     848,     899,     898
    3433,     848,     849,     900,     899
    3434,     849,     850,     901,     900
    3435,     850,     851,     902,     901
    3436,     851,     852,     903,     902
    3437,     852,     853,     904,     903
    3438,     853,     854,     905,     904
    3439,     854,     855,     906,     905
    3440,     855,     856,     907,     906
    3441,     856,     857,     908,     907
    3442,     857,     858,     909,     908
    3443,     858,     859,     910,     909
    3444,     859,     860,     911,     910
    3445,     860,     861,     912,     911
    3446,     861,     862,     913,     912
    3447,     862,     863,     914,     913
    3448,     863,     864,     915,     914
    3449,     864,     865,     916,     915
    3450,     865,     866,     917,     916
    3451,     866,     867,     918,     917
    3452,     868,     869,     920,     919
    3453,     869,     870,     921,     920
    3454,     870,     871,     922,     921
    3455,     871,     872,     923,     922
    3456,     872,     873,     924,     923
    3457,     873,     874,     925,     924
    3458,     874,     875,     926,     925
    3459,     875,     876,     927,     926
    3460,     876,     877,     928,     927
    3461,     877,     878,     929,     928
    3462,     878,     879,     930,     929
    3463,     879,     880,     931,     930
    3464,     880,     881,     932,     931
    3465,     881,     882,     933,     932
    3466,     882,     883,     934,     933
    3467,     883,     884,     935,     934
    3468,     884,     885,     936,     935
    3469,     885,     886,     937,     936
    3470,     886,     887,     938,     937
    3471,     887,     888,     939,     938
    3472,     888,     889,     940,     939
    3473,     889,     890,     941,     940
    3474,     890,     891,     942,     941
    3475,     891,     892,     943,     942
    3476,     892,     893,     944,     943
    3477,     893,     894,     945,     944
    3478,     894,     895,     946,     945
    3479,     895,     896,     947,     946
    3480,     896,     897,     948,     947
    3481,     897,     898,     949,     948
    3482,     898,     899,     950,     949
    3483,     899,     900,     951,     950
    3484,     900,     901,     952,     951
    3485,     901,     902,     953,     952
    3486,     902,     903,     954,     953
    3487,     903,     904,     955,     954
    3488,     904,     905,     956,     955
    3489,     905,     906,     957,     956
    3490,     906,     907,     958,     957
    3491,     907,     908,     959,     958
    3492,     908,     909,     960,     959
    3493,     909,     910,     961,     960
    3494,     910,     911,     962,     961
    3495,     911,     912,     963,     962
    3496,     912,     913,     964,     963
    3497,     913,     914,     965,     964
    3498,     914,     915,     966,     965
    3499,     915,     916,     967,     966
    3500,     916,     917,     968,     967
    3501,     917,     918,     969,     968
    3502,     919,     920,     971,     970
    3503,     920,     921,     972,     971
    3504,     921,     922,     973,     972
    3505,     922,     923,     974,     973
    3506,     923,     924,     975,     974
    3507,     924,     925,     976,     975
    3508,     925,     926,     977,     976
    3509,     926,     927,     978,     977
    3510,     927,     928,     979,     978
    3511,     928,     929,     980,     979
    3512,     929,     930,     981,     980
    3513,     930,     931,     982,     981
    3514,     931,     932,     983,     982
    3515,     932,     933,     984,     983
    3516,     933,     934,     985,     984
    3517,     934,     935,     986,     985
    3518,     935,     936,     987,     986
    3519,     936,     937,     988,     987
    3520,     937,     938,     989,     988
    3521,     938,     939,     990,     989
    3522,     939,     940,     991,     990
    3523,     940,     941,     992,     991
    3524,     941,     942,     993,     992
    3525,     942,     943,     994,     993
    3526,     943,     944,     995,     994
    3527,     944,     945,     996,     995
    3528,     945,     946,     997,     996
    3529,     946,     947,     998,     997
    3530,     947,     948,     999,     998
    3531,     948,     949,    1000,     999
    3532,     949,     950,    1001,    1000
    3533,     950,     951,    1002,    1001
    3534,     951,     952,    1003,    1002
    3535,     952,     953,    1004,    1003
    3536,     953,     954,    1005,    1004
    3537,     954,     955,    1006,    1005
    3538,     955,     956,    1007,    1006
    3539,     956,     957,    1008,    1007
    3540,     957,     958,    1009,    1008
    3541,     958,     959,    1010,    1009
    3542,     959,     960,    1011,    1010
    3543,     960,     961,    1012,    1011
    3544,     961,     962,    1013,    1012
    3545,     962,     963,    1014,    1013
    3546,     963,     964,    1015,    1014
    3547,     964,     965,    1016,    1015
    3548,     965,     966,    1017,    1016
    3549,     966,     967,    1018,    1017
    3550,     967,     968,    1019,    1018
    3551,     968,     969,    1020,    1019
    3552,     970,     971,    1022,    1021
    3553,     971,     972,    1023,    1022
    3554,     972,     973,    1024,    1023
    3555,     973,     974,    1025,    1024
    3556,     974,     975,    1026,    1025
    3557,     975,     976,    1027,    1026
    3558,     976,     977,    1028,    1027
    3559,     977,     978,    1029,    1028
    3560,     978,     979,    1030,    1029
    3561,     979,     980,    1031,    1030
    3562,     980,     981,    1032,    1031
    3563,     981,     982,    1033,    1032
    3564,     982,     983,    1034,    1033
    3565,     983,     984,    1035,    1034
    3566,     984,     985,    1036,    1035
    3567,     985,     986,    1037,    1036
    3568,     986,     987,    1038,    1037
    3569,     987,     988,    1039,    1038
    3570,     988,     989,    1040,    1039
    3571,     989,     990,    1041,    1040
    3572,     990,     991,    1042,    1041
    3573,     991,     992,    1043,    1042
    3574,     992,     993,    1044,    1043
    3575,     993,     994,    1045,    1044
    3576,     994,     995,    1046,    1045
    3577,     995,     996,    1047,    1046
    3578,     996,     997,    1048,    1047
    3579,     997,     998,    1049,    1048
    3580,     998,     999,    1050,    1049
    3581,     999,    1000,    1051,    1050
    3582,    1000,    1001,    1052,    1051
    3583,    1001,    1002,    1053,    1052
    3584,    1002,    1003,    1054,    1053
    3585,    1003,    1004,    1055,    1054
    3586,    1004,    1005,    1056,    1055
    3587,    1005,    1006,    1057,    1056
    3588,    1006,    1007,    1058,    1057
    3589,    1007,    1008,    1059,    1058
    3590,    1008,    1009,    1060,    1059
    3591,    1009,    1010,    1061,    1060
    3592,    1010,    1011,    1062,    1061
    3593,    1011,    1012,    1063,    1062
    3594,    1012,    1013,    1064,    1063
    3595,    1013,    1014,    1065,    1064
    3596,    1014,    1015,    1066,    1065
    3597,    1015,    1016,    1067,    1066
    3598,    1016,    1017,    1068,    1067
    3599,    1017,    1018,    1069,    1068
    3600,    1018,    1019,    1070,    1069
    3601,    1019,    1020,    1071,    1070
    3602,    1021,    1022,    1073,    1072
    3603,    1022,    1023,    1074,    1073
    3604,    1023,    1024,    1075,    1074
    3605,    1024,    1025,    1076,    1075
    3606,    1025,    1026,    1077,    1076
    3607,    1026,    1027,    1078,    1077
    3608,    1027,    1028,    1079,    1078
    3609,    1028,    1029,    1080,    1079
    3610,    1029,    1030,    1081,    1080
    3611,    1030,    1031,    1082,    1081
    3612,    1031,    1032,    1083,    1082
    3613,    1032,    1033,    1084,    1083
    3614,    1033,    1034,    1085,    1084
    3615,    1034,    1035,    1086,    1085
    3616,    1035,    1036,    1087,    1086
    3617,    1036,    1037,    1088,    1087
    3618,    1037,    1038,    1089,    1088
    3619,    1038,    1039,    1090,    1089
    3620,    1039,    1040,    1091,    1090
    3621,    1040,    1041,    1092,    1091
    3622,    1041,    1042,    1093,    1092
    3623,    1042,    1043,    1094,    1093
    3624,    1043,    1044,    1095,    1094
    3625,    1044,    1045,    1096,    1095
    3626,    1045,    1046,    1097,    1096
    3627,    1046,    1047,    1098,    1097
    3628,    1047,    1048,    1099,    1098
    3629,    1048,    1049,    1100,    1099
    3630,    1049,    1050,    1101,    1100
    3631,    1050,    1051,    1102,    1101
    3632,    1051,    1052,    1103,    1102
    3633,    1052,    1053,    1104,    1103
    3634,    1053,    1054,    1105,    1104
    3635,    1054,    1055,    1106,    1105
    3636,    1055,    1056,    1107,    1106
    3637,    1056,    1057,    1108,    1107
    3638,    1057,    1058,    1109,    1108
    3639,    1058,    1059,    1110,    1109
    3640,    1059,    1060,    1111,    1110
    3641,    1060,    1061,    1112,    1111
    3642,    1061,    1062,    1113,    1112
    3643,    1062,    1063,    1114,    1113
    3644,    1063,    1064,    1115,    1114
    3645,    1064,    1065,    1116,    1115
    3646,    1065,    1066,    1117,    1116
    3647,    1066,    1067,    1118,    1117
    3648,    1067,    1068,    1119,    1118
    3649,    1068,    1069,    1120,    1119
    3650,    1069,    1070,    1121,    1120
    3651,    1070,    1071,    1122,    1121
    3652,    1072,    1073,    1124,    1123
    3653,    1073,    1074,    1125,    1124
    3654,    1074,    1075,    1126,    1125
    3655,    1075,    1076,    1127,    1126
    3656,    1076,    1077,    1128,    1127
    3657,    1077,    1078,    1129,    1128
    3658,    1078,    1079,    1130,    1129
    3659,    1079,    1080,    1131,    1130
    3660,    1080,    1081,    1132,    1131
    3661,    1081,    1082,    1133,    1132
    3662,    1082,    1083,    1134,    1133
    3663,    1083,    1084,    1135,    1134
    3664,    1084,    1085,    1136,    1135
    3665,    1085,    1086,    1137,    1136
    3666,    1086,    1087,    1138,    1137
    3667,    1087,    1088,    1139,    1138
    3668,    1088,    1089,    1140,    1139
    3669,    1089,    1090,    1141,    1140
    3670,    1090,    1091,    1142,    1141
    3671,    1091,    1092,    1143,    1142
    3672,    1092,    1093,    1144,    1143
    3673,    1093,    1094,    1145,    1144
    3674,    1094,    1095,    1146,    1145
    3675,    1095,    1096,    1147,    1146
    3676,    1096,    1097,    1148,    1147
    3677,    1097,    1098,    1149,    1148
    3678,    1098,    1099,    1150,    1149
    3679,    1099,    1100,    1151,    1150
    3680,    1100,    1101,    1152,    1151
    3681,    1101,    1102,    1153,    1152
    3682,    1102,    1103,    1154,    1153
    3683,    1103,    1104,    1155,    1154
    3684,    1104,    1105,    1156,    1155
    3685,    1105,    1106,    1157,    1156
    3686,    1106,    1107,    1158,    1157
    3687,    1107,    1108,    1159,    1158
    3688,    1108,    1109,    1160,    1159
    3689,    1109,    1110,    1161,    1160
    3690,    1110,    1111,    1162,    1161
    3691,    1111,    1112,    1163,    1162
    3692,    1112,    1113,    1164,    1163
    3693,    1113,    1114,    1165,    1164
    3694,    1114,    1115,    1166,    1165
    3695,    1115,    1116,    1167,    1166
    3696,    1116,    1117,    1168,    1167
    3697,    1117,    1118,    1169,    1168
    3698,    1118,    1119,    1170,    1169
    3699,    1119,    1120,    1171,    1170
    3700,    1120,    1121,    1172,    1171
    3701,    1121,    1122,    1173,    1172
    3702,    1123,    1124,    1175,    1174
    3703,    1124,    1125,    1176,    1175
    3704,    1125,    1126,    1177,    1176
    3705,    1126,    1127,    1178,    1177
    3706,    1127,    1128,    1179,    1178
    3707,    1128,    1129,    1180,    1179
    3708,    1129,    1130,    1181,    1180
    3709,    1130,    1131,    1182,    1181
    3710,    1131,    1132,    1183,    1182
    3711,    1132,    1133,    1184,    1183
    3712,    1133,    1134,    1185,    1184
    3713,    1134,    1135,    1186,    1185
    3714,    1135,    1136,    1187,    1186
    3715,    1136,    1137,    1188,    1187
    3716,    1137,    1138,    1189,    1188
    3717,    1138,    1139,    1190,    1189
    3718,    1139,    1140,    1191,    1190
    3719,    1140,    1141,    1192,    1191
    3720,    1141,    1142,    1193,    1192
    3721,    1142,    1143,    1194,    1193
    3722,    1143,    1144,    1195,    1194
    3723,    1144,    1145,    1196,    1195
    3724,    1145,    1146,    1197,    1196
    3725,    1146,    1147,    1198,    1197
    3726,    1147,    1148,    1199,    1198
    3727,    1148,    1149,    1200,    1199
    3728,    1149,    1150,    1201,    1200
    3729,    1150,    1151,    1202,    1201
    3730,    1151,    1152,    1203,    1202
    3731,    1152,    1153,    1204,    1203
    3732,    1153,    1154,    1205,    1204
    3733,    1154,    1155,    1206,    1205
    3734,    1155,    1156,    1207,    1206
    3735,    1156,    1157,    1208,    1207
    3736,    1157,    1158,    1209,    1208
    3737,    1158,    1159,    1210,    1209
    3738,    1159,    1160,    1211,    1210
    3739,    1160,    1161,    1212,    1211
    3740,    1161,    1162,    1213,    1212
    3741,    1162,    1163,    1214,    1213
    3742,    1163,    1164,    1215,    1214
    3743,    1164,    1165,    1216,    1215
    3744,    1165,    1166,    1217,    1216
    3745,    1166,    1167,    1218,    1217
    3746,    1167,    1168,    1219,    1218
    3747,    1168,    1169,    1220,    1219
    3748,    1169,    1170,    1221,    1220
    3749,    1170,    1171,    1222,    1221
    3750,    1171,    1172,    1223,    1222
    3751,    1172,    1173,    1224,    1223
    3752,    1174,    1175,    1226,    1225
    3753,    1175,    1176,    1227,    1226
    3754,    1176,    1177,    1228,    1227
    3755,    1177,    1178,    1229,    1228
    3756,    1178,    1179,    1230,    1229
    3757,    1179,    1180,    1231,    1230
    3758,    1180,    1181,    1232,    1231
    3759,    1181,    1182,    1233,    1232
    3760,    1182,    1183,    1234,    1233
    3761,    1183,    1184,    1235,    1234
    3762,    1184,    1185,    1236,    1235
    3763,    1185,    1186,    1237,    1236
    3764,    1186,    1187,    1238,    1237
    3765,    1187,    1188,    1239,    1238
    3766,    1188,    1189,    1240,    1239
    3767,    1189,    1190,    1241,    1240
    3768,    1190,    1191,    1242,    1241
    3769,    1191,    1192,    1243,    1242
    3770,    1192,    1193,    1244,    1243
    3771,    1193,    1194,    1245,    1244
    3772,    1194,    1195,    1246,    1245
    3773,    1195,    1196,    1247,    1246
    3774,    1196,    1197,    1248,    1247
    3775,    1197,    1198,    1249,    1248
    3776,    1198,    1199,    1250,    1249
    3777,    1199,    1200,    1251,    1250
    3778,    1200,    1201,    1252,    1251
    3779,    1201,    1202,    1253,    1252
    3780,    1202,    1203,    1254,    1253
    3781,    1203,    1204,    1255,    1254
    3782,    1204,    1205,    1256,    1255
    3783,    1205,    1206,    1257,    1256
    3784,    1206,    1207,    1258,    1257
    3785,    1207,    1208,    1259,    1258
    3786,    1208,    1209,    1260,    1259
    3787,    1209,    1210,    1261,    1260
    3788,    1210,    1211,    1262,    1261
    3789,    1211,    1212,    1263,    1262
    3790,    1212,    1213,    1264,    1263
    3791,    1213,    1214,    1265,    1264
    3792,    1214,    1215,    1266,    1265
    3793,    1215,    1216,    1267,    1266
    3794,    1216,    1217,    1268,    1267
    3795,    1217,    1218,    1269,    1268
    3796,    1218,    1219,    1270,    1269
    3797,    1219,    1220,    1271,    1270
    3798,    1220,    1221,    1272,    1271
    3799,    1221,    1222,    1273,    1272
    3800,    1222,    1223,    1274,    1273
    3801,    1223,    1224,    1275,    1274
    3802,    1225,    1226,    1277,    1276
    3803,    1226,    1227,    1278,    1277
    3804,    1227,    1228,    1279,    1278
    3805,    1228,    1229,    1280,    1279
    3806,    1229,    1230,    1281,    1280
    3807,    1230,    1231,    1282,    1281
    3808,    1231,    1232,    1283,    1282
    3809,    1232,    1233,    1284,    1283
    3810,    1233,    1234,    1285,    1284
    3811,    1234,    1235,    1286,    1285
    3812,    1235,    1236,    1287,    1286
    3813,    1236,    1237,    1288,    1287
    3814,    1237,    1238,    1289,    1288
    3815,    1238,    1239,    1290,    1289
    3816,    1239,    1240,    1291,    1290
    3817,    1240,    1241,    1292,    1291
    3818,    1241,    1242,    1293,    1292
    3819,    1242,    1243,    1294,    1293
    3820,    1243,    1244,    1295,    1294
    3821,    1244,    1245,    1296,    1295
    3822,    1245,    1246,    1297,    1296
    3823,    1246,    1247,    1298,    1297
    3824,    1247,    1248,    1299,    1298
    3825,    1248,    1249,    1300,    1299
    3826,    1249,    1250,    1301,    1300
    3827,    1250,    1251,    1302,    1301
    3828,    1251,    1252,    1303,    1302
    3829,    1252,    1253,    1304,    1303
    3830,    1253,    1254,    1305,    1304
    3831,    1254,    1255,    1306,    1305
    3832,    1255,    1256,    1307,    1306
    3833,    1256,    1257,    1308,    1307
    3834,    1257,    1258,    1309,    1308
    3835,    1258,    1259,    1310,    1309
    3836,    1259,    1260,    1311,    1310
    3837,    1260,    1261,    1312,    1311
    3838,    1261,    1262,    1313,    1312
    3839,    1262,    1263,    1314,    1313
    3840,    1263,    1264,    1315,    1314
    3841,    1264,    1265,    1316,    1315
    3842,    1265,    1266,    1317,    1316
    3843,    1266,    1267,    1318,    1317
    3844,    1267,    1268,    1319,    1318
    3845,    1268,    1269,    1320,    1319
    3846,    1269,    1270,    1321,    1320
    3847,    1270,    1271,    1322,    1321
    3848,    1271,    1272,    1323,    1322
    3849,    1272,    1273,    1324,    1323
    3850,    1273,    1274,    1325,    1324
    3851,    1274,    1275,    1326,    1325
    3852,    1276,    1277,    1328,    1327
    3853,    1277,    1278,    1329,    1328
    3854,    1278,    1279,    1330,    1329
    3855,    1279,    1280,    1331,    1330
    3856,    1280,    1281,    1332,    1331
    3857,    1281,    1282,    1333,    1332
    3858,    1282,    1283,    1334,    1333
    3859,    1283,    1284,    1335,    1334
    3860,    1284,    1285,    1336,    1335
    3861,    1285,    1286,    1337,    1336
    3862,    1286,    1287,    1338,    1337
    3863,    1287,    1288,    1339,    1338
    3864,    1288,    1289,    1340,    1339
    3865,    1289,    1290,    1341,    1340
    3866,    1290,    1291,    1342,    1341
    3867,    1291,    1292,    1343,    1342
    3868,    1292,    1293,    1344,    1343
    3869,    1293,    1294,    1345,    1344
    3870,    1294,    1295,    1346,    1345
    3871,    1295,    1296,    1347,    1346
    3872,    1296,    1297,    1348,    1347
    3873,    1297,    1298,    1349,    1348
    3874,    1298,    1299,    1350,    1349
    3875,    1299,    1300,    1351,    1350
    3876,    1300,    1301,    1352,    1351
    3877,    1301,    1302,    1353,    1352
    3878,    1302,    1303,    1354,    1353
    3879,    1303,    1304,    1355,    1354
    3880,    1304,    1305,    1356,    1355
    3881,    1305,    1306,    1357,    1356
    3882,    1306,    1307,    1358,    1357
    3883,    1307,    1308,    1359,    1358
    3884,    1308,    1309,    1360,    1359
    3885,    1309,    1310,    1361,    1360
    3886,    1310,    1311,    1362,    1361
    3887,    1311,    1312,    1363,    1362
    3888,    1312,    1313,    1364,    1363
    3889,    1313,    1314,    1365,    1364
    3890,    1314,    1315,    1366,    1365
    3891,    1315,    1316,    1367,    1366
    3892,    1316,    1317,    1368,    1367
    3893,    1317,    1318,    1369,    1368
    3894,    1318,    1319,    1370,    1369
    3895,    1319,    1320,    1371,    1370
    3896,    1320,    1321,    1372,    1371
    3897,    1321,    1322,    1373,    1372
    3898,    1322,    1323,    1374,    1373
    3899,    1323,    1324,    1375,    1374
    3900,    1324,    1325,    1376,    1375
    3901,    1325,    1326,    1377,    1376
    3902,    1327,    1328,    1379,    1378
    3903,    1328,    1329,    1380,    1379
    3904,    1329,    1330,    1381,    1380
    3905,    1330,    1331,    1382,    1381
    3906,    1331,    1332,    1383,    1382
    3907,    1332,    1333,    1384,    1383
    3908,    1333,    1334,    1385,    1384
    3909,    1334,    1335,    1386,    1385
    3910,    1335,    1336,    1387,    1386
    3911,    1336,    1337,    1388,    1387
    3912,    1337,    1338,    1389,    1388
    3913,    1338,    1339,    1390,    1389
    3914,    1339,    1340,    1391,    1390
    3915,    1340,    1341,    1392,    1391
    3916,    1341,    1342,    1393,    1392
    3917,    1342,    1343,    1394,    1393
    3918,    1343,    1344,    1395,    1394
    3919,    1344,    1345,    1396,    1395
    3920,    1345,    1346,    1397,    1396
    3921,    1346,    1347,    1398,    1397
    3922,    1347,    1348,    1399,    1398
    3923,    1348,    1349,    1400,    1399
    3924,    1349,    1350,    1401,    1400
    3925,    1350,    1351,    1402,    1401
    3926,    1351,    1352,    1403,    1402
    3927,    1352,    1353,    1404,    1403
    3928,    1353,    1354,    1405,    1404
    3929,    1354,    1355,    1406,    1405
    3930,    1355,    1356,    1407,    1406
    3931,    1356,    1357,    1408,    1407
    3932,    1357,    1358,    1409,    1408
    3933,    1358,    1359,    1410,    1409
    3934,    1359,    1360,    1411,    1410
    3935,    1360,    1361,    1412,    1411
    3936,    1361,    1362,    1413,    1412
    3937,    1362,    1363,    1414,    1413
    3938,    1363,    1364,    1415,    1414
    3939,    1364,    1365,    1416,    1415
    3940,    1365,    1366,    1417,    1416
    3941,    1366,    1367,    1418,    1417
    3942,    1367,    1368,    1419,    1418
    3943,    1368,    1369,    1420,    1419
    3944,    1369,    1370,    1421,    1420
    3945,    1370,    1371,    1422,    1421
    3946,    1371,    1372,    1423,    1422
    3947,    1372,    1373,    1424,    1423
    3948,    1373,    1374,    1425,    1424
    3949,    1374,    1375,    1426,    1425
    3950,    1375,    1376,    1427,    1426
    3951,    1376,    1377,    1428,    1427
    3952,    1378,    1379,    1430,    1429
    3953,    1379,    1380,    1431,    1430
    3954,    1380,    1381,    1432,    1431
    3955,    1381,    1382,    1433,    1432
    3956,    1382,    1383,    1434,    1433
    3957,    1383,    1384,    1435,    1434
    3958,    1384,    1385,    1436,    1435
    3959,    1385,    1386,    1437,    1436
    3960,    1386,    1387,    1438,    1437
    3961,    1387,    1388,    1439,    1438
    3962,    1388,    1389,    1440,    1439
    3963,    1389,    1390,    1441,    1440
    3964,    1390,    1391,    1442,    1441
    3965,    1391,    1392,    1443,    1442
    3966,    1392,    1393,    1444,    1443
    3967,    1393,    1394,    1445,    1444
    3968,    1394,    1395,    1446,    1445
    3969,    1395,    1396,    1447,    1446
    3970,    1396,    1397,    1448,    1447
    3971,    1397,    1398,    1449,    1448
    3972,    1398,    1399,    1450,    1449
    3973,    1399,    1400,    1451,    1450
    3974,    1400,    1401,    1452,    1451
    3975,    1401,    1402,    1453,    1452
    3976,    1402,    1403,    1454,    1453
    3977,    1403,    1404,    1455,    1454
    3978,    1404,    1405,    1456,    1455
    3979,    1405,    1406,    1457,    1456
    3980,    1406,    1407,    1458,    1457
    3981,    1407,    1408,    1459,    1458
    3982,    1408,    1409,    1460,    1459
    3983,    1409,    1410,    1461,    1460
    3984,    1410,    1411,    1462,    1461
    3985,    1411,    1412,    1463,    1462
    3986,    1412,    1413,    1464,    1463
    3987,    1413,    1414,    1465,    1464
    3988,    1414,    1415,    1466,    1465
    3989,    1415,    1416,    1467,    1466
    3990,    1416,    1417,    1468,    1467
    3991,    1417,    1418,    1469,    1468
    3992,    1418,    1419,    1470,    1469
    3993,    1419,    1420,    1471,    1470
    3994,    1420,    1421,    1472,    1471
    3995,    1421,    1422,    1473,    1472
    3996,    1422,    1423,    1474,    1473
    3997,    1423,    1424,    1475,    1474
    3998,    1424,    1425,    1476,    1475
    3999,    1425,    1426,    1477,    1476
    4000,    1426,    1427,    1478,    1477
    4001,    1427,    1428,    1479,    1478
    4002,    1429,    1430,    1481,    1480
    4003,    1430,    1431,    1482,    1481
    4004,    1431,    1432,    1483,    1482
    4005,    1432,    1433,    1484,    1483
    4006,    1433,    1434,    1485,    1484
    4007,    1434,    1435,    1486,    1485
    4008,    1435,    1436,    1487,    1486
    4009,    1436,    1437,    1488,    1487
    4010,    1437,    1438,    1489,    1488
    4011,    1438,    1439,    1490,    1489
    4012,    1439,    1440,    1491,    1490
    4013,    1440,    1441,    1492,    1491
    4014,    1441,    1442,    1493,    1492
    4015,    1442,    1443,    1494,    1493
    4016,    1443,    1444,    1495,    1494
    4017,    1444,    1445,    1496,    1495
    4018,    1445,    1446,    1497,    1496
    4019,    1446,    1447,    1498,    1497
    4020,    1447,    1448,    1499,    1498
    4021,    1448,    1449,    1500,    1499
    4022,    1449,    1450,    1501,    1500
    4023,    1450,    1451,    1502,    1501
    4024,    1451,    1452,    1503,    1502
    4025,    1452,    1453,    1504,    1503
    4026,    1453,    1454,    1505,    1504
    4027,    1454,    1455,    1506,    1505
    4028,    1455,    1456,    1507,    1506
    4029,    1456,    1457,    1508,    1507
    4030,    1457,    1458,    1509,    1508
    4031,    1458,    1459,    1510,    1509
    4032,    1459,    1460,    1511,    1510
    4033,    1460,    1461,    1512,    1511
    4034,    1461,    1462,    1513,    1512
    4035,    1462,    1463,    1514,    1513
    4036,    1463,    1464,    1515,    1514
    4037,    1464,    1465,    1516,    1515
    4038,    1465,    1466,    1517,    1516
    4039,    1466,    1467,    1518,    1517
    4040,    1467,    1468,    1519,    1518
    4041,    1468,    1469,    1520,    1519
    4042,    1469,    1470,    1521,    1520
    4043,    1470,    1471,    1522,    1521
    4044,    1471,    1472,    1523,    1522
    4045,    1472,    1473,    1524,    1523
    4046,    1473,    1474,    1525,    1524
    4047,    1474,    1475,    1526,    1525
    4048,    1475,    1476,    1527,    1526
    4049,    1476,    1477,    1528,    1527
    4050,    1477,    1478,    1529,    1528
    4051,    1478,    1479,    1530,    1529
    4052,    1480,    1481,    1532,    1531
    4053,    1481,    1482,    1533,    1532
    4054,    1482,    1483,    1534,    1533
    4055,    1483,    1484,    1535,    1534
    4056,    1484,    1485,    1536,    1535
    4057,    1485,    1486,    1537,    1536
    4058,    1486,    1487,    1538,    1537
    4059,    1487,    1488,    1539,    1538
    4060,    1488,    1489,    1540,    1539
    4061,    1489,    1490,    1541,    1540
    4062,    1490,    1491,    1542,    1541
    4063,    1491,    1492,    1543,    1542
    4064,    1492,    1493,    1544,    1543
    4065,    1493,    1494,    1545,    1544
    4066,    1494,    1495,    1546,    1545
    4067,    1495,    1496,    1547,    1546
    4068,    1496,    1497,    1548,    1547
    4069,    1497,    1498,    1549,    1548
    4070,    1498,    1499,    1550,    1549
    4071,    1499,    1500,    1551,    1550
    4072,    1500,    1501,    1552,    1551
    4073,    1501,    1502,    1553,    1552
    4074,    1502,    1503,    1554,    1553
    4075,    1503,    1504,    1555,    1554
    4076,    1504,    1505,    1556,    1555
    4077,    1505,    1506,    1557,    1556
    4078,    1506,    1507,    1558,    1557
    4079,    1507,    1508,    1559,    1558
    4080,    1508,    1509,    1560,    1559
    4081,    1509,    1510,    1561,    1560
    4082,    1510,    1511,    1562,    1561
    4083,    1511,    1512,    1563,    1562
    4084,    1512,    1513,    1564,    1563
    4085,    1513,    1514,    1565,    1564
    4086,    1514,    1515,    1566,    1565
    4087,    1515,    1516,    1567,    1566
    4088,    1516,    1517,    1568,    1567
    4089,    1517,    1518,    1569,    1568
    4090,    1518,    1519,    1570,    1569
    4091,    1519,    1520,    1571,    1570
    4092,    1520,    1521,    1572,    1571
    4093,    1521,    1522,    1573,    1572
    4094,    1522,    1523,    1574,    1573
    4095,    1523,    1524,    1575,    1574
    4096,    1524,    1525,    1576,    1575
    4097,    1525,    1526,    1577,    1576
    4098,    1526,    1527,    1578,    1577
    4099,    1527,    1528,    1579,    1578
    4100,    1528,    1529,    1580,    1579
    4101,    1529,    1530,    1581,    1580
    4102,    1531,    1532,    1583,    1582
    4103,    1532,    1533,    1584,    1583
    4104,    1533,    1534,    1585,    1584
    4105,    1534,    1535,    1586,    1585
    4106,    1535,    1536,    1587,    1586
    4107,    1536,    1537,    1588,    1587
    4108,    1537,    1538,    1589,    1588
    4109,    1538,    1539,    1590,    1589
    4110,    1539,    1540,    1591,    1590
    4111,    1540,    1541,    1592,    1591
    4112,    1541,    1542,    1593,    1592
    4113,    1542,    1543,    1594,    1593
    4114,    1543,    1544,    1595,    1594
    4115,    1544,    1545,    1596,    1595
    4116,    1545,    1546,    1597,    1596
    4117,    1546,    1547,    1598,    1597
    4118,    1547,    1548,    1599,    1598
    4119,    1548,    1549,    1600,    1599
    4120,    1549,    1550,    1601,    1600
    4121,    1550,    1551,    1602,    1601
    4122,    1551,    1552,    1603,    1602
    4123,    1552,    1553,    1604,    1603
    4124,    1553,    1554,    1605,    1604
    4125,    1554,    1555,    1606,    1605
    4126,    1555,    1556,    1607,    1606
    4127,    1556,    1557,    1608,    1607
    4128,    1557,    1558,    1609,    1608
    4129,    1558,    1559,    1610,    1609
    4130,    1559,    1560,    1611,    1610
    4131,    1560,    1561,    1612,    1611
    4132,    1561,    1562,    1613,    1612
    4133,    1562,    1563,    1614,    1613
    4134,    1563,    1564,    1615,    1614
    4135,    1564,    1565,    1616,    1615
    4136,    1565,    1566,    1617,    1616
    4137,    1566,    1567,    1618,    1617
    4138,    1567,    1568,    1619,    1618
    4139,    1568,    1569,    1620,    1619
    4140,    1569,    1570,    1621,    1620
    4141,    1570,    1571,    1622,    1621
    4142,    1571,    1572,    1623,    1622
    4143,    1572,    1573,    1624,    1623
    4144,    1573,    1574,    1625,    1624
    4145,    1574,    1575,    1626,    1625
    4146,    1575,    1576,    1627,    1626
    4147,    1576,    1577,    1628,    1627
    4148,    1577,    1578,    1629,    1628
    4149,    1578,    1579,    1630,    1629
    4150,    1579,    1580,    1631,    1630
    4151,    1580,    1581,    1632,    1631
    4152,    1582,    1583,    1634,    1633
    4153,    1583,    1584,    1635,    1634
    4154,    1584,    1585,    1636,    1635
    4155,    1585,    1586,    1637,    1636
    4156,    1586,    1587,    1638,    1637
    4157,    1587,    1588,    1639,    1638
    4158,    1588,    1589,    1640,    1639
    4159,    1589,    1590,    1641,    1640
    4160,    1590,    1591,    1642,    1641
    4161,    1591,    1592,    1643,    1642
    4162,    1592,    1593,    1644,    1643
    4163,    1593,    1594,    1645,    1644
    4164,    1594,    1595,    1646,    1645
    4165,    1595,    1596,    1647,    1646
    4166,    1596,    1597,    1648,    1647
    4167,    1597,    1598,    1649,    1648
    4168,    1598,    1599,    1650,    1649
    4169,    1599,    1600,    1651,    1650
    4170,    1600,    1601,    1652,    1651
    4171,    1601,    1602,    1653,    1652
    4172,    1602,    1603,    1654,    1653
    4173,    1603,    1604,    1655,    1654
    4174,    1604,    1605,    1656,    1655
    4175,    1605,    1606,    1657,    1656
    4176,    1606,    1607,    1658,    1657
    4177,    1607,    1608,    1659,    1658
    4178,    1608,    1609,    1660,    1659
    4179,    1609,    1610,    1661,    1660
    4180,    1610,    1611,    1662,    1661
    4181,    1611,    1612,    1663,    1662
    4182,    1612,    1613,    1664,    1663
    4183,    1613,    1614,    1665,    1664
    4184,    1614,    1615,    1666,    1665
    4185,    1615,    1616,    1667,    1666
    4186,    1616,    1617,    1668,    1667
    4187,    1617,    1618,    1669,    1668
    4188,    1618,    1619,    1670,    1669
    4189,    1619,    1620,    1671,    1670
    4190,    1620,    1621,    1672,    1671
    4191,    1621,    1622,    1673,    1672
    4192,    1622,    1623,    1674,    1673
    4193,    1623,    1624,    1675,    1674
    4194,    1624,    1625,    1676,    1675
    4195,    1625,    1626,    1677,    1676
    4196,    1626,    1627,    1678,    1677
    4197,    1627,    1628,    1679,    1678
    4198,    1628,    1629,    1680,    1679
    4199,    1629,    1630,    1681,    1680
    4200,    1630,    1631,    1682,    1681
    4201,    1631,    1632,    1683,    1682
    4202,    1633,    1634,    1685,    1684
    4203,    1634,    1635,    1686,    1685
    4204,    1635,    1636,    1687,    1686
    4205,    1636,    1637,    1688,    1687
    4206,    1637,    1638,    1689,    1688
    4207,    1638,    1639,    1690,    1689
    4208,    1639,    1640,    1691,    1690
    4209,    1640,    1641,    1692,    1691
    4210,    1641,    1642,    1693,    1692
    4211,    1642,    1643,    1694,    1693
    4212,    1643,    1644,    1695,    1694
    4213,    1644,    1645,    1696,    1695
    4214,    1645,    1646,    1697,    1696
    4215,    1646,    1647,    1698,    1697
    4216,    1647,    1648,    1699,    1698
    4217,    1648,    1649,    1700,    1699
    4218,    1649,    1650,    1701,    1700
    4219,    1650,    1651,    1702,    1701
    4220,    1651,    1652,    1703,    1702
    4221,    1652,    1653,    1704,    1703
    4222,    1653,    1654,    1705,    1704
    4223,    1654,    1655,    1706,    1705
    4224,    1655,    1656,    1707,    1706
    4225,    1656,    1657,    1708,    1707
    4226,    1657,    1658,    1709,    1708
    4227,    1658,    1659,    1710,    1709
    4228,    1659,    1660,    1711,    1710
    4229,    1660,    1661,    1712,    1711
    4230,    1661,    1662,    1713,    1712
    4231,    1662,    1663,    1714,    1713
    4232,    1663,    1664,    1715,    1714
    4233,    1664,    1665,    1716,    1715
    4234,    1665,    1666,    1717,    1716
    4235,    1666,    1667,    1718,    1717
    4236,    1667,    1668,    1719,    1718
    4237,    1668,    1669,    1720,    1719
    4238,    1669,    1670,    1721,    1720
    4239,    1670,    1671,    1722,    1721
    4240,    1671,    1672,    1723,    1722
    4241,    1672,    1673,    1724,    1723
    4242,    1673,    1674,    1725,    1724
    4243,    1674,    1675,    1726,    1725
    4244,    1675,    1676,    1727,    1726
    4245,    1676,    1677,    1728,    1727
    4246,    1677,    1678,    1729,    1728
    4247,    1678,    1679,    1730,    1729
    4248,    1679,    1680,    1731,    1730
    4249,    1680,    1681,    1732,    1731
    4250,    1681,    1682,    1733,    1732
    4251,    1682,    1683,    1734,    1733
    4252,    1684,    1685,    1736,    1735
    4253,    1685,    1686,    1737,    1736
    4254,    1686,    1687,    1738,    1737
    4255,    1687,    1688,    1739,    1738
    4256,    1688,    1689,    1740,    1739
    4257,    1689,    1690,    1741,    1740
    4258,    1690,    1691,    1742,    1741
    4259,    1691,    1692,    1743,    1742
    4260,    1692,    1693,    1744,    1743
    4261,    1693,    1694,    1745,    1744
    4262,    1694,    1695,    1746,    1745
    4263,    1695,    1696,    1747,    1746
    4264,    1696,    1697,    1748,    1747
    4265,    1697,    1698,    1749,    1748
    4266,    1698,    1699,    1750,    1749
    4267,    1699,    1700,    1751,    1750
    4268,    1700,    1701,    1752,    1751
    4269,    1701,    1702,    1753,    1752
    4270,    1702,    1703,    1754,    1753
    4271,    1703,    1704,    1755,    1754
    4272,    1704,    1705,    1756,    1755
    4273,    1705,    1706,    1757,    1756
    4274,    1706,    1707,    1758,    1757
    4275,    1707,    1708,    1759,    1758
    4276,    1708,    1709,    1760,    1759
    4277,    1709,    1710,    1761,    1760
    4278,    1710,    1711,    1762,    1761
    4279,    1711,    1712,    1763,    1762
    4280,    1712,    1713,    1764,    1763
    4281,    1713,    1714,    1765,    1764
    4282,    1714,    1715,    1766,    1765
    4283,    1715,    1716,    1767,    1766
    4284,    1716,    1717,    1768,    1767
    4285,    1717,    1718,    1769,    1768
    4286,    1718,    1719,    1770,    1769
    4287,    1719,    1720,    1771,    1770
    4288,    1720,    1721,    1772,    1771
    4289,    1721,    1722,    1773,    1772
    4290,    1722,    1723,    1774,    1773
    4291,    1723,    1724,    1775,    1774
    4292,    1724,    1725,    1776,    1775
    4293,    1725,    1726,    1777,    1776
    4294,    1726,    1727,    1778,    1777
    4295,    1727,    1728,    1779,    1778
    4296,    1728,    1729,    1780,    1779
    4297,    1729,    1730,    1781,    1780
    4298,    1730,    1731,    1782,    1781
    4299,    1731,    1732,    1783,    1782
    4300,    1732,    1733,    1784,    1783
    4301,    1733,    1734,    1785,    1784
    4302,    1735,    1736,    1787,    1786
    4303,    1736,    1737,    1788,    1787
    4304,    1737,    1738,    1789,    1788
    4305,    1738,    1739,    1790,    1789
    4306,    1739,    1740,    1791,    1790
    4307,    1740,    1741,    1792,    1791
    4308,    1741,    1742,    1793,    1792
    4309,    1742,    1743,    1794,    1793
    4310,    1743,    1744,    1795,    1794
    4311,    1744,    1745,    1796,    1795
    4312,    1745,    1746,    1797,    1796
    4313,    1746,    1747,    1798,    1797
    4314,    1747,    1748,    1799,    1798
    4315,    1748,    1749,    1800,    1799
    4316,    1749,    1750,    1801,    1800
    4317,    1750,    1751,    1802,    1801
    4318,    1751,    1752,    1803,    1802
    4319,    1752,    1753,    1804,    1803
    4320,    1753,    1754,    1805,    1804
    4321,    1754,    1755,    1806,    1805
    4322,    1755,    1756,    1807,    1806
    4323,    1756,    1757,    1808,    1807
    4324,    1757,    1758,    1809,    1808
    4325,    1758,    1759,    1810,    1809
    4326,    1759,    1760,    1811,    1810
    4327,    1760,    1761,    1812,    1811
    4328,    1761,    1762,    1813,    1812
    4329,    1762,    1763,    1814,    1813
    4330,    1763,    1764,    1815,    1814
    4331,    1764,    1765,    1816,    1815
    4332,    1765,    1766,    1817,    1816
    4333,    1766,    1767,    1818,    1817
    4334,    1767,    1768,    1819,    1818
    4335,    1768,    1769,    1820,    1819
    4336,    1769,    1770,    1821,    1820
    4337,    1770,    1771,    1822,    1821
    4338,    1771,    1772,    1823,    1822
    4339,    1772,    1773,    1824,    1823
    4340,    1773,    1774,    1825,    1824
    4341,    1774,    1775,    1826,    1825
    4342,    1775,    1776,    1827,    1826
    4343,    1776,    1777,    1828,    1827
    4344,    1777,    1778,    1829,    1828
    4345,    1778,    1779,    1830,    1829
    4346,    1779,    1780,    1831,    1830
    4347,    1780,    1781,    1832,    1831
    4348,    1781,    1782,    1833,    1832
    4349,    1782,    1783,    1834,    1833
    4350,    1783,    1784,    1835,    1834
    4351,    1784,    1785,    1836,    1835
    4352,    1786,    1787,    1838,    1837
    4353,    1787,    1788,    1839,    1838
    4354,    1788,    1789,    1840,    1839
    4355,    1789,    1790,    1841,    1840
    4356,    1790,    1791,    1842,    1841
    4357,    1791,    1792,    1843,    1842
    4358,    1792,    1793,    1844,    1843
    4359,    1793,    1794,    1845,    1844
    4360,    1794,    1795,    1846,    1845
    4361,    1795,    1796,    1847,    1846
    4362,    1796,    1797,    1848,    1847
    4363,    1797,    1798,    1849,    1848
    4364,    1798,    1799,    1850,    1849
    4365,    1799,    1800,    1851,    1850
    4366,    1800,    1801,    1852,    1851
    4367,    1801,    1802,    1853,    1852
    4368,    1802,    1803,    1854,    1853
    4369,    1803,    1804,    1855,    1854
    4370,    1804,    1805,    1856,    1855
    4371,    1805,    1806,    1857,    1856
    4372,    1806,    1807,    1858,    1857
    4373,    1807,    1808,    1859,    1858
    4374,    1808,    1809,    1860,    1859
    4375,    1809,    1810,    1861,    1860
    4376,    1810,    1811,    1862,    1861
    4377,    1811,    1812,    1863,    1862
    4378,    1812,    1813,    1864,    1863
    4379,    1813,    1814,    1865,    1864
    4380,    1814,    1815,    1866,    1865
    4381,    1815,    1816,    1867,    1866
    4382,    1816,    1817,    1868,    1867
    4383,    1817,    1818,    1869,    1868
    4384,    1818,    1819,    1870,    1869
    4385,    1819,    1820,    1871,    1870
    4386,    1820,    1821,    1872,    1871
    4387,    1821,    1822,    1873,    1872
    4388,    1822,    1823,    1874,    1873
    4389,    1823,    1824,    1875,    1874
    4390,    1824,    1825,    1876,    1875
    4391,    1825,    1826,    1877,    1876
    4392,    1826,    1827,    1878,    1877
    4393,    1827,    1828,    1879,    1878
    4394,    1828,    1829,    1880,    1879
    4395,    1829,    1830,    1881,    1880
    4396,    1830,    1831,    1882,    1881
    4397,    1831,    1832,    1883,    1882
    4398,    1832,    1833,    1884,    1883
    4399,    1833,    1834,    1885,    1884
    4400,    1834,    1835,    1886,    1885
    4401,    1835,    1836,    1887,    1886
    4402,    1837,    1838,    1889,    1888
    4403,    1838,    1839,    1890,    1889
    4404,    1839,    1840,    1891,    1890
    4405,    1840,    1841,    1892,    1891
    4406,    1841,    1842,    1893,    1892
    4407,    1842,    1843,    1894,    1893
    4408,    1843,    1844,    1895,    1894
    4409,    1844,    1845,    1896,    1895
    4410,    1845,    1846,    1897,    1896
    4411,    1846,    1847,    1898,    1897
    4412,    1847,    1848,    1899,    1898
    4413,    1848,    1849,    1900,    1899
    4414,    1849,    1850,    1901,    1900
    4415,    1850,    1851,    1902,    1901
    4416,    1851,    1852,    1903,    1902
    4417,    1852,    1853,    1904,    1903
    4418,    1853,    1854,    1905,    1904
    4419,    1854,    1855,    1906,    1905
    4420,    1855,    1856,    1907,    1906
    4421,    1856,    1857,    1908,    1907
    4422,    1857,    1858,    1909,    1908
    4423,    1858,    1859,    1910,    1909
    4424,    1859,    1860,    1911,    1910
    4425,    1860,    1861,    1912,    1911
    4426,    1861,    1862,    1913,    1912
    4427,    1862,    1863,    1914,    1913
    4428,    1863,    1864,    1915,    1914
    4429,    1864,    1865,    1916,    1915
    4430,    1865,    1866,    1917,    1916
    4431,    1866,    1867,    1918,    1917
    4432,    1867,    1868,    1919,    1918
    4433,    1868,    1869,    1920,    1919
    4434,    1869,    1870,    1921,    1920
    4435,    1870,    1871,    1922,    1921
    4436,    1871,    1872,    1923,    1922
    4437,    1872,    1873,    1924,    1923
    4438,    1873,    1874,    1925,    1924
    4439,    1874,    1875,    1926,    1925
    4440,    1875,    1876,    1927,    1926
    4441,    1876,    1877,    1928,    1927
    4442,    1877,    1878,    1929,    1928
    4443,    1878,    1879,    1930,    1929
    4444,    1879,    1880,    1931,    1930
    4445,    1880,    1881,    1932,    1931
    4446,    1881,    1882,    1933,    1932
    4447,    1882,    1883,    1934,    1933
    4448,    1883,    1884,    1935,    1934
    4449,    1884,    1885,    1936,    1935
    4450,    1885,    1886,    1937,    1936
    4451,    1886,    1887,    1938,    1937
    4452,    1888,    1889,    1940,    1939
    4453,    1889,    1890,    1941,    1940
    4454,    1890,    1891,    1942,    1941
    4455,    1891,    1892,    1943,    1942
    4456,    1892,    1893,    1944,    1943
    4457,    1893,    1894,    1945,    1944
    4458,    1894,    1895,    1946,    1945
    4459,    1895,    1896,    1947,    1946
    4460,    1896,    1897,    1948,    1947
    4461,    1897,    1898,    1949,    1948
    4462,    1898,    1899,    1950,    1949
    4463,    1899,    1900,    1951,    1950
    4464,    1900,    1901,    1952,    1951
    4465,    1901,    1902,    1953,    1952
    4466,    1902,    1903,    1954,    1953
    4467,    1903,    1904,    1955,    1954
    4468,    1904,    1905,    1956,    1955
    4469,    1905,    1906,    1957,    1956
    4470,    1906,    1907,    1958,    1957
    4471,    1907,    1908,    1959,    1958
    4472,    1908,    1909,    1960,    1959
    4473,    1909,    1910,    1961,    1960
    4474,    1910,    1911,    1962,    1961
    4475,    1911,    1912,    1963,    1962
    4476,    1912,    1913,    1964,    1963
    4477,    1913,    1914,    1965,    1964
    4478,    1914,    1915,    1966,    1965
    4479,    1915,    1916,    1967,    1966
    4480,    1916,    1917,    1968,    1967
    4481,    1917,    1918,    1969,    1968
    4482,    1918,    1919,    1970,    1969
    4483,    1919,    1920,    1971,    1970
    4484,    1920,    1921,    1972,    1971
    4485,    1921,    1922,    1973,    1972
    4486,    1922,    1923,    1974,    1973
    4487,    1923,    1924,    1975,    1974
    4488,    1924,    1925,    1976,    1975
    4489,    1925,    1926,    1977,    1976
    4490,    1926,    1927,    1978,    1977
    4491,    1927,    1928,    1979,    1978
    4492,    1928,    1929,    1980,    1979
    4493,    1929,    1930,    1981,    1980
    4494,    1930,    1931,    1982,    1981
    4495,    1931,    1932,    1983,    1982
    4496,    1932,    1933,    1984,    1983
    4497,    1933,    1934,    1985,    1984
    4498,    1934,    1935,    1986,    1985
    4499,    1935,    1936,    1987,    1986
    4500,    1936,    1937,    1988,    1987
    4501,    1937,    1938,    1989,    1988
    4502,    1939,    1940,    1991,    1990
    4503,    1940,    1941,    1992,    1991
    4504,    1941,    1942,    1993,    1992
    4505,    1942,    1943,    1994,    1993
    4506,    1943,    1944,    1995,    1994
    4507,    1944,    1945,    1996,    1995
    4508,    1945,    1946,    1997,    1996
    4509,    1946,    1947,    1998,    1997
    4510,    1947,    1948,    1999,    1998
    4511,    1948,    1949,    2000,    1999
    4512,    1949,    1950,    2001,    2000
    4513,    1950,    1951,    2002,    2001
    4514,    1951,    1952,    2003,    2002
    4515,    1952,    1953,    2004,    2003
    4516,    1953,    1954,    2005,    2004
    4517,    1954,    1955,    2006,    2005
    4518,    1955,    1956,    2007,    2006
    4519,    1956,    1957,    2008,    2007
    4520,    1957,    1958,    2009,    2008
    4521,    1958,    1959,    2010,    2009
    4522,    1959,    1960,    2011,    2010
    4523,    1960,    1961,    2012,    2011
    4524,    1961,    1962,    2013,    2012
    4525,    1962,    1963,    2014,    2013
    4526,    1963,    1964,    2015,    2014
    4527,    1964,    1965,    2016,    2015
    4528,    1965,    1966,    2017,    2016
    4529,    1966,    1967,    2018,    2017
    4530,    1967,    1968,    2019,    2018
    4531,    1968,    1969,    2020,    2019
    4532,    1969,    1970,    2021,    2020
    4533,    1970,    1971,    2022,    2021
    4534,    1971,    1972,    2023,    2022
    4535,    1972,    1973,    2024,    2023
    4536,    1973,    1974,    2025,    2024
    4537,    1974,    1975,    2026,    2025
    4538,    1975,    1976,    2027,    2026
    4539,    1976,    1977,    2028,    2027
    4540,    1977,    1978,    2029,    2028
    4541,    1978,    1979,    2030,    2029
    4542,    1979,    1980,    2031,    2030
    4543,    1980,    1981,    2032,    2031
    4544,    1981,    1982,    2033,    2032
    4545,    1982,    1983,    2034,    2033
    4546,    1983,    1984,    2035,    2034
    4547,    1984,    1985,    2036,    2035
    4548,    1985,    1986,    2037,    2036
    4549,    1986,    1987,    2038,    2037
    4550,    1987,    1988,    2039,    2038
    4551,    1988,    1989,    2040,    2039
    4552,    1990,    1991,    2042,    2041
    4553,    1991,    1992,    2043,    2042
    4554,    1992,    1993,    2044,    2043
    4555,    1993,    1994,    2045,    2044
    4556,    1994,    1995,    2046,    2045
    4557,    1995,    1996,    2047,    2046
    4558,    1996,    1997,    2048,    2047
    4559,    1997,    1998,    2049,    2048
    4560,    1998,    1999,    2050,    2049
    4561,    1999,    2000,    2051,    2050
    4562,    2000,    2001,    2052,    2051
    4563,    2001,    2002,    2053,    2052
    4564,    2002,    2003,    2054,    2053
    4565,    2003,    2004,    2055,    2054
    4566,    2004,    2005,    2056,    2055
    4567,    2005,    2006,    2057,    2056
    4568,    2006,    2007,    2058,    2057
    4569,    2007,    2008,    2059,    2058
    4570,    2008,    2009,    2060,    2059
    4571,    2009,    2010,    2061,    2060
    4572,    2010,    2011,    2062,    2061
    4573,    2011,    2012,    2063,    2062
    4574,    2012,    2013,    2064,    2063
    4575,    2013,    2014,    2065,    2064
    4576,    2014,    2015,    2066,    2065
    4577,    2015,    2016,    2067,    2066
    4578,    2016,    2017,    2068,    2067
    4579,    2017,    2018,    2069,    2068
    4580,    2018,    2019,    2070,    2069
    4581,    2019,    2020,    2071,    2070
    4582,    2020,    2021,    2072,    2071
    4583,    2021,    2022,    2073,    2072
    4584,    2022,    2023,    2074,    2073
    4585,    2023,    2024,    2075,    2074
    4586,    2024,    2025,    2076,    2075
    4587,    2025,    2026,    2077,    2076
    4588,    2026,    2027,    2078,    2077
    4589,    2027,    2028,    2079,    2078
    4590,    2028,    2029,    2080,    2079
    4591,    2029,    2030,    2081,    2080
    4592,    2030,    2031,    2082,    2081
    4593,    2031,    2032,    2083,    2082
    4594,    2032,    2033,    2084,    2083
    4595,    2033,    2034,    2085,    2084
    4596,    2034,    2035,    2086,    2085
    4597,    2035,    2036,    2087,    2086
    4598,    2036,    2037,    2088,    2087
    4599,    2037,    2038,    2089,    2088
    4600,    2038,    2039,    2090,    2089
    4601,    2039,    2040,    2091,    2090
    4602,    2041,    2042,    2093,    2092
    4603,    2042,    2043,    2094,    2093
    4604,    2043,    2044,    2095,    2094
    4605,    2044,    2045,    2096,    2095
    4606,    2045,    2046,    2097,    2096
    4607,    2046,    2047,    2098,    2097
    4608,    2047,    2048,    2099,    2098
    4609,    2048,    2049,    2100,    2099
    4610,    2049,    2050,    2101,    2100
    4611,    2050,    2051,    2102,    2101
    4612,    2051,    2052,    2103,    2102
    4613,    2052,    2053,    2104,    2103
    4614,    2053,    2054,    2105,    2104
    4615,    2054,    2055,    2106,    2105
    4616,    2055,    2056,    2107,    2106
    4617,    2056,    2057,    2108,    2107
    4618,    2057,    2058,    2109,    2108
    4619,    2058,    2059,    2110,    2109
    4620,    2059,    2060,    2111,    2110
    4621,    2060,    2061,    2112,    2111
    4622,    2061,    2062,    2113,    2112
    4623,    2062,    2063,    2114,    2113
    4624,    2063,    2064,    2115,    2114
    4625,    2064,    2065,    2116,    2115
    4626,    2065,    2066,    2117,    2116
    4627,    2066,    2067,    2118,    2117
    4628,    2067,    2068,    2119,    2118
    4629,    2068,    2069,    2120,    2119
    4630,    2069,    2070,    2121,    2120
    4631,    2070,    2071,    2122,    2121
    4632,    2071,    2072,    2123,    2122
    4633,    2072,    2073,    2124,    2123
    4634,    2073,    2074,    2125,    2124
    4635,    2074,    2075,    2126,    2125
    4636,    2075,    2076,    2127,    2126
    4637,    2076,    2077,    2128,    2127
    4638,    2077,    2078,    2129,    2128
    4639,    2078,    2079,    2130,    2129
    4640,    2079,    2080,    2131,    2130
    4641,    2080,    2081,    2132,    2131
    4642,    2081,    2082,    2133,    2132
    4643,    2082,    2083,    2134,    2133
    4644,    2083,    2084,    2135,    2134
    4645,    2084,    2085,    2136,    2135
    4646,    2085,    2086,    2137,    2136
    4647,    2086,    2087,    2138,    2137
    4648,    2087,    2088,    2139,    2138
    4649,    2088,    2089,    2140,    2139
    4650,    2089,    2090,    2141,    2140
    4651,    2090,    2091,    2142,    2141
    4652,    2092,    2093,    2144,    2143
    4653,    2093,    2094,    2145,    2144
    4654,    2094,    2095,    2146,    2145
    4655,    2095,    2096,    2147,    2146
    4656,    2096,    2097,    2148,    2147
    4657,    2097,    2098,    2149,    2148
    4658,    2098,    2099,    2150,    2149
    4659,    2099,    2100,    2151,    2150
    4660,    2100,    2101,    2152,    2151
    4661,    2101,    2102,    2153,    2152
    4662,    2102,    2103,    2154,    2153
    4663,    2103,    2104,    2155,    2154
    4664,    2104,    2105,    2156,    2155
    4665,    2105,    2106,    2157,    2156
    4666,    2106,    2107,    2158,    2157
    4667,    2107,    2108,    2159,    2158
    4668,    2108,    2109,    2160,    2159
    4669,    2109,    2110,    2161,    2160
    4670,    2110,    2111,    2162,    2161
    4671,    2111,    2112,    2163,    2162
    4672,    2112,    2113,    2164,    2163
    4673,    2113,    2114,    2165,    2164
    4674,    2114,    2115,    2166,    2165
    4675,    2115,    2116,    2167,    2166
    4676,    2116,    2117,    2168,    2167
    4677,    2117,    2118,    2169,    2168
    4678,    2118,    2119,    2170,    2169
    4679,    2119,    2120,    2171,    2170
    4680,    2120,    2121,    2172,    2171
    4681,    2121,    2122,    2173,    2172
    4682,    2122,    2123,    2174,    2173
    4683,    2123,    2124,    2175,    2174
    4684,    2124,    2125,    2176,    2175
    4685,    2125,    2126,    2177,    2176
    4686,    2126,    2127,    2178,    2177
    4687,    2127,    2128,    2179,    2178
    4688,    2128,    2129,    2180,    2179
    4689,    2129,    2130,    2181,    2180
    4690,    2130,    2131,    2182,    2181
    4691,    2131,    2132,    2183,    2182
    4692,    2132,    2133,    2184,    2183
    4693,    2133,    2134,    2185,    2184
    4694,    2134,    2135,    2186,    2185
    4695,    2135,    2136,    2187,    2186
    4696,    2136,    2137,    2188,    2187
    4697,    2137,    2138,    2189,    2188
    4698,    2138,    2139,    2190,    2189
    4699,    2139,    2140,    2191,    2190
    4700,    2140,    2141,    2192,    2191
    4701,    2141,    2142,    2193,    2192
    4702,    2143,    2144,    2195,    2194
    4703,    2144,    2145,    2196,    2195
    4704,    2145,    2146,    2197,    2196
    4705,    2146,    2147,    2198,    2197
    4706,    2147,    2148,    2199,    2198
    4707,    2148,    2149,    2200,    2199
    4708,    2149,    2150,    2201,    2200
    4709,    2150,    2151,    2202,    2201
    4710,    2151,    2152,    2203,    2202
    4711,    2152,    2153,    2204,    2203
    4712,    2153,    2154,    2205,    2204
    4713,    2154,    2155,    2206,    2205
    4714,    2155,    2156,    2207,    2206
    4715,    2156,    2157,    2208,    2207
    4716,    2157,    2158,    2209,    2208
    4717,    2158,    2159,    2210,    2209
    4718,    2159,    2160,    2211,    2210
    4719,    2160,    2161,    2212,    2211
    4720,    2161,    2162,    2213,    2212
    4721,    2162,    2163,    2214,    2213
    4722,    2163,    2164,    2215,    2214
    4723,    2164,    2165,    2216,    2215
    4724,    2165,    2166,    2217,    2216
    4725,    2166,    2167,    2218,    2217
    4726,    2167,    2168,    2219,    2218
    4727,    2168,    2169,    2220,    2219
    4728,    2169,    2170,    2221,    2220
    4729,    2170,    2171,    2222,    2221
    4730,    2171,    2172,    2223,    2222
    4731,    2172,    2173,    2224,    2223
    4732,    2173,    2174,    2225,    2224
    4733,    2174,    2175,    2226,    2225
    4734,    2175,    2176,    2227,    2226
    4735,    2176,    2177,    2228,    2227
    4736,    2177,    2178,    2229,    2228
    4737,    2178,    2179,    2230,    2229
    4738,    2179,    2180,    2231,    2230
    4739,    2180,    2181,    2232,    2231
    4740,    2181,    2182,    2233,    2232
    4741,    2182,    2183,    2234,    2233
    4742,    2183,    2184,    2235,    2234
    4743,    2184,    2185,    2236,    2235
    4744,    2185,    2186,    2237,    2236
    4745,    2186,    2187,    2238,    2237
    4746,    2187,    2188,    2239,    2238
    4747,    2188,    2189,    2240,    2239
    4748,    2189,    2190,    2241,    2240
    4749,    2190,    2191,    2242,    2241
    4750,    2191,    2192,    2243,    2242
    4751,    2192,    2193,    2244,    2243
    4752,    2194,    2195,    2246,    2245
    4753,    2195,    2196,    2247,    2246
    4754,    2196,    2197,    2248,    2247
    4755,    2197,    2198,    2249,    2248
    4756,    2198,    2199,    2250,    2249
    4757,    2199,    2200,    2251,    2250
    4758,    2200,    2201,    2252,    2251
    4759,    2201,    2202,    2253,    2252
    4760,    2202,    2203,    2254,    2253
    4761,    2203,    2204,    2255,    2254
    4762,    2204,    2205,    2256,    2255
    4763,    2205,    2206,    2257,    2256
    4764,    2206,    2207,    2258,    2257
    4765,    2207,    2208,    2259,    2258
    4766,    2208,    2209,    2260,    2259
    4767,    2209,    2210,    2261,    2260
    4768,    2210,    2211,    2262,    2261
    4769,    2211,    2212,    2263,    2262
    4770,    2212,    2213,    2264,    2263
    4771,    2213,    2214,    2265,    2264
    4772,    2214,    2215,    2266,    2265
    4773,    2215,    2216,    2267,    2266
    4774,    2216,    2217,    2268,    2267
    4775,    2217,    2218,    2269,    2268
    4776,    2218,    2219,    2270,    2269
    4777,    2219,    2220,    2271,    2270
    4778,    2220,    2221,    2272,    2271
    4779,    2221,    2222,    2273,    2272
    4780,    2222,    2223,    2274,    2273
    4781,    2223,    2224,    2275,    2274
    4782,    2224,    2225,    2276,    2275
    4783,    2225,    2226,    2277,    2276
    4784,    2226,    2227,    2278,    2277
    4785,    2227,    2228,    2279,    2278
    4786,    2228,    2229,    2280,    2279
    4787,    2229,    2230,    2281,    2280
    4788,    2230,    2231,    2282,    2281
    4789,    2231,    2232,    2283,    2282
    4790,    2232,    2233,    2284,    2283
    4791,    2233,    2234,    2285,    2284
    4792,    2234,    2235,    2286,    2285
    4793,    2235,    2236,    2287,    2286
    4794,    2236,    2237,    2288,    2287
    4795,    2237,    2238,    2289,    2288
    4796,    2238,    2239,    2290,    2289
    4797,    2239,    2240,    2291,    2290
    4798,    2240,    2241,    2292,    2291
    4799,    2241,    2242,    2293,    2292
    4800,    2242,    2243,    2294,    2293
    4801,    2243,    2244,    2295,    2294
    4802,    2245,    2246,    2297,    2296
    4803,    2246,    2247,    2298,    2297
    4804,    2247,    2248,    2299,    2298
    4805,    2248,    2249,    2300,    2299
    4806,    2249,    2250,    2301,    2300
    4807,    2250,    2251,    2302,    2301
    4808,    2251,    2252,    2303,    2302
    4809,    2252,    2253,    2304,    2303
    4810,    2253,    2254,    2305,    2304
    4811,    2254,    2255,    2306,    2305
    4812,    2255,    2256,    2307,    2306
    4813,    2256,    2257,    2308,    2307
    4814,    2257,    2258,    2309,    2308
    4815,    2258,    2259,    2310,    2309
    4816,    2259,    2260,    2311,    2310
    4817,    2260,    2261,    2312,    2311
    4818,    2261,    2262,    2313,    2312
    4819,    2262,    2263,    2314,    2313
    4820,    2263,    2264,    2315,    2314
    4821,    2264,    2265,    2316,    2315
    4822,    2265,    2266,    2317,    2316
    4823,    2266,    2267,    2318,    2317
    4824,    2267,    2268,    2319,    2318
    4825,    2268,    2269,    2320,    2319
    4826,    2269,    2270,    2321,    2320
    4827,    2270,    2271,    2322,    2321
    4828,    2271,    2272,    2323,    2322
    4829,    2272,    2273,    2324,    2323
    4830,    2273,    2274,    2325,    2324
    4831,    2274,    2275,    2326,    2325
    4832,    2275,    2276,    2327,    2326
    4833,    2276,    2277,    2328,    2327
    4834,    2277,    2278,    2329,    2328
    4835,    2278,    2279,    2330,    2329
    4836,    2279,    2280,    2331,    2330
    4837,    2280,    2281,    2332,    2331
    4838,    2281,    2282,    2333,    2332
    4839,    2282,    2283,    2334,    2333
    4840,    2283,    2284,    2335,    2334
    4841,    2284,    2285,    2336,    2335
    4842,    2285,    2286,    2337,    2336
    4843,    2286,    2287,    2338,    2337
    4844,    2287,    2288,    2339,    2338
    4845,    2288,    2289,    2340,    2339
    4846,    2289,    2290,    2341,    2340
    4847,    2290,    2291,    2342,    2341
    4848,    2291,    2292,    2343,    2342
    4849,    2292,    2293,    2344,    2343
    4850,    2293,    2294,    2345,    2344
    4851,    2294,    2295,    2346,    2345
    4852,    2296,    2297,    2348,    2347
    4853,    2297,    2298,    2349,    2348
    4854,    2298,    2299,    2350,    2349
    4855,    2299,    2300,    2351,    2350
    4856,    2300,    2301,    2352,    2351
    4857,    2301,    2302,    2353,    2352
    4858,    2302,    2303,    2354,    2353
    4859,    2303,    2304,    2355,    2354
    4860,    2304,    2305,    2356,    2355
    4861,    2305,    2306,    2357,    2356
    4862,    2306,    2307,    2358,    2357
    4863,    2307,    2308,    2359,    2358
    4864,    2308,    2309,    2360,    2359
    4865,    2309,    2310,    2361,    2360
    4866,    2310,    2311,    2362,    2361
    4867,    2311,    2312,    2363,    2362
    4868,    2312,    2313,    2364,    2363
    4869,    2313,    2314,    2365,    2364
    4870,    2314,    2315,    2366,    2365
    4871,    2315,    2316,    2367,    2366
    4872,    2316,    2317,    2368,    2367
    4873,    2317,    2318,    2369,    2368
    4874,    2318,    2319,    2370,    2369
    4875,    2319,    2320,    2371,    2370
    4876,    2320,    2321,    2372,    2371
    4877,    2321,    2322,    2373,    2372
    4878,    2322,    2323,    2374,    2373
    4879,    2323,    2324,    2375,    2374
    4880,    2324,    2325,    2376,    2375
    4881,    2325,    2326,    2377,    2376
    4882,    2326,    2327,    2378,    2377
    4883,    2327,    2328,    2379,    2378
    4884,    2328,    2329,    2380,    2379
    4885,    2329,    2330,    2381,    2380
    4886,    2330,    2331,    2382,    2381
    4887,    2331,    2332,    2383,    2382
    4888,    2332,    2333,    2384,    2383
    4889,    2333,    2334,    2385,    2384
    4890,    2334,    2335,    2386,    2385
    4891,    2335,    2336,    2387,    2386
    4892,    2336,    2337,    2388,    2387
    4893,    2337,    2338,    2389,    2388
    4894,    2338,    2339,    2390,    2389
    4895,    2339,    2340,    2391,    2390
    4896,    2340,    2341,    2392,    2391
    4897,    2341,    2342,    2393,    2392
    4898,    2342,    2343,    2394,    2393
    4899,    2343,    2344,    2395,    2394
    4900,    2344,    2345,    2396,    2395
    4901,    2345,    2346,    2397,    2396
    4902,    2347,    2348,    2399,    2398
    4903,    2348,    2349,    2400,    2399
    4904,    2349,    2350,    2401,    2400
    4905,    2350,    2351,    2402,    2401
    4906,    2351,    2352,    2403,    2402
    4907,    2352,    2353,    2404,    2403
    4908,    2353,    2354,    2405,    2404
    4909,    2354,    2355,    2406,    2405
    4910,    2355,    2356,    2407,    2406
    4911,    2356,    2357,    2408,    2407
    4912,    2357,    2358,    2409,    2408
    4913,    2358,    2359,    2410,    2409
    4914,    2359,    2360,    2411,    2410
    4915,    2360,    2361,    2412,    2411
    4916,    2361,    2362,    2413,    2412
    4917,    2362,    2363,    2414,    2413
    4918,    2363,    2364,    2415,    2414
    4919,    2364,    2365,    2416,    2415
    4920,    2365,    2366,    2417,    2416
    4921,    2366,    2367,    2418,    2417
    4922,    2367,    2368,    2419,    2418
    4923,    2368,    2369,    2420,    2419
    4924,    2369,    2370,    2421,    2420
    4925,    2370,    2371,    2422,    2421
    4926,    2371,    2372,    2423,    2422
    4927,    2372,    2373,    2424,    2423
    4928,    2373,    2374,    2425,    2424
    4929,    2374,    2375,    2426,    2425
    4930,    2375,    2376,    2427,    2426
    4931,    2376,    2377,    2428,    2427
    4932,    2377,    2378,    2429,    2428
    4933,    2378,    2379,    2430,    2429
    4934,    2379,    2380,    2431,    2430
    4935,    2380,    2381,    2432,    2431
    4936,    2381,    2382,    2433,    2432
    4937,    2382,    2383,    2434,    2433
    4938,    2383,    2384,    2435,    2434
    4939,    2384,    2385,    2436,    2435
    4940,    2385,    2386,    2437,    2436
    4941,    2386,    2387,    2438,    2437
    4942,    2387,    2388,    2439,    2438
    4943,    2388,    2389,    2440,    2439
    4944,    2389,    2390,    2441,    2440
    4945,    2390,    2391,    2442,    2441
    4946,    2391,    2392,    2443,    2442
    4947,    2392,    2393,    2444,    2443
    4948,    2393,    2394,    2445,    2444
    4949,    2394,    2395,    2446,    2445
    4950,    2395,    2396,    2447,    2446
    4951,    2396,    2397,    2448,    2447
    4952,    2398,    2399,    2450,    2449
    4953,    2399,    2400,    2451,    2450
    4954,    2400,    2401,    2452,    2451
    4955,    2401,    2402,    2453,    2452
    4956,    2402,    2403,    2454,    2453
    4957,    2403,    2404,    2455,    2454
    4958,    2404,    2405,    2456,    2455
    4959,    2405,    2406,    2457,    2456
    4960,    2406,    2407,    2458,    2457
    4961,    2407,    2408,    2459,    2458
    4962,    2408,    2409,    2460,    2459
    4963,    2409,    2410,    2461,    2460
    4964,    2410,    2411,    2462,    2461
    4965,    2411,    2412,    2463,    2462
    4966,    2412,    2413,    2464,    2463
    4967,    2413,    2414,    2465,    2464
    4968,    2414,    2415,    2466,    2465
    4969,    2415,    2416,    2467,    2466
    4970,    2416,    2417,    2468,    2467
    4971,    2417,    2418,    2469,    2468
    4972,    2418,    2419,    2470,    2469
    4973,    2419,    2420,    2471,    2470
    4974,    2420,    2421,    2472,    2471
    4975,    2421,    2422,    2473,    2472
    4976,    2422,    2423,    2474,    2473
    4977,    2423,    2424,    2475,    2474
    4978,    2424,    2425,    2476,    2475
    4979,    2425,    2426,    2477,    2476
    4980,    2426,    2427,    2478,    2477
    4981,    2427,    2428,    2479,    2478
    4982,    2428,    2429,    2480,    2479
    4983,    2429,    2430,    2481,    2480
    4984,    2430,    2431,    2482,    2481
    4985,    2431,    2432,    2483,    2482
    4986,    2432,    2433,    2484,    2483
    4987,    2433,    2434,    2485,    2484
    4988,    2434,    2435,    2486,    2485
    4989,    2435,    2436,    2487,    2486
    4990,    2436,    2437,    2488,    2487
    4991,    2437,    2438,    2489,    2488
    4992,    2438,    2439,    2490,    2489
    4993,    2439,    2440,    2491,    2490
    4994,    2440,    2441,    2492,    2491
    4995,    2441,    2442,    2493,    2492
    4996,    2442,    2443,    2494,    2493
    4997,    2443,    2444,    2495,    2494
    4998,    2444,    2445,    2496,    2495
    4999,    2445,    2446,    2497,    2496
    5000,    2446,    2447,    2498,    2497
    5001,    2447,    2448,    2499,    2498
    5002,    2449,    2450,    2501,    2500
    5003,    2450,    2451,    2502,    2501
    5004,    2451,    2452,    2503,    2502
    5005,    2452,    2453,    2504,    2503
    5006,    2453,    2454,    2505,    2504
    5007,    2454,    2455,    2506,    2505
    5008,    2455,    2456,    2507,    2506
    5009,    2456,    2457,    2508,    2507
    5010,    2457,    2458,    2509,    2508
    5011,    2458,    2459,    2510,    2509
    5012,    2459,    2460,    2511,    2510
    5013,    2460,    2461,    2512,    2511
    5014,    2461,    2462,    2513,    2512
    5015,    2462,    2463,    2514,    2513
    5016,    2463,    2464,    2515,    2514
    5017,    2464,    2465,    2516,    2515
    5018,    2465,    2466,    2517,    2516
    5019,    2466,    2467,    2518,    2517
    5020,    2467,    2468,    2519,    2518
    5021,    2468,    2469,    2520,    2519
    5022,    2469,    2470,    2521,    2520
    5023,    2470,    2471,    2522,    2521
    5024,    2471,    2472,    2523,    2522
    5025,    2472,    2473,    2524,    2523
    5026,    2473,    2474,    2525,    2524
    5027,    2474,    2475,    2526,    2525
    5028,    2475,    2476,    2527,    2526
    5029,    2476,    2477,    2528,    2527
    5030,    2477,    2478,    2529,    2528
    5031,    2478,    2479,    2530,    2529
    5032,    2479,    2480,    2531,    2530
    5033,    2480,    2481,    2532,    2531
    5034,    2481,    2482,    2533,    2532
    5035,    2482,    2483,    2534,    2533
    5036,    2483,    2484,    2535,    2534
    5037,    2484,    2485,    2536,    2535
    5038,    2485,    2486,    2537,    2536
    5039,    2486,    2487,    2538,    2537
    5040,    2487,    2488,    2539,    2538
    5041,    2488,    2489,    2540,    2539
    5042,    2489,    2490,    2541,    2540
    5043,    2490,    2491,    2542,    2541
    5044,    2491,    2492,    2543,    2542
    5045,    2492,    2493,    2544,    2543
    5046,    2493,    2494,    2545,    2544
    5047,    2494,    2495,    2546,    2545
    5048,    2495,    2496,    2547,    2546
    5049,    2496,    2497,    2548,    2547
    5050,    2497,    2498,    2549,    2548
    5051,    2498,    2499,    2550,    2549
    5052,    2500,    2501,    2552,    2551
    5053,    2501,    2502,    2553,    2552
    5054,    2502,    2503,    2554,    2553
    5055,    2503,    2504,    2555,    2554
    5056,    2504,    2505,    2556,    2555
    5057,    2505,    2506,    2557,    2556
    5058,    2506,    2507,    2558,    2557
    5059,    2507,    2508,    2559,    2558
    5060,    2508,    2509,    2560,    2559
    5061,    2509,    2510,    2561,    2560
    5062,    2510,    2511,    2562,    2561
    5063,    2511,    2512,    2563,    2562
    5064,    2512,    2513,    2564,    2563
    5065,    2513,    2514,    2565,    2564
    5066,    2514,    2515,    2566,    2565
    5067,    2515,    2516,    2567,    2566
    5068,    2516,    2517,    2568,    2567
    5069,    2517,    2518,    2569,    2568
    5070,    2518,    2519,    2570,    2569
    5071,    2519,    2520,    2571,    2570
    5072,    2520,    2521,    2572,    2571
    5073,    2521,    2522,    2573,    2572
    5074,    2522,    2523,    2574,    2573
    5075,    2523,    2524,    2575,    2574
    5076,    2524,    2525,    2576,    2575
    5077,    2525,    2526,    2577,    2576
    5078,    2526,    2527,    2578,    2577
    5079,    2527,    2528,    2579,    2578
    5080,    2528,    2529,    2580,    2579
    5081,    2529,    2530,    2581,    2580
    5082,    2530,    2531,    2582,    2581
    5083,    2531,    2532,    2583,    2582
    5084,    2532,    2533,    2584,    2583
    5085,    2533,    2534,    2585,    2584
    5086,    2534,    2535,    2586,    2585
    5087,    2535,    2536,    2587,    2586
    5088,    2536,    2537,    2588,    2587
    5089,    2537,    2538,    2589,    2588
    5090,    2538,    2539,    2590,    2589
    5091,    2539,    2540,    2591,    2590
    5092,    2540,    2541,    2592,    2591
    5093,    2541,    2542,    2593,    2592
    5094,    2542,    2543,    2594,    2593
    5095,    2543,    2544,    2595,    2594
    5096,    2544,    2545,    2596,    2595
    5097,    2545,    2546,    2597,    2596
    5098,    2546,    2547,    2598,    2597
    5099,    2547,    2548,    2599,    2598
    5100,    2548,    2549,    2600,    2599
    5101,    2549,    2550,    2601,    2600
*Element, type=CPE4, elset=UMAT_QUAD
    5203,       1,       2,      53,      52
    5204,       2,       3,      54,      53
    5205,       3,       4,      55,      54
    5206,       4,       5,      56,      55
    5207,       5,       6,      57,      56
    5208,       6,       7,      58,      57
    5209,       7,       8,      59,      58
    5210,       8,       9,      60,      59
    5211,       9,      10,      61,      60
    5212,      10,      11,      62,      61
    5213,      11,      12,      63,      62
    5214,      12,      13,      64,      63
    5215,      13,      14,      65,      64
    5216,      14,      15,      66,      65
    5217,      15,      16,      67,      66
    5218,      16,      17,      68,      67
    5219,      17,      18,      69,      68
    5220,      18,      19,      70,      69
    5221,      19,      20,      71,      70
    5222,      20,      21,      72,      71
    5223,      21,      22,      73,      72
    5224,      22,      23,      74,      73
    5225,      23,      24,      75,      74
    5226,      24,      25,      76,      75
    5227,      25,      26,      77,      76
    5228,      26,      27,      78,      77
    5229,      27,      28,      79,      78
    5230,      28,      29,      80,      79
    5231,      29,      30,      81,      80
    5232,      30,      31,      82,      81
    5233,      31,      32,      83,      82
    5234,      32,      33,      84,      83
    5235,      33,      34,      85,      84
    5236,      34,      35,      86,      85
    5237,      35,      36,      87,      86
    5238,      36,      37,      88,      87
    5239,      37,      38,      89,      88
    5240,      38,      39,      90,      89
    5241,      39,      40,      91,      90
    5242,      40,      41,      92,      91
    5243,      41,      42,      93,      92
    5244,      42,      43,      94,      93
    5245,      43,      44,      95,      94
    5246,      44,      45,      96,      95
    5247,      45,      46,      97,      96
    5248,      46,      47,      98,      97
    5249,      47,      48,      99,      98
    5250,      48,      49,     100,      99
    5251,      49,      50,     101,     100
    5252,      50,      51,     102,     101
    5253,      52,      53,     104,     103
    5254,      53,      54,     105,     104
    5255,      54,      55,     106,     105
    5256,      55,      56,     107,     106
    5257,      56,      57,     108,     107
    5258,      57,      58,     109,     108
    5259,      58,      59,     110,     109
    5260,      59,      60,     111,     110
    5261,      60,      61,     112,     111
    5262,      61,      62,     113,     112
    5263,      62,      63,     114,     113
    5264,      63,      64,     115,     114
    5265,      64,      65,     116,     115
    5266,      65,      66,     117,     116
    5267,      66,      67,     118,     117
    5268,      67,      68,     119,     118
    5269,      68,      69,     120,     119
    5270,      69,      70,     121,     120
    5271,      70,      71,     122,     121
    5272,      71,      72,     123,     122
    5273,      72,      73,     124,     123
    5274,      73,      74,     125,     124
    5275,      74,      75,     126,     125
    5276,      75,      76,     127,     126
    5277,      76,      77,     128,     127
    5278,      77,      78,     129,     128
    5279,      78,      79,     130,     129
    5280,      79,      80,     131,     130
    5281,      80,      81,     132,     131
    5282,      81,      82,     133,     132
    5283,      82,      83,     134,     133
    5284,      83,      84,     135,     134
    5285,      84,      85,     136,     135
    5286,      85,      86,     137,     136
    5287,      86,      87,     138,     137
    5288,      87,      88,     139,     138
    5289,      88,      89,     140,     139
    5290,      89,      90,     141,     140
    5291,      90,      91,     142,     141
    5292,      91,      92,     143,     142
    5293,      92,      93,     144,     143
    5294,      93,      94,     145,     144
    5295,      94,      95,     146,     145
    5296,      95,      96,     147,     146
    5297,      96,      97,     148,     147
    5298,      97,      98,     149,     148
    5299,      98,      99,     150,     149
    5300,      99,     100,     151,     150
    5301,     100,     101,     152,     151
    5302,     101,     102,     153,     152
    5303,     103,     104,     155,     154
    5304,     104,     105,     156,     155
    5305,     105,     106,     157,     156
    5306,     106,     107,     158,     157
    5307,     107,     108,     159,     158
    5308,     108,     109,     160,     159
    5309,     109,     110,     161,     160
    5310,     110,     111,     162,     161
    5311,     111,     112,     163,     162
    5312,     112,     113,     164,     163
    5313,     113,     114,     165,     164
    5314,     114,     115,     166,     165
    5315,     115,     116,     167,     166
    5316,     116,     117,     168,     167
    5317,     117,     118,     169,     168
    5318,     118,     119,     170,     169
    5319,     119,     120,     171,     170
    5320,     120,     121,     172,     171
    5321,     121,     122,     173,     172
    5322,     122,     123,     174,     173
    5323,     123,     124,     175,     174
    5324,     124,     125,     176,     175
    5325,     125,     126,     177,     176
    5326,     126,     127,     178,     177
    5327,     127,     128,     179,     178
    5328,     128,     129,     180,     179
    5329,     129,     130,     181,     180
    5330,     130,     131,     182,     181
    5331,     131,     132,     183,     182
    5332,     132,     133,     184,     183
    5333,     133,     134,     185,     184
    5334,     134,     135,     186,     185
    5335,     135,     136,     187,     186
    5336,     136,     137,     188,     187
    5337,     137,     138,     189,     188
    5338,     138,     139,     190,     189
    5339,     139,     140,     191,     190
    5340,     140,     141,     192,     191
    5341,     141,     142,     193,     192
    5342,     142,     143,     194,     193
    5343,     143,     144,     195,     194
    5344,     144,     145,     196,     195
    5345,     145,     146,     197,     196
    5346,     146,     147,     198,     197
    5347,     147,     148,     199,     198
    5348,     148,     149,     200,     199
    5349,     149,     150,     201,     200
    5350,     150,     151,     202,     201
    5351,     151,     152,     203,     202
    5352,     152,     153,     204,     203
    5353,     154,     155,     206,     205
    5354,     155,     156,     207,     206
    5355,     156,     157,     208,     207
    5356,     157,     158,     209,     208
    5357,     158,     159,     210,     209
    5358,     159,     160,     211,     210
    5359,     160,     161,     212,     211
    5360,     161,     162,     213,     212
    5361,     162,     163,     214,     213
    5362,     163,     164,     215,     214
    5363,     164,     165,     216,     215
    5364,     165,     166,     217,     216
    5365,     166,     167,     218,     217
    5366,     167,     168,     219,     218
    5367,     168,     169,     220,     219
    5368,     169,     170,     221,     220
    5369,     170,     171,     222,     221
    5370,     171,     172,     223,     222
    5371,     172,     173,     224,     223
    5372,     173,     174,     225,     224
    5373,     174,     175,     226,     225
    5374,     175,     176,     227,     226
    5375,     176,     177,     228,     227
    5376,     177,     178,     229,     228
    5377,     178,     179,     230,     229
    5378,     179,     180,     231,     230
    5379,     180,     181,     232,     231
    5380,     181,     182,     233,     232
    5381,     182,     183,     234,     233
    5382,     183,     184,     235,     234
    5383,     184,     185,     236,     235
    5384,     185,     186,     237,     236
    5385,     186,     187,     238,     237
    5386,     187,     188,     239,     238
    5387,     188,     189,     240,     239
    5388,     189,     190,     241,     240
    5389,     190,     191,     242,     241
    5390,     191,     192,     243,     242
    5391,     192,     193,     244,     243
    5392,     193,     194,     245,     244
    5393,     194,     195,     246,     245
    5394,     195,     196,     247,     246
    5395,     196,     197,     248,     247
    5396,     197,     198,     249,     248
    5397,     198,     199,     250,     249
    5398,     199,     200,     251,     250
    5399,     200,     201,     252,     251
    5400,     201,     202,     253,     252
    5401,     202,     203,     254,     253
    5402,     203,     204,     255,     254
    5403,     205,     206,     257,     256
    5404,     206,     207,     258,     257
    5405,     207,     208,     259,     258
    5406,     208,     209,     260,     259
    5407,     209,     210,     261,     260
    5408,     210,     211,     262,     261
    5409,     211,     212,     263,     262
    5410,     212,     213,     264,     263
    5411,     213,     214,     265,     264
    5412,     214,     215,     266,     265
    5413,     215,     216,     267,     266
    5414,     216,     217,     268,     267
    5415,     217,     218,     269,     268
    5416,     218,     219,     270,     269
    5417,     219,     220,     271,     270
    5418,     220,     221,     272,     271
    5419,     221,     222,     273,     272
    5420,     222,     223,     274,     273
    5421,     223,     224,     275,     274
    5422,     224,     225,     276,     275
    5423,     225,     226,     277,     276
    5424,     226,     227,     278,     277
    5425,     227,     228,     279,     278
    5426,     228,     229,     280,     279
    5427,     229,     230,     281,     280
    5428,     230,     231,     282,     281
    5429,     231,     232,     283,     282
    5430,     232,     233,     284,     283
    5431,     233,     234,     285,     284
    5432,     234,     235,     286,     285
    5433,     235,     236,     287,     286
    5434,     236,     237,     288,     287
    5435,     237,     238,     289,     288
    5436,     238,     239,     290,     289
    5437,     239,     240,     291,     290
    5438,     240,     241,     292,     291
    5439,     241,     242,     293,     292
    5440,     242,     243,     294,     293
    5441,     243,     244,     295,     294
    5442,     244,     245,     296,     295
    5443,     245,     246,     297,     296
    5444,     246,     247,     298,     297
    5445,     247,     248,     299,     298
    5446,     248,     249,     300,     299
    5447,     249,     250,     301,     300
    5448,     250,     251,     302,     301
    5449,     251,     252,     303,     302
    5450,     252,     253,     304,     303
    5451,     253,     254,     305,     304
    5452,     254,     255,     306,     305
    5453,     256,     257,     308,     307
    5454,     257,     258,     309,     308
    5455,     258,     259,     310,     309
    5456,     259,     260,     311,     310
    5457,     260,     261,     312,     311
    5458,     261,     262,     313,     312
    5459,     262,     263,     314,     313
    5460,     263,     264,     315,     314
    5461,     264,     265,     316,     315
    5462,     265,     266,     317,     316
    5463,     266,     267,     318,     317
    5464,     267,     268,     319,     318
    5465,     268,     269,     320,     319
    5466,     269,     270,     321,     320
    5467,     270,     271,     322,     321
    5468,     271,     272,     323,     322
    5469,     272,     273,     324,     323
    5470,     273,     274,     325,     324
    5471,     274,     275,     326,     325
    5472,     275,     276,     327,     326
    5473,     276,     277,     328,     327
    5474,     277,     278,     329,     328
    5475,     278,     279,     330,     329
    5476,     279,     280,     331,     330
    5477,     280,     281,     332,     331
    5478,     281,     282,     333,     332
    5479,     282,     283,     334,     333
    5480,     283,     284,     335,     334
    5481,     284,     285,     336,     335
    5482,     285,     286,     337,     336
    5483,     286,     287,     338,     337
    5484,     287,     288,     339,     338
    5485,     288,     289,     340,     339
    5486,     289,     290,     341,     340
    5487,     290,     291,     342,     341
    5488,     291,     292,     343,     342
    5489,     292,     293,     344,     343
    5490,     293,     294,     345,     344
    5491,     294,     295,     346,     345
    5492,     295,     296,     347,     346
    5493,     296,     297,     348,     347
    5494,     297,     298,     349,     348
    5495,     298,     299,     350,     349
    5496,     299,     300,     351,     350
    5497,     300,     301,     352,     351
    5498,     301,     302,     353,     352
    5499,     302,     303,     354,     353
    5500,     303,     304,     355,     354
    5501,     304,     305,     356,     355
    5502,     305,     306,     357,     356
    5503,     307,     308,     359,     358
    5504,     308,     309,     360,     359
    5505,     309,     310,     361,     360
    5506,     310,     311,     362,     361
    5507,     311,     312,     363,     362
    5508,     312,     313,     364,     363
    5509,     313,     314,     365,     364
    5510,     314,     315,     366,     365
    5511,     315,     316,     367,     366
    5512,     316,     317,     368,     367
    5513,     317,     318,     369,     368
    5514,     318,     319,     370,     369
    5515,     319,     320,     371,     370
    5516,     320,     321,     372,     371
    5517,     321,     322,     373,     372
    5518,     322,     323,     374,     373
    5519,     323,     324,     375,     374
    5520,     324,     325,     376,     375
    5521,     325,     326,     377,     376
    5522,     326,     327,     378,     377
    5523,     327,     328,     379,     378
    5524,     328,     329,     380,     379
    5525,     329,     330,     381,     380
    5526,     330,     331,     382,     381
    5527,     331,     332,     383,     382
    5528,     332,     333,     384,     383
    5529,     333,     334,     385,     384
    5530,     334,     335,     386,     385
    5531,     335,     336,     387,     386
    5532,     336,     337,     388,     387
    5533,     337,     338,     389,     388
    5534,     338,     339,     390,     389
    5535,     339,     340,     391,     390
    5536,     340,     341,     392,     391
    5537,     341,     342,     393,     392
    5538,     342,     343,     394,     393
    5539,     343,     344,     395,     394
    5540,     344,     345,     396,     395
    5541,     345,     346,     397,     396
    5542,     346,     347,     398,     397
    5543,     347,     348,     399,     398
    5544,     348,     349,     400,     399
    5545,     349,     350,     401,     400
    5546,     350,     351,     402,     401
    5547,     351,     352,     403,     402
    5548,     352,     353,     404,     403
    5549,     353,     354,     405,     404
    5550,     354,     355,     406,     405
    5551,     355,     356,     407,     406
    5552,     356,     357,     408,     407
    5553,     358,     359,     410,     409
    5554,     359,     360,     411,     410
    5555,     360,     361,     412,     411
    5556,     361,     362,     413,     412
    5557,     362,     363,     414,     413
    5558,     363,     364,     415,     414
    5559,     364,     365,     416,     415
    5560,     365,     366,     417,     416
    5561,     366,     367,     418,     417
    5562,     367,     368,     419,     418
    5563,     368,     369,     420,     419
    5564,     369,     370,     421,     420
    5565,     370,     371,     422,     421
    5566,     371,     372,     423,     422
    5567,     372,     373,     424,     423
    5568,     373,     374,     425,     424
    5569,     374,     375,     426,     425
    5570,     375,     376,     427,     426
    5571,     376,     377,     428,     427
    5572,     377,     378,     429,     428
    5573,     378,     379,     430,     429
    5574,     379,     380,     431,     430
    5575,     380,     381,     432,     431
    5576,     381,     382,     433,     432
    5577,     382,     383,     434,     433
    5578,     383,     384,     435,     434
    5579,     384,     385,     436,     435
    5580,     385,     386,     437,     436
    5581,     386,     387,     438,     437
    5582,     387,     388,     439,     438
    5583,     388,     389,     440,     439
    5584,     389,     390,     441,     440
    5585,     390,     391,     442,     441
    5586,     391,     392,     443,     442
    5587,     392,     393,     444,     443
    5588,     393,     394,     445,     444
    5589,     394,     395,     446,     445
    5590,     395,     396,     447,     446
    5591,     396,     397,     448,     447
    5592,     397,     398,     449,     448
    5593,     398,     399,     450,     449
    5594,     399,     400,     451,     450
    5595,     400,     401,     452,     451
    5596,     401,     402,     453,     452
    5597,     402,     403,     454,     453
    5598,     403,     404,     455,     454
    5599,     404,     405,     456,     455
    5600,     405,     406,     457,     456
    5601,     406,     407,     458,     457
    5602,     407,     408,     459,     458
    5603,     409,     410,     461,     460
    5604,     410,     411,     462,     461
    5605,     411,     412,     463,     462
    5606,     412,     413,     464,     463
    5607,     413,     414,     465,     464
    5608,     414,     415,     466,     465
    5609,     415,     416,     467,     466
    5610,     416,     417,     468,     467
    5611,     417,     418,     469,     468
    5612,     418,     419,     470,     469
    5613,     419,     420,     471,     470
    5614,     420,     421,     472,     471
    5615,     421,     422,     473,     472
    5616,     422,     423,     474,     473
    5617,     423,     424,     475,     474
    5618,     424,     425,     476,     475
    5619,     425,     426,     477,     476
    5620,     426,     427,     478,     477
    5621,     427,     428,     479,     478
    5622,     428,     429,     480,     479
    5623,     429,     430,     481,     480
    5624,     430,     431,     482,     481
    5625,     431,     432,     483,     482
    5626,     432,     433,     484,     483
    5627,     433,     434,     485,     484
    5628,     434,     435,     486,     485
    5629,     435,     436,     487,     486
    5630,     436,     437,     488,     487
    5631,     437,     438,     489,     488
    5632,     438,     439,     490,     489
    5633,     439,     440,     491,     490
    5634,     440,     441,     492,     491
    5635,     441,     442,     493,     492
    5636,     442,     443,     494,     493
    5637,     443,     444,     495,     494
    5638,     444,     445,     496,     495
    5639,     445,     446,     497,     496
    5640,     446,     447,     498,     497
    5641,     447,     448,     499,     498
    5642,     448,     449,     500,     499
    5643,     449,     450,     501,     500
    5644,     450,     451,     502,     501
    5645,     451,     452,     503,     502
    5646,     452,     453,     504,     503
    5647,     453,     454,     505,     504
    5648,     454,     455,     506,     505
    5649,     455,     456,     507,     506
    5650,     456,     457,     508,     507
    5651,     457,     458,     509,     508
    5652,     458,     459,     510,     509
    5653,     460,     461,     512,     511
    5654,     461,     462,     513,     512
    5655,     462,     463,     514,     513
    5656,     463,     464,     515,     514
    5657,     464,     465,     516,     515
    5658,     465,     466,     517,     516
    5659,     466,     467,     518,     517
    5660,     467,     468,     519,     518
    5661,     468,     469,     520,     519
    5662,     469,     470,     521,     520
    5663,     470,     471,     522,     521
    5664,     471,     472,     523,     522
    5665,     472,     473,     524,     523
    5666,     473,     474,     525,     524
    5667,     474,     475,     526,     525
    5668,     475,     476,     527,     526
    5669,     476,     477,     528,     527
    5670,     477,     478,     529,     528
    5671,     478,     479,     530,     529
    5672,     479,     480,     531,     530
    5673,     480,     481,     532,     531
    5674,     481,     482,     533,     532
    5675,     482,     483,     534,     533
    5676,     483,     484,     535,     534
    5677,     484,     485,     536,     535
    5678,     485,     486,     537,     536
    5679,     486,     487,     538,     537
    5680,     487,     488,     539,     538
    5681,     488,     489,     540,     539
    5682,     489,     490,     541,     540
    5683,     490,     491,     542,     541
    5684,     491,     492,     543,     542
    5685,     492,     493,     544,     543
    5686,     493,     494,     545,     544
    5687,     494,     495,     546,     545
    5688,     495,     496,     547,     546
    5689,     496,     497,     548,     547
    5690,     497,     498,     549,     548
    5691,     498,     499,     550,     549
    5692,     499,     500,     551,     550
    5693,     500,     501,     552,     551
    5694,     501,     502,     553,     552
    5695,     502,     503,     554,     553
    5696,     503,     504,     555,     554
    5697,     504,     505,     556,     555
    5698,     505,     506,     557,     556
    5699,     506,     507,     558,     557
    5700,     507,     508,     559,     558
    5701,     508,     509,     560,     559
    5702,     509,     510,     561,     560
    5703,     511,     512,     563,     562
    5704,     512,     513,     564,     563
    5705,     513,     514,     565,     564
    5706,     514,     515,     566,     565
    5707,     515,     516,     567,     566
    5708,     516,     517,     568,     567
    5709,     517,     518,     569,     568
    5710,     518,     519,     570,     569
    5711,     519,     520,     571,     570
    5712,     520,     521,     572,     571
    5713,     521,     522,     573,     572
    5714,     522,     523,     574,     573
    5715,     523,     524,     575,     574
    5716,     524,     525,     576,     575
    5717,     525,     526,     577,     576
    5718,     526,     527,     578,     577
    5719,     527,     528,     579,     578
    5720,     528,     529,     580,     579
    5721,     529,     530,     581,     580
    5722,     530,     531,     582,     581
    5723,     531,     532,     583,     582
    5724,     532,     533,     584,     583
    5725,     533,     534,     585,     584
    5726,     534,     535,     586,     585
    5727,     535,     536,     587,     586
    5728,     536,     537,     588,     587
    5729,     537,     538,     589,     588
    5730,     538,     539,     590,     589
    5731,     539,     540,     591,     590
    5732,     540,     541,     592,     591
    5733,     541,     542,     593,     592
    5734,     542,     543,     594,     593
    5735,     543,     544,     595,     594
    5736,     544,     545,     596,     595
    5737,     545,     546,     597,     596
    5738,     546,     547,     598,     597
    5739,     547,     548,     599,     598
    5740,     548,     549,     600,     599
    5741,     549,     550,     601,     600
    5742,     550,     551,     602,     601
    5743,     551,     552,     603,     602
    5744,     552,     553,     604,     603
    5745,     553,     554,     605,     604
    5746,     554,     555,     606,     605
    5747,     555,     556,     607,     606
    5748,     556,     557,     608,     607
    5749,     557,     558,     609,     608
    5750,     558,     559,     610,     609
    5751,     559,     560,     611,     610
    5752,     560,     561,     612,     611
    5753,     562,     563,     614,     613
    5754,     563,     564,     615,     614
    5755,     564,     565,     616,     615
    5756,     565,     566,     617,     616
    5757,     566,     567,     618,     617
    5758,     567,     568,     619,     618
    5759,     568,     569,     620,     619
    5760,     569,     570,     621,     620
    5761,     570,     571,     622,     621
    5762,     571,     572,     623,     622
    5763,     572,     573,     624,     623
    5764,     573,     574,     625,     624
    5765,     574,     575,     626,     625
    5766,     575,     576,     627,     626
    5767,     576,     577,     628,     627
    5768,     577,     578,     629,     628
    5769,     578,     579,     630,     629
    5770,     579,     580,     631,     630
    5771,     580,     581,     632,     631
    5772,     581,     582,     633,     632
    5773,     582,     583,     634,     633
    5774,     583,     584,     635,     634
    5775,     584,     585,     636,     635
    5776,     585,     586,     637,     636
    5777,     586,     587,     638,     637
    5778,     587,     588,     639,     638
    5779,     588,     589,     640,     639
    5780,     589,     590,     641,     640
    5781,     590,     591,     642,     641
    5782,     591,     592,     643,     642
    5783,     592,     593,     644,     643
    5784,     593,     594,     645,     644
    5785,     594,     595,     646,     645
    5786,     595,     596,     647,     646
    5787,     596,     597,     648,     647
    5788,     597,     598,     649,     648
    5789,     598,     599,     650,     649
    5790,     599,     600,     651,     650
    5791,     600,     601,     652,     651
    5792,     601,     602,     653,     652
    5793,     602,     603,     654,     653
    5794,     603,     604,     655,     654
    5795,     604,     605,     656,     655
    5796,     605,     606,     657,     656
    5797,     606,     607,     658,     657
    5798,     607,     608,     659,     658
    5799,     608,     609,     660,     659
    5800,     609,     610,     661,     660
    5801,     610,     611,     662,     661
    5802,     611,     612,     663,     662
    5803,     613,     614,     665,     664
    5804,     614,     615,     666,     665
    5805,     615,     616,     667,     666
    5806,     616,     617,     668,     667
    5807,     617,     618,     669,     668
    5808,     618,     619,     670,     669
    5809,     619,     620,     671,     670
    5810,     620,     621,     672,     671
    5811,     621,     622,     673,     672
    5812,     622,     623,     674,     673
    5813,     623,     624,     675,     674
    5814,     624,     625,     676,     675
    5815,     625,     626,     677,     676
    5816,     626,     627,     678,     677
    5817,     627,     628,     679,     678
    5818,     628,     629,     680,     679
    5819,     629,     630,     681,     680
    5820,     630,     631,     682,     681
    5821,     631,     632,     683,     682
    5822,     632,     633,     684,     683
    5823,     633,     634,     685,     684
    5824,     634,     635,     686,     685
    5825,     635,     636,     687,     686
    5826,     636,     637,     688,     687
    5827,     637,     638,     689,     688
    5828,     638,     639,     690,     689
    5829,     639,     640,     691,     690
    5830,     640,     641,     692,     691
    5831,     641,     642,     693,     692
    5832,     642,     643,     694,     693
    5833,     643,     644,     695,     694
    5834,     644,     645,     696,     695
    5835,     645,     646,     697,     696
    5836,     646,     647,     698,     697
    5837,     647,     648,     699,     698
    5838,     648,     649,     700,     699
    5839,     649,     650,     701,     700
    5840,     650,     651,     702,     701
    5841,     651,     652,     703,     702
    5842,     652,     653,     704,     703
    5843,     653,     654,     705,     704
    5844,     654,     655,     706,     705
    5845,     655,     656,     707,     706
    5846,     656,     657,     708,     707
    5847,     657,     658,     709,     708
    5848,     658,     659,     710,     709
    5849,     659,     660,     711,     710
    5850,     660,     661,     712,     711
    5851,     661,     662,     713,     712
    5852,     662,     663,     714,     713
    5853,     664,     665,     716,     715
    5854,     665,     666,     717,     716
    5855,     666,     667,     718,     717
    5856,     667,     668,     719,     718
    5857,     668,     669,     720,     719
    5858,     669,     670,     721,     720
    5859,     670,     671,     722,     721
    5860,     671,     672,     723,     722
    5861,     672,     673,     724,     723
    5862,     673,     674,     725,     724
    5863,     674,     675,     726,     725
    5864,     675,     676,     727,     726
    5865,     676,     677,     728,     727
    5866,     677,     678,     729,     728
    5867,     678,     679,     730,     729
    5868,     679,     680,     731,     730
    5869,     680,     681,     732,     731
    5870,     681,     682,     733,     732
    5871,     682,     683,     734,     733
    5872,     683,     684,     735,     734
    5873,     684,     685,     736,     735
    5874,     685,     686,     737,     736
    5875,     686,     687,     738,     737
    5876,     687,     688,     739,     738
    5877,     688,     689,     740,     739
    5878,     689,     690,     741,     740
    5879,     690,     691,     742,     741
    5880,     691,     692,     743,     742
    5881,     692,     693,     744,     743
    5882,     693,     694,     745,     744
    5883,     694,     695,     746,     745
    5884,     695,     696,     747,     746
    5885,     696,     697,     748,     747
    5886,     697,     698,     749,     748
    5887,     698,     699,     750,     749
    5888,     699,     700,     751,     750
    5889,     700,     701,     752,     751
    5890,     701,     702,     753,     752
    5891,     702,     703,     754,     753
    5892,     703,     704,     755,     754
    5893,     704,     705,     756,     755
    5894,     705,     706,     757,     756
    5895,     706,     707,     758,     757
    5896,     707,     708,     759,     758
    5897,     708,     709,     760,     759
    5898,     709,     710,     761,     760
    5899,     710,     711,     762,     761
    5900,     711,     712,     763,     762
    5901,     712,     713,     764,     763
    5902,     713,     714,     765,     764
    5903,     715,     716,     767,     766
    5904,     716,     717,     768,     767
    5905,     717,     718,     769,     768
    5906,     718,     719,     770,     769
    5907,     719,     720,     771,     770
    5908,     720,     721,     772,     771
    5909,     721,     722,     773,     772
    5910,     722,     723,     774,     773
    5911,     723,     724,     775,     774
    5912,     724,     725,     776,     775
    5913,     725,     726,     777,     776
    5914,     726,     727,     778,     777
    5915,     727,     728,     779,     778
    5916,     728,     729,     780,     779
    5917,     729,     730,     781,     780
    5918,     730,     731,     782,     781
    5919,     731,     732,     783,     782
    5920,     732,     733,     784,     783
    5921,     733,     734,     785,     784
    5922,     734,     735,     786,     785
    5923,     735,     736,     787,     786
    5924,     736,     737,     788,     787
    5925,     737,     738,     789,     788
    5926,     738,     739,     790,     789
    5927,     739,     740,     791,     790
    5928,     740,     741,     792,     791
    5929,     741,     742,     793,     792
    5930,     742,     743,     794,     793
    5931,     743,     744,     795,     794
    5932,     744,     745,     796,     795
    5933,     745,     746,     797,     796
    5934,     746,     747,     798,     797
    5935,     747,     748,     799,     798
    5936,     748,     749,     800,     799
    5937,     749,     750,     801,     800
    5938,     750,     751,     802,     801
    5939,     751,     752,     803,     802
    5940,     752,     753,     804,     803
    5941,     753,     754,     805,     804
    5942,     754,     755,     806,     805
    5943,     755,     756,     807,     806
    5944,     756,     757,     808,     807
    5945,     757,     758,     809,     808
    5946,     758,     759,     810,     809
    5947,     759,     760,     811,     810
    5948,     760,     761,     812,     811
    5949,     761,     762,     813,     812
    5950,     762,     763,     814,     813
    5951,     763,     764,     815,     814
    5952,     764,     765,     816,     815
    5953,     766,     767,     818,     817
    5954,     767,     768,     819,     818
    5955,     768,     769,     820,     819
    5956,     769,     770,     821,     820
    5957,     770,     771,     822,     821
    5958,     771,     772,     823,     822
    5959,     772,     773,     824,     823
    5960,     773,     774,     825,     824
    5961,     774,     775,     826,     825
    5962,     775,     776,     827,     826
    5963,     776,     777,     828,     827
    5964,     777,     778,     829,     828
    5965,     778,     779,     830,     829
    5966,     779,     780,     831,     830
    5967,     780,     781,     832,     831
    5968,     781,     782,     833,     832
    5969,     782,     783,     834,     833
    5970,     783,     784,     835,     834
    5971,     784,     785,     836,     835
    5972,     785,     786,     837,     836
    5973,     786,     787,     838,     837
    5974,     787,     788,     839,     838
    5975,     788,     789,     840,     839
    5976,     789,     790,     841,     840
    5977,     790,     791,     842,     841
    5978,     791,     792,     843,     842
    5979,     792,     793,     844,     843
    5980,     793,     794,     845,     844
    5981,     794,     795,     846,     845
    5982,     795,     796,     847,     846
    5983,     796,     797,     848,     847
    5984,     797,     798,     849,     848
    5985,     798,     799,     850,     849
    5986,     799,     800,     851,     850
    5987,     800,     801,     852,     851
    5988,     801,     802,     853,     852
    5989,     802,     803,     854,     853
    5990,     803,     804,     855,     854
    5991,     804,     805,     856,     855
    5992,     805,     806,     857,     856
    5993,     806,     807,     858,     857
    5994,     807,     808,     859,     858
    5995,     808,     809,     860,     859
    5996,     809,     810,     861,     860
    5997,     810,     811,     862,     861
    5998,     811,     812,     863,     862
    5999,     812,     813,     864,     863
    6000,     813,     814,     865,     864
    6001,     814,     815,     866,     865
    6002,     815,     816,     867,     866
    6003,     817,     818,     869,     868
    6004,     818,     819,     870,     869
    6005,     819,     820,     871,     870
    6006,     820,     821,     872,     871
    6007,     821,     822,     873,     872
    6008,     822,     823,     874,     873
    6009,     823,     824,     875,     874
    6010,     824,     825,     876,     875
    6011,     825,     826,     877,     876
    6012,     826,     827,     878,     877
    6013,     827,     828,     879,     878
    6014,     828,     829,     880,     879
    6015,     829,     830,     881,     880
    6016,     830,     831,     882,     881
    6017,     831,     832,     883,     882
    6018,     832,     833,     884,     883
    6019,     833,     834,     885,     884
    6020,     834,     835,     886,     885
    6021,     835,     836,     887,     886
    6022,     836,     837,     888,     887
    6023,     837,     838,     889,     888
    6024,     838,     839,     890,     889
    6025,     839,     840,     891,     890
    6026,     840,     841,     892,     891
    6027,     841,     842,     893,     892
    6028,     842,     843,     894,     893
    6029,     843,     844,     895,     894
    6030,     844,     845,     896,     895
    6031,     845,     846,     897,     896
    6032,     846,     847,     898,     897
    6033,     847,     848,     899,     898
    6034,     848,     849,     900,     899
    6035,     849,     850,     901,     900
    6036,     850,     851,     902,     901
    6037,     851,     852,     903,     902
    6038,     852,     853,     904,     903
    6039,     853,     854,     905,     904
    6040,     854,     855,     906,     905
    6041,     855,     856,     907,     906
    6042,     856,     857,     908,     907
    6043,     857,     858,     909,     908
    6044,     858,     859,     910,     909
    6045,     859,     860,     911,     910
    6046,     860,     861,     912,     911
    6047,     861,     862,     913,     912
    6048,     862,     863,     914,     913
    6049,     863,     864,     915,     914
    6050,     864,     865,     916,     915
    6051,     865,     866,     917,     916
    6052,     866,     867,     918,     917
    6053,     868,     869,     920,     919
    6054,     869,     870,     921,     920
    6055,     870,     871,     922,     921
    6056,     871,     872,     923,     922
    6057,     872,     873,     924,     923
    6058,     873,     874,     925,     924
    6059,     874,     875,     926,     925
    6060,     875,     876,     927,     926
    6061,     876,     877,     928,     927
    6062,     877,     878,     929,     928
    6063,     878,     879,     930,     929
    6064,     879,     880,     931,     930
    6065,     880,     881,     932,     931
    6066,     881,     882,     933,     932
    6067,     882,     883,     934,     933
    6068,     883,     884,     935,     934
    6069,     884,     885,     936,     935
    6070,     885,     886,     937,     936
    6071,     886,     887,     938,     937
    6072,     887,     888,     939,     938
    6073,     888,     889,     940,     939
    6074,     889,     890,     941,     940
    6075,     890,     891,     942,     941
    6076,     891,     892,     943,     942
    6077,     892,     893,     944,     943
    6078,     893,     894,     945,     944
    6079,     894,     895,     946,     945
    6080,     895,     896,     947,     946
    6081,     896,     897,     948,     947
    6082,     897,     898,     949,     948
    6083,     898,     899,     950,     949
    6084,     899,     900,     951,     950
    6085,     900,     901,     952,     951
    6086,     901,     902,     953,     952
    6087,     902,     903,     954,     953
    6088,     903,     904,     955,     954
    6089,     904,     905,     956,     955
    6090,     905,     906,     957,     956
    6091,     906,     907,     958,     957
    6092,     907,     908,     959,     958
    6093,     908,     909,     960,     959
    6094,     909,     910,     961,     960
    6095,     910,     911,     962,     961
    6096,     911,     912,     963,     962
    6097,     912,     913,     964,     963
    6098,     913,     914,     965,     964
    6099,     914,     915,     966,     965
    6100,     915,     916,     967,     966
    6101,     916,     917,     968,     967
    6102,     917,     918,     969,     968
    6103,     919,     920,     971,     970
    6104,     920,     921,     972,     971
    6105,     921,     922,     973,     972
    6106,     922,     923,     974,     973
    6107,     923,     924,     975,     974
    6108,     924,     925,     976,     975
    6109,     925,     926,     977,     976
    6110,     926,     927,     978,     977
    6111,     927,     928,     979,     978
    6112,     928,     929,     980,     979
    6113,     929,     930,     981,     980
    6114,     930,     931,     982,     981
    6115,     931,     932,     983,     982
    6116,     932,     933,     984,     983
    6117,     933,     934,     985,     984
    6118,     934,     935,     986,     985
    6119,     935,     936,     987,     986
    6120,     936,     937,     988,     987
    6121,     937,     938,     989,     988
    6122,     938,     939,     990,     989
    6123,     939,     940,     991,     990
    6124,     940,     941,     992,     991
    6125,     941,     942,     993,     992
    6126,     942,     943,     994,     993
    6127,     943,     944,     995,     994
    6128,     944,     945,     996,     995
    6129,     945,     946,     997,     996
    6130,     946,     947,     998,     997
    6131,     947,     948,     999,     998
    6132,     948,     949,    1000,     999
    6133,     949,     950,    1001,    1000
    6134,     950,     951,    1002,    1001
    6135,     951,     952,    1003,    1002
    6136,     952,     953,    1004,    1003
    6137,     953,     954,    1005,    1004
    6138,     954,     955,    1006,    1005
    6139,     955,     956,    1007,    1006
    6140,     956,     957,    1008,    1007
    6141,     957,     958,    1009,    1008
    6142,     958,     959,    1010,    1009
    6143,     959,     960,    1011,    1010
    6144,     960,     961,    1012,    1011
    6145,     961,     962,    1013,    1012
    6146,     962,     963,    1014,    1013
    6147,     963,     964,    1015,    1014
    6148,     964,     965,    1016,    1015
    6149,     965,     966,    1017,    1016
    6150,     966,     967,    1018,    1017
    6151,     967,     968,    1019,    1018
    6152,     968,     969,    1020,    1019
    6153,     970,     971,    1022,    1021
    6154,     971,     972,    1023,    1022
    6155,     972,     973,    1024,    1023
    6156,     973,     974,    1025,    1024
    6157,     974,     975,    1026,    1025
    6158,     975,     976,    1027,    1026
    6159,     976,     977,    1028,    1027
    6160,     977,     978,    1029,    1028
    6161,     978,     979,    1030,    1029
    6162,     979,     980,    1031,    1030
    6163,     980,     981,    1032,    1031
    6164,     981,     982,    1033,    1032
    6165,     982,     983,    1034,    1033
    6166,     983,     984,    1035,    1034
    6167,     984,     985,    1036,    1035
    6168,     985,     986,    1037,    1036
    6169,     986,     987,    1038,    1037
    6170,     987,     988,    1039,    1038
    6171,     988,     989,    1040,    1039
    6172,     989,     990,    1041,    1040
    6173,     990,     991,    1042,    1041
    6174,     991,     992,    1043,    1042
    6175,     992,     993,    1044,    1043
    6176,     993,     994,    1045,    1044
    6177,     994,     995,    1046,    1045
    6178,     995,     996,    1047,    1046
    6179,     996,     997,    1048,    1047
    6180,     997,     998,    1049,    1048
    6181,     998,     999,    1050,    1049
    6182,     999,    1000,    1051,    1050
    6183,    1000,    1001,    1052,    1051
    6184,    1001,    1002,    1053,    1052
    6185,    1002,    1003,    1054,    1053
    6186,    1003,    1004,    1055,    1054
    6187,    1004,    1005,    1056,    1055
    6188,    1005,    1006,    1057,    1056
    6189,    1006,    1007,    1058,    1057
    6190,    1007,    1008,    1059,    1058
    6191,    1008,    1009,    1060,    1059
    6192,    1009,    1010,    1061,    1060
    6193,    1010,    1011,    1062,    1061
    6194,    1011,    1012,    1063,    1062
    6195,    1012,    1013,    1064,    1063
    6196,    1013,    1014,    1065,    1064
    6197,    1014,    1015,    1066,    1065
    6198,    1015,    1016,    1067,    1066
    6199,    1016,    1017,    1068,    1067
    6200,    1017,    1018,    1069,    1068
    6201,    1018,    1019,    1070,    1069
    6202,    1019,    1020,    1071,    1070
    6203,    1021,    1022,    1073,    1072
    6204,    1022,    1023,    1074,    1073
    6205,    1023,    1024,    1075,    1074
    6206,    1024,    1025,    1076,    1075
    6207,    1025,    1026,    1077,    1076
    6208,    1026,    1027,    1078,    1077
    6209,    1027,    1028,    1079,    1078
    6210,    1028,    1029,    1080,    1079
    6211,    1029,    1030,    1081,    1080
    6212,    1030,    1031,    1082,    1081
    6213,    1031,    1032,    1083,    1082
    6214,    1032,    1033,    1084,    1083
    6215,    1033,    1034,    1085,    1084
    6216,    1034,    1035,    1086,    1085
    6217,    1035,    1036,    1087,    1086
    6218,    1036,    1037,    1088,    1087
    6219,    1037,    1038,    1089,    1088
    6220,    1038,    1039,    1090,    1089
    6221,    1039,    1040,    1091,    1090
    6222,    1040,    1041,    1092,    1091
    6223,    1041,    1042,    1093,    1092
    6224,    1042,    1043,    1094,    1093
    6225,    1043,    1044,    1095,    1094
    6226,    1044,    1045,    1096,    1095
    6227,    1045,    1046,    1097,    1096
    6228,    1046,    1047,    1098,    1097
    6229,    1047,    1048,    1099,    1098
    6230,    1048,    1049,    1100,    1099
    6231,    1049,    1050,    1101,    1100
    6232,    1050,    1051,    1102,    1101
    6233,    1051,    1052,    1103,    1102
    6234,    1052,    1053,    1104,    1103
    6235,    1053,    1054,    1105,    1104
    6236,    1054,    1055,    1106,    1105
    6237,    1055,    1056,    1107,    1106
    6238,    1056,    1057,    1108,    1107
    6239,    1057,    1058,    1109,    1108
    6240,    1058,    1059,    1110,    1109
    6241,    1059,    1060,    1111,    1110
    6242,    1060,    1061,    1112,    1111
    6243,    1061,    1062,    1113,    1112
    6244,    1062,    1063,    1114,    1113
    6245,    1063,    1064,    1115,    1114
    6246,    1064,    1065,    1116,    1115
    6247,    1065,    1066,    1117,    1116
    6248,    1066,    1067,    1118,    1117
    6249,    1067,    1068,    1119,    1118
    6250,    1068,    1069,    1120,    1119
    6251,    1069,    1070,    1121,    1120
    6252,    1070,    1071,    1122,    1121
    6253,    1072,    1073,    1124,    1123
    6254,    1073,    1074,    1125,    1124
    6255,    1074,    1075,    1126,    1125
    6256,    1075,    1076,    1127,    1126
    6257,    1076,    1077,    1128,    1127
    6258,    1077,    1078,    1129,    1128
    6259,    1078,    1079,    1130,    1129
    6260,    1079,    1080,    1131,    1130
    6261,    1080,    1081,    1132,    1131
    6262,    1081,    1082,    1133,    1132
    6263,    1082,    1083,    1134,    1133
    6264,    1083,    1084,    1135,    1134
    6265,    1084,    1085,    1136,    1135
    6266,    1085,    1086,    1137,    1136
    6267,    1086,    1087,    1138,    1137
    6268,    1087,    1088,    1139,    1138
    6269,    1088,    1089,    1140,    1139
    6270,    1089,    1090,    1141,    1140
    6271,    1090,    1091,    1142,    1141
    6272,    1091,    1092,    1143,    1142
    6273,    1092,    1093,    1144,    1143
    6274,    1093,    1094,    1145,    1144
    6275,    1094,    1095,    1146,    1145
    6276,    1095,    1096,    1147,    1146
    6277,    1096,    1097,    1148,    1147
    6278,    1097,    1098,    1149,    1148
    6279,    1098,    1099,    1150,    1149
    6280,    1099,    1100,    1151,    1150
    6281,    1100,    1101,    1152,    1151
    6282,    1101,    1102,    1153,    1152
    6283,    1102,    1103,    1154,    1153
    6284,    1103,    1104,    1155,    1154
    6285,    1104,    1105,    1156,    1155
    6286,    1105,    1106,    1157,    1156
    6287,    1106,    1107,    1158,    1157
    6288,    1107,    1108,    1159,    1158
    6289,    1108,    1109,    1160,    1159
    6290,    1109,    1110,    1161,    1160
    6291,    1110,    1111,    1162,    1161
    6292,    1111,    1112,    1163,    1162
    6293,    1112,    1113,    1164,    1163
    6294,    1113,    1114,    1165,    1164
    6295,    1114,    1115,    1166,    1165
    6296,    1115,    1116,    1167,    1166
    6297,    1116,    1117,    1168,    1167
    6298,    1117,    1118,    1169,    1168
    6299,    1118,    1119,    1170,    1169
    6300,    1119,    1120,    1171,    1170
    6301,    1120,    1121,    1172,    1171
    6302,    1121,    1122,    1173,    1172
    6303,    1123,    1124,    1175,    1174
    6304,    1124,    1125,    1176,    1175
    6305,    1125,    1126,    1177,    1176
    6306,    1126,    1127,    1178,    1177
    6307,    1127,    1128,    1179,    1178
    6308,    1128,    1129,    1180,    1179
    6309,    1129,    1130,    1181,    1180
    6310,    1130,    1131,    1182,    1181
    6311,    1131,    1132,    1183,    1182
    6312,    1132,    1133,    1184,    1183
    6313,    1133,    1134,    1185,    1184
    6314,    1134,    1135,    1186,    1185
    6315,    1135,    1136,    1187,    1186
    6316,    1136,    1137,    1188,    1187
    6317,    1137,    1138,    1189,    1188
    6318,    1138,    1139,    1190,    1189
    6319,    1139,    1140,    1191,    1190
    6320,    1140,    1141,    1192,    1191
    6321,    1141,    1142,    1193,    1192
    6322,    1142,    1143,    1194,    1193
    6323,    1143,    1144,    1195,    1194
    6324,    1144,    1145,    1196,    1195
    6325,    1145,    1146,    1197,    1196
    6326,    1146,    1147,    1198,    1197
    6327,    1147,    1148,    1199,    1198
    6328,    1148,    1149,    1200,    1199
    6329,    1149,    1150,    1201,    1200
    6330,    1150,    1151,    1202,    1201
    6331,    1151,    1152,    1203,    1202
    6332,    1152,    1153,    1204,    1203
    6333,    1153,    1154,    1205,    1204
    6334,    1154,    1155,    1206,    1205
    6335,    1155,    1156,    1207,    1206
    6336,    1156,    1157,    1208,    1207
    6337,    1157,    1158,    1209,    1208
    6338,    1158,    1159,    1210,    1209
    6339,    1159,    1160,    1211,    1210
    6340,    1160,    1161,    1212,    1211
    6341,    1161,    1162,    1213,    1212
    6342,    1162,    1163,    1214,    1213
    6343,    1163,    1164,    1215,    1214
    6344,    1164,    1165,    1216,    1215
    6345,    1165,    1166,    1217,    1216
    6346,    1166,    1167,    1218,    1217
    6347,    1167,    1168,    1219,    1218
    6348,    1168,    1169,    1220,    1219
    6349,    1169,    1170,    1221,    1220
    6350,    1170,    1171,    1222,    1221
    6351,    1171,    1172,    1223,    1222
    6352,    1172,    1173,    1224,    1223
    6353,    1174,    1175,    1226,    1225
    6354,    1175,    1176,    1227,    1226
    6355,    1176,    1177,    1228,    1227
    6356,    1177,    1178,    1229,    1228
    6357,    1178,    1179,    1230,    1229
    6358,    1179,    1180,    1231,    1230
    6359,    1180,    1181,    1232,    1231
    6360,    1181,    1182,    1233,    1232
    6361,    1182,    1183,    1234,    1233
    6362,    1183,    1184,    1235,    1234
    6363,    1184,    1185,    1236,    1235
    6364,    1185,    1186,    1237,    1236
    6365,    1186,    1187,    1238,    1237
    6366,    1187,    1188,    1239,    1238
    6367,    1188,    1189,    1240,    1239
    6368,    1189,    1190,    1241,    1240
    6369,    1190,    1191,    1242,    1241
    6370,    1191,    1192,    1243,    1242
    6371,    1192,    1193,    1244,    1243
    6372,    1193,    1194,    1245,    1244
    6373,    1194,    1195,    1246,    1245
    6374,    1195,    1196,    1247,    1246
    6375,    1196,    1197,    1248,    1247
    6376,    1197,    1198,    1249,    1248
    6377,    1198,    1199,    1250,    1249
    6378,    1199,    1200,    1251,    1250
    6379,    1200,    1201,    1252,    1251
    6380,    1201,    1202,    1253,    1252
    6381,    1202,    1203,    1254,    1253
    6382,    1203,    1204,    1255,    1254
    6383,    1204,    1205,    1256,    1255
    6384,    1205,    1206,    1257,    1256
    6385,    1206,    1207,    1258,    1257
    6386,    1207,    1208,    1259,    1258
    6387,    1208,    1209,    1260,    1259
    6388,    1209,    1210,    1261,    1260
    6389,    1210,    1211,    1262,    1261
    6390,    1211,    1212,    1263,    1262
    6391,    1212,    1213,    1264,    1263
    6392,    1213,    1214,    1265,    1264
    6393,    1214,    1215,    1266,    1265
    6394,    1215,    1216,    1267,    1266
    6395,    1216,    1217,    1268,    1267
    6396,    1217,    1218,    1269,    1268
    6397,    1218,    1219,    1270,    1269
    6398,    1219,    1220,    1271,    1270
    6399,    1220,    1221,    1272,    1271
    6400,    1221,    1222,    1273,    1272
    6401,    1222,    1223,    1274,    1273
    6402,    1223,    1224,    1275,    1274
    6403,    1225,    1226,    1277,    1276
    6404,    1226,    1227,    1278,    1277
    6405,    1227,    1228,    1279,    1278
    6406,    1228,    1229,    1280,    1279
    6407,    1229,    1230,    1281,    1280
    6408,    1230,    1231,    1282,    1281
    6409,    1231,    1232,    1283,    1282
    6410,    1232,    1233,    1284,    1283
    6411,    1233,    1234,    1285,    1284
    6412,    1234,    1235,    1286,    1285
    6413,    1235,    1236,    1287,    1286
    6414,    1236,    1237,    1288,    1287
    6415,    1237,    1238,    1289,    1288
    6416,    1238,    1239,    1290,    1289
    6417,    1239,    1240,    1291,    1290
    6418,    1240,    1241,    1292,    1291
    6419,    1241,    1242,    1293,    1292
    6420,    1242,    1243,    1294,    1293
    6421,    1243,    1244,    1295,    1294
    6422,    1244,    1245,    1296,    1295
    6423,    1245,    1246,    1297,    1296
    6424,    1246,    1247,    1298,    1297
    6425,    1247,    1248,    1299,    1298
    6426,    1248,    1249,    1300,    1299
    6427,    1249,    1250,    1301,    1300
    6428,    1250,    1251,    1302,    1301
    6429,    1251,    1252,    1303,    1302
    6430,    1252,    1253,    1304,    1303
    6431,    1253,    1254,    1305,    1304
    6432,    1254,    1255,    1306,    1305
    6433,    1255,    1256,    1307,    1306
    6434,    1256,    1257,    1308,    1307
    6435,    1257,    1258,    1309,    1308
    6436,    1258,    1259,    1310,    1309
    6437,    1259,    1260,    1311,    1310
    6438,    1260,    1261,    1312,    1311
    6439,    1261,    1262,    1313,    1312
    6440,    1262,    1263,    1314,    1313
    6441,    1263,    1264,    1315,    1314
    6442,    1264,    1265,    1316,    1315
    6443,    1265,    1266,    1317,    1316
    6444,    1266,    1267,    1318,    1317
    6445,    1267,    1268,    1319,    1318
    6446,    1268,    1269,    1320,    1319
    6447,    1269,    1270,    1321,    1320
    6448,    1270,    1271,    1322,    1321
    6449,    1271,    1272,    1323,    1322
    6450,    1272,    1273,    1324,    1323
    6451,    1273,    1274,    1325,    1324
    6452,    1274,    1275,    1326,    1325
    6453,    1276,    1277,    1328,    1327
    6454,    1277,    1278,    1329,    1328
    6455,    1278,    1279,    1330,    1329
    6456,    1279,    1280,    1331,    1330
    6457,    1280,    1281,    1332,    1331
    6458,    1281,    1282,    1333,    1332
    6459,    1282,    1283,    1334,    1333
    6460,    1283,    1284,    1335,    1334
    6461,    1284,    1285,    1336,    1335
    6462,    1285,    1286,    1337,    1336
    6463,    1286,    1287,    1338,    1337
    6464,    1287,    1288,    1339,    1338
    6465,    1288,    1289,    1340,    1339
    6466,    1289,    1290,    1341,    1340
    6467,    1290,    1291,    1342,    1341
    6468,    1291,    1292,    1343,    1342
    6469,    1292,    1293,    1344,    1343
    6470,    1293,    1294,    1345,    1344
    6471,    1294,    1295,    1346,    1345
    6472,    1295,    1296,    1347,    1346
    6473,    1296,    1297,    1348,    1347
    6474,    1297,    1298,    1349,    1348
    6475,    1298,    1299,    1350,    1349
    6476,    1299,    1300,    1351,    1350
    6477,    1300,    1301,    1352,    1351
    6478,    1301,    1302,    1353,    1352
    6479,    1302,    1303,    1354,    1353
    6480,    1303,    1304,    1355,    1354
    6481,    1304,    1305,    1356,    1355
    6482,    1305,    1306,    1357,    1356
    6483,    1306,    1307,    1358,    1357
    6484,    1307,    1308,    1359,    1358
    6485,    1308,    1309,    1360,    1359
    6486,    1309,    1310,    1361,    1360
    6487,    1310,    1311,    1362,    1361
    6488,    1311,    1312,    1363,    1362
    6489,    1312,    1313,    1364,    1363
    6490,    1313,    1314,    1365,    1364
    6491,    1314,    1315,    1366,    1365
    6492,    1315,    1316,    1367,    1366
    6493,    1316,    1317,    1368,    1367
    6494,    1317,    1318,    1369,    1368
    6495,    1318,    1319,    1370,    1369
    6496,    1319,    1320,    1371,    1370
    6497,    1320,    1321,    1372,    1371
    6498,    1321,    1322,    1373,    1372
    6499,    1322,    1323,    1374,    1373
    6500,    1323,    1324,    1375,    1374
    6501,    1324,    1325,    1376,    1375
    6502,    1325,    1326,    1377,    1376
    6503,    1327,    1328,    1379,    1378
    6504,    1328,    1329,    1380,    1379
    6505,    1329,    1330,    1381,    1380
    6506,    1330,    1331,    1382,    1381
    6507,    1331,    1332,    1383,    1382
    6508,    1332,    1333,    1384,    1383
    6509,    1333,    1334,    1385,    1384
    6510,    1334,    1335,    1386,    1385
    6511,    1335,    1336,    1387,    1386
    6512,    1336,    1337,    1388,    1387
    6513,    1337,    1338,    1389,    1388
    6514,    1338,    1339,    1390,    1389
    6515,    1339,    1340,    1391,    1390
    6516,    1340,    1341,    1392,    1391
    6517,    1341,    1342,    1393,    1392
    6518,    1342,    1343,    1394,    1393
    6519,    1343,    1344,    1395,    1394
    6520,    1344,    1345,    1396,    1395
    6521,    1345,    1346,    1397,    1396
    6522,    1346,    1347,    1398,    1397
    6523,    1347,    1348,    1399,    1398
    6524,    1348,    1349,    1400,    1399
    6525,    1349,    1350,    1401,    1400
    6526,    1350,    1351,    1402,    1401
    6527,    1351,    1352,    1403,    1402
    6528,    1352,    1353,    1404,    1403
    6529,    1353,    1354,    1405,    1404
    6530,    1354,    1355,    1406,    1405
    6531,    1355,    1356,    1407,    1406
    6532,    1356,    1357,    1408,    1407
    6533,    1357,    1358,    1409,    1408
    6534,    1358,    1359,    1410,    1409
    6535,    1359,    1360,    1411,    1410
    6536,    1360,    1361,    1412,    1411
    6537,    1361,    1362,    1413,    1412
    6538,    1362,    1363,    1414,    1413
    6539,    1363,    1364,    1415,    1414
    6540,    1364,    1365,    1416,    1415
    6541,    1365,    1366,    1417,    1416
    6542,    1366,    1367,    1418,    1417
    6543,    1367,    1368,    1419,    1418
    6544,    1368,    1369,    1420,    1419
    6545,    1369,    1370,    1421,    1420
    6546,    1370,    1371,    1422,    1421
    6547,    1371,    1372,    1423,    1422
    6548,    1372,    1373,    1424,    1423
    6549,    1373,    1374,    1425,    1424
    6550,    1374,    1375,    1426,    1425
    6551,    1375,    1376,    1427,    1426
    6552,    1376,    1377,    1428,    1427
    6553,    1378,    1379,    1430,    1429
    6554,    1379,    1380,    1431,    1430
    6555,    1380,    1381,    1432,    1431
    6556,    1381,    1382,    1433,    1432
    6557,    1382,    1383,    1434,    1433
    6558,    1383,    1384,    1435,    1434
    6559,    1384,    1385,    1436,    1435
    6560,    1385,    1386,    1437,    1436
    6561,    1386,    1387,    1438,    1437
    6562,    1387,    1388,    1439,    1438
    6563,    1388,    1389,    1440,    1439
    6564,    1389,    1390,    1441,    1440
    6565,    1390,    1391,    1442,    1441
    6566,    1391,    1392,    1443,    1442
    6567,    1392,    1393,    1444,    1443
    6568,    1393,    1394,    1445,    1444
    6569,    1394,    1395,    1446,    1445
    6570,    1395,    1396,    1447,    1446
    6571,    1396,    1397,    1448,    1447
    6572,    1397,    1398,    1449,    1448
    6573,    1398,    1399,    1450,    1449
    6574,    1399,    1400,    1451,    1450
    6575,    1400,    1401,    1452,    1451
    6576,    1401,    1402,    1453,    1452
    6577,    1402,    1403,    1454,    1453
    6578,    1403,    1404,    1455,    1454
    6579,    1404,    1405,    1456,    1455
    6580,    1405,    1406,    1457,    1456
    6581,    1406,    1407,    1458,    1457
    6582,    1407,    1408,    1459,    1458
    6583,    1408,    1409,    1460,    1459
    6584,    1409,    1410,    1461,    1460
    6585,    1410,    1411,    1462,    1461
    6586,    1411,    1412,    1463,    1462
    6587,    1412,    1413,    1464,    1463
    6588,    1413,    1414,    1465,    1464
    6589,    1414,    1415,    1466,    1465
    6590,    1415,    1416,    1467,    1466
    6591,    1416,    1417,    1468,    1467
    6592,    1417,    1418,    1469,    1468
    6593,    1418,    1419,    1470,    1469
    6594,    1419,    1420,    1471,    1470
    6595,    1420,    1421,    1472,    1471
    6596,    1421,    1422,    1473,    1472
    6597,    1422,    1423,    1474,    1473
    6598,    1423,    1424,    1475,    1474
    6599,    1424,    1425,    1476,    1475
    6600,    1425,    1426,    1477,    1476
    6601,    1426,    1427,    1478,    1477
    6602,    1427,    1428,    1479,    1478
    6603,    1429,    1430,    1481,    1480
    6604,    1430,    1431,    1482,    1481
    6605,    1431,    1432,    1483,    1482
    6606,    1432,    1433,    1484,    1483
    6607,    1433,    1434,    1485,    1484
    6608,    1434,    1435,    1486,    1485
    6609,    1435,    1436,    1487,    1486
    6610,    1436,    1437,    1488,    1487
    6611,    1437,    1438,    1489,    1488
    6612,    1438,    1439,    1490,    1489
    6613,    1439,    1440,    1491,    1490
    6614,    1440,    1441,    1492,    1491
    6615,    1441,    1442,    1493,    1492
    6616,    1442,    1443,    1494,    1493
    6617,    1443,    1444,    1495,    1494
    6618,    1444,    1445,    1496,    1495
    6619,    1445,    1446,    1497,    1496
    6620,    1446,    1447,    1498,    1497
    6621,    1447,    1448,    1499,    1498
    6622,    1448,    1449,    1500,    1499
    6623,    1449,    1450,    1501,    1500
    6624,    1450,    1451,    1502,    1501
    6625,    1451,    1452,    1503,    1502
    6626,    1452,    1453,    1504,    1503
    6627,    1453,    1454,    1505,    1504
    6628,    1454,    1455,    1506,    1505
    6629,    1455,    1456,    1507,    1506
    6630,    1456,    1457,    1508,    1507
    6631,    1457,    1458,    1509,    1508
    6632,    1458,    1459,    1510,    1509
    6633,    1459,    1460,    1511,    1510
    6634,    1460,    1461,    1512,    1511
    6635,    1461,    1462,    1513,    1512
    6636,    1462,    1463,    1514,    1513
    6637,    1463,    1464,    1515,    1514
    6638,    1464,    1465,    1516,    1515
    6639,    1465,    1466,    1517,    1516
    6640,    1466,    1467,    1518,    1517
    6641,    1467,    1468,    1519,    1518
    6642,    1468,    1469,    1520,    1519
    6643,    1469,    1470,    1521,    1520
    6644,    1470,    1471,    1522,    1521
    6645,    1471,    1472,    1523,    1522
    6646,    1472,    1473,    1524,    1523
    6647,    1473,    1474,    1525,    1524
    6648,    1474,    1475,    1526,    1525
    6649,    1475,    1476,    1527,    1526
    6650,    1476,    1477,    1528,    1527
    6651,    1477,    1478,    1529,    1528
    6652,    1478,    1479,    1530,    1529
    6653,    1480,    1481,    1532,    1531
    6654,    1481,    1482,    1533,    1532
    6655,    1482,    1483,    1534,    1533
    6656,    1483,    1484,    1535,    1534
    6657,    1484,    1485,    1536,    1535
    6658,    1485,    1486,    1537,    1536
    6659,    1486,    1487,    1538,    1537
    6660,    1487,    1488,    1539,    1538
    6661,    1488,    1489,    1540,    1539
    6662,    1489,    1490,    1541,    1540
    6663,    1490,    1491,    1542,    1541
    6664,    1491,    1492,    1543,    1542
    6665,    1492,    1493,    1544,    1543
    6666,    1493,    1494,    1545,    1544
    6667,    1494,    1495,    1546,    1545
    6668,    1495,    1496,    1547,    1546
    6669,    1496,    1497,    1548,    1547
    6670,    1497,    1498,    1549,    1548
    6671,    1498,    1499,    1550,    1549
    6672,    1499,    1500,    1551,    1550
    6673,    1500,    1501,    1552,    1551
    6674,    1501,    1502,    1553,    1552
    6675,    1502,    1503,    1554,    1553
    6676,    1503,    1504,    1555,    1554
    6677,    1504,    1505,    1556,    1555
    6678,    1505,    1506,    1557,    1556
    6679,    1506,    1507,    1558,    1557
    6680,    1507,    1508,    1559,    1558
    6681,    1508,    1509,    1560,    1559
    6682,    1509,    1510,    1561,    1560
    6683,    1510,    1511,    1562,    1561
    6684,    1511,    1512,    1563,    1562
    6685,    1512,    1513,    1564,    1563
    6686,    1513,    1514,    1565,    1564
    6687,    1514,    1515,    1566,    1565
    6688,    1515,    1516,    1567,    1566
    6689,    1516,    1517,    1568,    1567
    6690,    1517,    1518,    1569,    1568
    6691,    1518,    1519,    1570,    1569
    6692,    1519,    1520,    1571,    1570
    6693,    1520,    1521,    1572,    1571
    6694,    1521,    1522,    1573,    1572
    6695,    1522,    1523,    1574,    1573
    6696,    1523,    1524,    1575,    1574
    6697,    1524,    1525,    1576,    1575
    6698,    1525,    1526,    1577,    1576
    6699,    1526,    1527,    1578,    1577
    6700,    1527,    1528,    1579,    1578
    6701,    1528,    1529,    1580,    1579
    6702,    1529,    1530,    1581,    1580
    6703,    1531,    1532,    1583,    1582
    6704,    1532,    1533,    1584,    1583
    6705,    1533,    1534,    1585,    1584
    6706,    1534,    1535,    1586,    1585
    6707,    1535,    1536,    1587,    1586
    6708,    1536,    1537,    1588,    1587
    6709,    1537,    1538,    1589,    1588
    6710,    1538,    1539,    1590,    1589
    6711,    1539,    1540,    1591,    1590
    6712,    1540,    1541,    1592,    1591
    6713,    1541,    1542,    1593,    1592
    6714,    1542,    1543,    1594,    1593
    6715,    1543,    1544,    1595,    1594
    6716,    1544,    1545,    1596,    1595
    6717,    1545,    1546,    1597,    1596
    6718,    1546,    1547,    1598,    1597
    6719,    1547,    1548,    1599,    1598
    6720,    1548,    1549,    1600,    1599
    6721,    1549,    1550,    1601,    1600
    6722,    1550,    1551,    1602,    1601
    6723,    1551,    1552,    1603,    1602
    6724,    1552,    1553,    1604,    1603
    6725,    1553,    1554,    1605,    1604
    6726,    1554,    1555,    1606,    1605
    6727,    1555,    1556,    1607,    1606
    6728,    1556,    1557,    1608,    1607
    6729,    1557,    1558,    1609,    1608
    6730,    1558,    1559,    1610,    1609
    6731,    1559,    1560,    1611,    1610
    6732,    1560,    1561,    1612,    1611
    6733,    1561,    1562,    1613,    1612
    6734,    1562,    1563,    1614,    1613
    6735,    1563,    1564,    1615,    1614
    6736,    1564,    1565,    1616,    1615
    6737,    1565,    1566,    1617,    1616
    6738,    1566,    1567,    1618,    1617
    6739,    1567,    1568,    1619,    1618
    6740,    1568,    1569,    1620,    1619
    6741,    1569,    1570,    1621,    1620
    6742,    1570,    1571,    1622,    1621
    6743,    1571,    1572,    1623,    1622
    6744,    1572,    1573,    1624,    1623
    6745,    1573,    1574,    1625,    1624
    6746,    1574,    1575,    1626,    1625
    6747,    1575,    1576,    1627,    1626
    6748,    1576,    1577,    1628,    1627
    6749,    1577,    1578,    1629,    1628
    6750,    1578,    1579,    1630,    1629
    6751,    1579,    1580,    1631,    1630
    6752,    1580,    1581,    1632,    1631
    6753,    1582,    1583,    1634,    1633
    6754,    1583,    1584,    1635,    1634
    6755,    1584,    1585,    1636,    1635
    6756,    1585,    1586,    1637,    1636
    6757,    1586,    1587,    1638,    1637
    6758,    1587,    1588,    1639,    1638
    6759,    1588,    1589,    1640,    1639
    6760,    1589,    1590,    1641,    1640
    6761,    1590,    1591,    1642,    1641
    6762,    1591,    1592,    1643,    1642
    6763,    1592,    1593,    1644,    1643
    6764,    1593,    1594,    1645,    1644
    6765,    1594,    1595,    1646,    1645
    6766,    1595,    1596,    1647,    1646
    6767,    1596,    1597,    1648,    1647
    6768,    1597,    1598,    1649,    1648
    6769,    1598,    1599,    1650,    1649
    6770,    1599,    1600,    1651,    1650
    6771,    1600,    1601,    1652,    1651
    6772,    1601,    1602,    1653,    1652
    6773,    1602,    1603,    1654,    1653
    6774,    1603,    1604,    1655,    1654
    6775,    1604,    1605,    1656,    1655
    6776,    1605,    1606,    1657,    1656
    6777,    1606,    1607,    1658,    1657
    6778,    1607,    1608,    1659,    1658
    6779,    1608,    1609,    1660,    1659
    6780,    1609,    1610,    1661,    1660
    6781,    1610,    1611,    1662,    1661
    6782,    1611,    1612,    1663,    1662
    6783,    1612,    1613,    1664,    1663
    6784,    1613,    1614,    1665,    1664
    6785,    1614,    1615,    1666,    1665
    6786,    1615,    1616,    1667,    1666
    6787,    1616,    1617,    1668,    1667
    6788,    1617,    1618,    1669,    1668
    6789,    1618,    1619,    1670,    1669
    6790,    1619,    1620,    1671,    1670
    6791,    1620,    1621,    1672,    1671
    6792,    1621,    1622,    1673,    1672
    6793,    1622,    1623,    1674,    1673
    6794,    1623,    1624,    1675,    1674
    6795,    1624,    1625,    1676,    1675
    6796,    1625,    1626,    1677,    1676
    6797,    1626,    1627,    1678,    1677
    6798,    1627,    1628,    1679,    1678
    6799,    1628,    1629,    1680,    1679
    6800,    1629,    1630,    1681,    1680
    6801,    1630,    1631,    1682,    1681
    6802,    1631,    1632,    1683,    1682
    6803,    1633,    1634,    1685,    1684
    6804,    1634,    1635,    1686,    1685
    6805,    1635,    1636,    1687,    1686
    6806,    1636,    1637,    1688,    1687
    6807,    1637,    1638,    1689,    1688
    6808,    1638,    1639,    1690,    1689
    6809,    1639,    1640,    1691,    1690
    6810,    1640,    1641,    1692,    1691
    6811,    1641,    1642,    1693,    1692
    6812,    1642,    1643,    1694,    1693
    6813,    1643,    1644,    1695,    1694
    6814,    1644,    1645,    1696,    1695
    6815,    1645,    1646,    1697,    1696
    6816,    1646,    1647,    1698,    1697
    6817,    1647,    1648,    1699,    1698
    6818,    1648,    1649,    1700,    1699
    6819,    1649,    1650,    1701,    1700
    6820,    1650,    1651,    1702,    1701
    6821,    1651,    1652,    1703,    1702
    6822,    1652,    1653,    1704,    1703
    6823,    1653,    1654,    1705,    1704
    6824,    1654,    1655,    1706,    1705
    6825,    1655,    1656,    1707,    1706
    6826,    1656,    1657,    1708,    1707
    6827,    1657,    1658,    1709,    1708
    6828,    1658,    1659,    1710,    1709
    6829,    1659,    1660,    1711,    1710
    6830,    1660,    1661,    1712,    1711
    6831,    1661,    1662,    1713,    1712
    6832,    1662,    1663,    1714,    1713
    6833,    1663,    1664,    1715,    1714
    6834,    1664,    1665,    1716,    1715
    6835,    1665,    1666,    1717,    1716
    6836,    1666,    1667,    1718,    1717
    6837,    1667,    1668,    1719,    1718
    6838,    1668,    1669,    1720,    1719
    6839,    1669,    1670,    1721,    1720
    6840,    1670,    1671,    1722,    1721
    6841,    1671,    1672,    1723,    1722
    6842,    1672,    1673,    1724,    1723
    6843,    1673,    1674,    1725,    1724
    6844,    1674,    1675,    1726,    1725
    6845,    1675,    1676,    1727,    1726
    6846,    1676,    1677,    1728,    1727
    6847,    1677,    1678,    1729,    1728
    6848,    1678,    1679,    1730,    1729
    6849,    1679,    1680,    1731,    1730
    6850,    1680,    1681,    1732,    1731
    6851,    1681,    1682,    1733,    1732
    6852,    1682,    1683,    1734,    1733
    6853,    1684,    1685,    1736,    1735
    6854,    1685,    1686,    1737,    1736
    6855,    1686,    1687,    1738,    1737
    6856,    1687,    1688,    1739,    1738
    6857,    1688,    1689,    1740,    1739
    6858,    1689,    1690,    1741,    1740
    6859,    1690,    1691,    1742,    1741
    6860,    1691,    1692,    1743,    1742
    6861,    1692,    1693,    1744,    1743
    6862,    1693,    1694,    1745,    1744
    6863,    1694,    1695,    1746,    1745
    6864,    1695,    1696,    1747,    1746
    6865,    1696,    1697,    1748,    1747
    6866,    1697,    1698,    1749,    1748
    6867,    1698,    1699,    1750,    1749
    6868,    1699,    1700,    1751,    1750
    6869,    1700,    1701,    1752,    1751
    6870,    1701,    1702,    1753,    1752
    6871,    1702,    1703,    1754,    1753
    6872,    1703,    1704,    1755,    1754
    6873,    1704,    1705,    1756,    1755
    6874,    1705,    1706,    1757,    1756
    6875,    1706,    1707,    1758,    1757
    6876,    1707,    1708,    1759,    1758
    6877,    1708,    1709,    1760,    1759
    6878,    1709,    1710,    1761,    1760
    6879,    1710,    1711,    1762,    1761
    6880,    1711,    1712,    1763,    1762
    6881,    1712,    1713,    1764,    1763
    6882,    1713,    1714,    1765,    1764
    6883,    1714,    1715,    1766,    1765
    6884,    1715,    1716,    1767,    1766
    6885,    1716,    1717,    1768,    1767
    6886,    1717,    1718,    1769,    1768
    6887,    1718,    1719,    1770,    1769
    6888,    1719,    1720,    1771,    1770
    6889,    1720,    1721,    1772,    1771
    6890,    1721,    1722,    1773,    1772
    6891,    1722,    1723,    1774,    1773
    6892,    1723,    1724,    1775,    1774
    6893,    1724,    1725,    1776,    1775
    6894,    1725,    1726,    1777,    1776
    6895,    1726,    1727,    1778,    1777
    6896,    1727,    1728,    1779,    1778
    6897,    1728,    1729,    1780,    1779
    6898,    1729,    1730,    1781,    1780
    6899,    1730,    1731,    1782,    1781
    6900,    1731,    1732,    1783,    1782
    6901,    1732,    1733,    1784,    1783
    6902,    1733,    1734,    1785,    1784
    6903,    1735,    1736,    1787,    1786
    6904,    1736,    1737,    1788,    1787
    6905,    1737,    1738,    1789,    1788
    6906,    1738,    1739,    1790,    1789
    6907,    1739,    1740,    1791,    1790
    6908,    1740,    1741,    1792,    1791
    6909,    1741,    1742,    1793,    1792
    6910,    1742,    1743,    1794,    1793
    6911,    1743,    1744,    1795,    1794
    6912,    1744,    1745,    1796,    1795
    6913,    1745,    1746,    1797,    1796
    6914,    1746,    1747,    1798,    1797
    6915,    1747,    1748,    1799,    1798
    6916,    1748,    1749,    1800,    1799
    6917,    1749,    1750,    1801,    1800
    6918,    1750,    1751,    1802,    1801
    6919,    1751,    1752,    1803,    1802
    6920,    1752,    1753,    1804,    1803
    6921,    1753,    1754,    1805,    1804
    6922,    1754,    1755,    1806,    1805
    6923,    1755,    1756,    1807,    1806
    6924,    1756,    1757,    1808,    1807
    6925,    1757,    1758,    1809,    1808
    6926,    1758,    1759,    1810,    1809
    6927,    1759,    1760,    1811,    1810
    6928,    1760,    1761,    1812,    1811
    6929,    1761,    1762,    1813,    1812
    6930,    1762,    1763,    1814,    1813
    6931,    1763,    1764,    1815,    1814
    6932,    1764,    1765,    1816,    1815
    6933,    1765,    1766,    1817,    1816
    6934,    1766,    1767,    1818,    1817
    6935,    1767,    1768,    1819,    1818
    6936,    1768,    1769,    1820,    1819
    6937,    1769,    1770,    1821,    1820
    6938,    1770,    1771,    1822,    1821
    6939,    1771,    1772,    1823,    1822
    6940,    1772,    1773,    1824,    1823
    6941,    1773,    1774,    1825,    1824
    6942,    1774,    1775,    1826,    1825
    6943,    1775,    1776,    1827,    1826
    6944,    1776,    1777,    1828,    1827
    6945,    1777,    1778,    1829,    1828
    6946,    1778,    1779,    1830,    1829
    6947,    1779,    1780,    1831,    1830
    6948,    1780,    1781,    1832,    1831
    6949,    1781,    1782,    1833,    1832
    6950,    1782,    1783,    1834,    1833
    6951,    1783,    1784,    1835,    1834
    6952,    1784,    1785,    1836,    1835
    6953,    1786,    1787,    1838,    1837
    6954,    1787,    1788,    1839,    1838
    6955,    1788,    1789,    1840,    1839
    6956,    1789,    1790,    1841,    1840
    6957,    1790,    1791,    1842,    1841
    6958,    1791,    1792,    1843,    1842
    6959,    1792,    1793,    1844,    1843
    6960,    1793,    1794,    1845,    1844
    6961,    1794,    1795,    1846,    1845
    6962,    1795,    1796,    1847,    1846
    6963,    1796,    1797,    1848,    1847
    6964,    1797,    1798,    1849,    1848
    6965,    1798,    1799,    1850,    1849
    6966,    1799,    1800,    1851,    1850
    6967,    1800,    1801,    1852,    1851
    6968,    1801,    1802,    1853,    1852
    6969,    1802,    1803,    1854,    1853
    6970,    1803,    1804,    1855,    1854
    6971,    1804,    1805,    1856,    1855
    6972,    1805,    1806,    1857,    1856
    6973,    1806,    1807,    1858,    1857
    6974,    1807,    1808,    1859,    1858
    6975,    1808,    1809,    1860,    1859
    6976,    1809,    1810,    1861,    1860
    6977,    1810,    1811,    1862,    1861
    6978,    1811,    1812,    1863,    1862
    6979,    1812,    1813,    1864,    1863
    6980,    1813,    1814,    1865,    1864
    6981,    1814,    1815,    1866,    1865
    6982,    1815,    1816,    1867,    1866
    6983,    1816,    1817,    1868,    1867
    6984,    1817,    1818,    1869,    1868
    6985,    1818,    1819,    1870,    1869
    6986,    1819,    1820,    1871,    1870
    6987,    1820,    1821,    1872,    1871
    6988,    1821,    1822,    1873,    1872
    6989,    1822,    1823,    1874,    1873
    6990,    1823,    1824,    1875,    1874
    6991,    1824,    1825,    1876,    1875
    6992,    1825,    1826,    1877,    1876
    6993,    1826,    1827,    1878,    1877
    6994,    1827,    1828,    1879,    1878
    6995,    1828,    1829,    1880,    1879
    6996,    1829,    1830,    1881,    1880
    6997,    1830,    1831,    1882,    1881
    6998,    1831,    1832,    1883,    1882
    6999,    1832,    1833,    1884,    1883
    7000,    1833,    1834,    1885,    1884
    7001,    1834,    1835,    1886,    1885
    7002,    1835,    1836,    1887,    1886
    7003,    1837,    1838,    1889,    1888
    7004,    1838,    1839,    1890,    1889
    7005,    1839,    1840,    1891,    1890
    7006,    1840,    1841,    1892,    1891
    7007,    1841,    1842,    1893,    1892
    7008,    1842,    1843,    1894,    1893
    7009,    1843,    1844,    1895,    1894
    7010,    1844,    1845,    1896,    1895
    7011,    1845,    1846,    1897,    1896
    7012,    1846,    1847,    1898,    1897
    7013,    1847,    1848,    1899,    1898
    7014,    1848,    1849,    1900,    1899
    7015,    1849,    1850,    1901,    1900
    7016,    1850,    1851,    1902,    1901
    7017,    1851,    1852,    1903,    1902
    7018,    1852,    1853,    1904,    1903
    7019,    1853,    1854,    1905,    1904
    7020,    1854,    1855,    1906,    1905
    7021,    1855,    1856,    1907,    1906
    7022,    1856,    1857,    1908,    1907
    7023,    1857,    1858,    1909,    1908
    7024,    1858,    1859,    1910,    1909
    7025,    1859,    1860,    1911,    1910
    7026,    1860,    1861,    1912,    1911
    7027,    1861,    1862,    1913,    1912
    7028,    1862,    1863,    1914,    1913
    7029,    1863,    1864,    1915,    1914
    7030,    1864,    1865,    1916,    1915
    7031,    1865,    1866,    1917,    1916
    7032,    1866,    1867,    1918,    1917
    7033,    1867,    1868,    1919,    1918
    7034,    1868,    1869,    1920,    1919
    7035,    1869,    1870,    1921,    1920
    7036,    1870,    1871,    1922,    1921
    7037,    1871,    1872,    1923,    1922
    7038,    1872,    1873,    1924,    1923
    7039,    1873,    1874,    1925,    1924
    7040,    1874,    1875,    1926,    1925
    7041,    1875,    1876,    1927,    1926
    7042,    1876,    1877,    1928,    1927
    7043,    1877,    1878,    1929,    1928
    7044,    1878,    1879,    1930,    1929
    7045,    1879,    1880,    1931,    1930
    7046,    1880,    1881,    1932,    1931
    7047,    1881,    1882,    1933,    1932
    7048,    1882,    1883,    1934,    1933
    7049,    1883,    1884,    1935,    1934
    7050,    1884,    1885,    1936,    1935
    7051,    1885,    1886,    1937,    1936
    7052,    1886,    1887,    1938,    1937
    7053,    1888,    1889,    1940,    1939
    7054,    1889,    1890,    1941,    1940
    7055,    1890,    1891,    1942,    1941
    7056,    1891,    1892,    1943,    1942
    7057,    1892,    1893,    1944,    1943
    7058,    1893,    1894,    1945,    1944
    7059,    1894,    1895,    1946,    1945
    7060,    1895,    1896,    1947,    1946
    7061,    1896,    1897,    1948,    1947
    7062,    1897,    1898,    1949,    1948
    7063,    1898,    1899,    1950,    1949
    7064,    1899,    1900,    1951,    1950
    7065,    1900,    1901,    1952,    1951
    7066,    1901,    1902,    1953,    1952
    7067,    1902,    1903,    1954,    1953
    7068,    1903,    1904,    1955,    1954
    7069,    1904,    1905,    1956,    1955
    7070,    1905,    1906,    1957,    1956
    7071,    1906,    1907,    1958,    1957
    7072,    1907,    1908,    1959,    1958
    7073,    1908,    1909,    1960,    1959
    7074,    1909,    1910,    1961,    1960
    7075,    1910,    1911,    1962,    1961
    7076,    1911,    1912,    1963,    1962
    7077,    1912,    1913,    1964,    1963
    7078,    1913,    1914,    1965,    1964
    7079,    1914,    1915,    1966,    1965
    7080,    1915,    1916,    1967,    1966
    7081,    1916,    1917,    1968,    1967
    7082,    1917,    1918,    1969,    1968
    7083,    1918,    1919,    1970,    1969
    7084,    1919,    1920,    1971,    1970
    7085,    1920,    1921,    1972,    1971
    7086,    1921,    1922,    1973,    1972
    7087,    1922,    1923,    1974,    1973
    7088,    1923,    1924,    1975,    1974
    7089,    1924,    1925,    1976,    1975
    7090,    1925,    1926,    1977,    1976
    7091,    1926,    1927,    1978,    1977
    7092,    1927,    1928,    1979,    1978
    7093,    1928,    1929,    1980,    1979
    7094,    1929,    1930,    1981,    1980
    7095,    1930,    1931,    1982,    1981
    7096,    1931,    1932,    1983,    1982
    7097,    1932,    1933,    1984,    1983
    7098,    1933,    1934,    1985,    1984
    7099,    1934,    1935,    1986,    1985
    7100,    1935,    1936,    1987,    1986
    7101,    1936,    1937,    1988,    1987
    7102,    1937,    1938,    1989,    1988
    7103,    1939,    1940,    1991,    1990
    7104,    1940,    1941,    1992,    1991
    7105,    1941,    1942,    1993,    1992
    7106,    1942,    1943,    1994,    1993
    7107,    1943,    1944,    1995,    1994
    7108,    1944,    1945,    1996,    1995
    7109,    1945,    1946,    1997,    1996
    7110,    1946,    1947,    1998,    1997
    7111,    1947,    1948,    1999,    1998
    7112,    1948,    1949,    2000,    1999
    7113,    1949,    1950,    2001,    2000
    7114,    1950,    1951,    2002,    2001
    7115,    1951,    1952,    2003,    2002
    7116,    1952,    1953,    2004,    2003
    7117,    1953,    1954,    2005,    2004
    7118,    1954,    1955,    2006,    2005
    7119,    1955,    1956,    2007,    2006
    7120,    1956,    1957,    2008,    2007
    7121,    1957,    1958,    2009,    2008
    7122,    1958,    1959,    2010,    2009
    7123,    1959,    1960,    2011,    2010
    7124,    1960,    1961,    2012,    2011
    7125,    1961,    1962,    2013,    2012
    7126,    1962,    1963,    2014,    2013
    7127,    1963,    1964,    2015,    2014
    7128,    1964,    1965,    2016,    2015
    7129,    1965,    1966,    2017,    2016
    7130,    1966,    1967,    2018,    2017
    7131,    1967,    1968,    2019,    2018
    7132,    1968,    1969,    2020,    2019
    7133,    1969,    1970,    2021,    2020
    7134,    1970,    1971,    2022,    2021
    7135,    1971,    1972,    2023,    2022
    7136,    1972,    1973,    2024,    2023
    7137,    1973,    1974,    2025,    2024
    7138,    1974,    1975,    2026,    2025
    7139,    1975,    1976,    2027,    2026
    7140,    1976,    1977,    2028,    2027
    7141,    1977,    1978,    2029,    2028
    7142,    1978,    1979,    2030,    2029
    7143,    1979,    1980,    2031,    2030
    7144,    1980,    1981,    2032,    2031
    7145,    1981,    1982,    2033,    2032
    7146,    1982,    1983,    2034,    2033
    7147,    1983,    1984,    2035,    2034
    7148,    1984,    1985,    2036,    2035
    7149,    1985,    1986,    2037,    2036
    7150,    1986,    1987,    2038,    2037
    7151,    1987,    1988,    2039,    2038
    7152,    1988,    1989,    2040,    2039
    7153,    1990,    1991,    2042,    2041
    7154,    1991,    1992,    2043,    2042
    7155,    1992,    1993,    2044,    2043
    7156,    1993,    1994,    2045,    2044
    7157,    1994,    1995,    2046,    2045
    7158,    1995,    1996,    2047,    2046
    7159,    1996,    1997,    2048,    2047
    7160,    1997,    1998,    2049,    2048
    7161,    1998,    1999,    2050,    2049
    7162,    1999,    2000,    2051,    2050
    7163,    2000,    2001,    2052,    2051
    7164,    2001,    2002,    2053,    2052
    7165,    2002,    2003,    2054,    2053
    7166,    2003,    2004,    2055,    2054
    7167,    2004,    2005,    2056,    2055
    7168,    2005,    2006,    2057,    2056
    7169,    2006,    2007,    2058,    2057
    7170,    2007,    2008,    2059,    2058
    7171,    2008,    2009,    2060,    2059
    7172,    2009,    2010,    2061,    2060
    7173,    2010,    2011,    2062,    2061
    7174,    2011,    2012,    2063,    2062
    7175,    2012,    2013,    2064,    2063
    7176,    2013,    2014,    2065,    2064
    7177,    2014,    2015,    2066,    2065
    7178,    2015,    2016,    2067,    2066
    7179,    2016,    2017,    2068,    2067
    7180,    2017,    2018,    2069,    2068
    7181,    2018,    2019,    2070,    2069
    7182,    2019,    2020,    2071,    2070
    7183,    2020,    2021,    2072,    2071
    7184,    2021,    2022,    2073,    2072
    7185,    2022,    2023,    2074,    2073
    7186,    2023,    2024,    2075,    2074
    7187,    2024,    2025,    2076,    2075
    7188,    2025,    2026,    2077,    2076
    7189,    2026,    2027,    2078,    2077
    7190,    2027,    2028,    2079,    2078
    7191,    2028,    2029,    2080,    2079
    7192,    2029,    2030,    2081,    2080
    7193,    2030,    2031,    2082,    2081
    7194,    2031,    2032,    2083,    2082
    7195,    2032,    2033,    2084,    2083
    7196,    2033,    2034,    2085,    2084
    7197,    2034,    2035,    2086,    2085
    7198,    2035,    2036,    2087,    2086
    7199,    2036,    2037,    2088,    2087
    7200,    2037,    2038,    2089,    2088
    7201,    2038,    2039,    2090,    2089
    7202,    2039,    2040,    2091,    2090
    7203,    2041,    2042,    2093,    2092
    7204,    2042,    2043,    2094,    2093
    7205,    2043,    2044,    2095,    2094
    7206,    2044,    2045,    2096,    2095
    7207,    2045,    2046,    2097,    2096
    7208,    2046,    2047,    2098,    2097
    7209,    2047,    2048,    2099,    2098
    7210,    2048,    2049,    2100,    2099
    7211,    2049,    2050,    2101,    2100
    7212,    2050,    2051,    2102,    2101
    7213,    2051,    2052,    2103,    2102
    7214,    2052,    2053,    2104,    2103
    7215,    2053,    2054,    2105,    2104
    7216,    2054,    2055,    2106,    2105
    7217,    2055,    2056,    2107,    2106
    7218,    2056,    2057,    2108,    2107
    7219,    2057,    2058,    2109,    2108
    7220,    2058,    2059,    2110,    2109
    7221,    2059,    2060,    2111,    2110
    7222,    2060,    2061,    2112,    2111
    7223,    2061,    2062,    2113,    2112
    7224,    2062,    2063,    2114,    2113
    7225,    2063,    2064,    2115,    2114
    7226,    2064,    2065,    2116,    2115
    7227,    2065,    2066,    2117,    2116
    7228,    2066,    2067,    2118,    2117
    7229,    2067,    2068,    2119,    2118
    7230,    2068,    2069,    2120,    2119
    7231,    2069,    2070,    2121,    2120
    7232,    2070,    2071,    2122,    2121
    7233,    2071,    2072,    2123,    2122
    7234,    2072,    2073,    2124,    2123
    7235,    2073,    2074,    2125,    2124
    7236,    2074,    2075,    2126,    2125
    7237,    2075,    2076,    2127,    2126
    7238,    2076,    2077,    2128,    2127
    7239,    2077,    2078,    2129,    2128
    7240,    2078,    2079,    2130,    2129
    7241,    2079,    2080,    2131,    2130
    7242,    2080,    2081,    2132,    2131
    7243,    2081,    2082,    2133,    2132
    7244,    2082,    2083,    2134,    2133
    7245,    2083,    2084,    2135,    2134
    7246,    2084,    2085,    2136,    2135
    7247,    2085,    2086,    2137,    2136
    7248,    2086,    2087,    2138,    2137
    7249,    2087,    2088,    2139,    2138
    7250,    2088,    2089,    2140,    2139
    7251,    2089,    2090,    2141,    2140
    7252,    2090,    2091,    2142,    2141
    7253,    2092,    2093,    2144,    2143
    7254,    2093,    2094,    2145,    2144
    7255,    2094,    2095,    2146,    2145
    7256,    2095,    2096,    2147,    2146
    7257,    2096,    2097,    2148,    2147
    7258,    2097,    2098,    2149,    2148
    7259,    2098,    2099,    2150,    2149
    7260,    2099,    2100,    2151,    2150
    7261,    2100,    2101,    2152,    2151
    7262,    2101,    2102,    2153,    2152
    7263,    2102,    2103,    2154,    2153
    7264,    2103,    2104,    2155,    2154
    7265,    2104,    2105,    2156,    2155
    7266,    2105,    2106,    2157,    2156
    7267,    2106,    2107,    2158,    2157
    7268,    2107,    2108,    2159,    2158
    7269,    2108,    2109,    2160,    2159
    7270,    2109,    2110,    2161,    2160
    7271,    2110,    2111,    2162,    2161
    7272,    2111,    2112,    2163,    2162
    7273,    2112,    2113,    2164,    2163
    7274,    2113,    2114,    2165,    2164
    7275,    2114,    2115,    2166,    2165
    7276,    2115,    2116,    2167,    2166
    7277,    2116,    2117,    2168,    2167
    7278,    2117,    2118,    2169,    2168
    7279,    2118,    2119,    2170,    2169
    7280,    2119,    2120,    2171,    2170
    7281,    2120,    2121,    2172,    2171
    7282,    2121,    2122,    2173,    2172
    7283,    2122,    2123,    2174,    2173
    7284,    2123,    2124,    2175,    2174
    7285,    2124,    2125,    2176,    2175
    7286,    2125,    2126,    2177,    2176
    7287,    2126,    2127,    2178,    2177
    7288,    2127,    2128,    2179,    2178
    7289,    2128,    2129,    2180,    2179
    7290,    2129,    2130,    2181,    2180
    7291,    2130,    2131,    2182,    2181
    7292,    2131,    2132,    2183,    2182
    7293,    2132,    2133,    2184,    2183
    7294,    2133,    2134,    2185,    2184
    7295,    2134,    2135,    2186,    2185
    7296,    2135,    2136,    2187,    2186
    7297,    2136,    2137,    2188,    2187
    7298,    2137,    2138,    2189,    2188
    7299,    2138,    2139,    2190,    2189
    7300,    2139,    2140,    2191,    2190
    7301,    2140,    2141,    2192,    2191
    7302,    2141,    2142,    2193,    2192
    7303,    2143,    2144,    2195,    2194
    7304,    2144,    2145,    2196,    2195
    7305,    2145,    2146,    2197,    2196
    7306,    2146,    2147,    2198,    2197
    7307,    2147,    2148,    2199,    2198
    7308,    2148,    2149,    2200,    2199
    7309,    2149,    2150,    2201,    2200
    7310,    2150,    2151,    2202,    2201
    7311,    2151,    2152,    2203,    2202
    7312,    2152,    2153,    2204,    2203
    7313,    2153,    2154,    2205,    2204
    7314,    2154,    2155,    2206,    2205
    7315,    2155,    2156,    2207,    2206
    7316,    2156,    2157,    2208,    2207
    7317,    2157,    2158,    2209,    2208
    7318,    2158,    2159,    2210,    2209
    7319,    2159,    2160,    2211,    2210
    7320,    2160,    2161,    2212,    2211
    7321,    2161,    2162,    2213,    2212
    7322,    2162,    2163,    2214,    2213
    7323,    2163,    2164,    2215,    2214
    7324,    2164,    2165,    2216,    2215
    7325,    2165,    2166,    2217,    2216
    7326,    2166,    2167,    2218,    2217
    7327,    2167,    2168,    2219,    2218
    7328,    2168,    2169,    2220,    2219
    7329,    2169,    2170,    2221,    2220
    7330,    2170,    2171,    2222,    2221
    7331,    2171,    2172,    2223,    2222
    7332,    2172,    2173,    2224,    2223
    7333,    2173,    2174,    2225,    2224
    7334,    2174,    2175,    2226,    2225
    7335,    2175,    2176,    2227,    2226
    7336,    2176,    2177,    2228,    2227
    7337,    2177,    2178,    2229,    2228
    7338,    2178,    2179,    2230,    2229
    7339,    2179,    2180,    2231,    2230
    7340,    2180,    2181,    2232,    2231
    7341,    2181,    2182,    2233,    2232
    7342,    2182,    2183,    2234,    2233
    7343,    2183,    2184,    2235,    2234
    7344,    2184,    2185,    2236,    2235
    7345,    2185,    2186,    2237,    2236
    7346,    2186,    2187,    2238,    2237
    7347,    2187,    2188,    2239,    2238
    7348,    2188,    2189,    2240,    2239
    7349,    2189,    2190,    2241,    2240
    7350,    2190,    2191,    2242,    2241
    7351,    2191,    2192,    2243,    2242
    7352,    2192,    2193,    2244,    2243
    7353,    2194,    2195,    2246,    2245
    7354,    2195,    2196,    2247,    2246
    7355,    2196,    2197,    2248,    2247
    7356,    2197,    2198,    2249,    2248
    7357,    2198,    2199,    2250,    2249
    7358,    2199,    2200,    2251,    2250
    7359,    2200,    2201,    2252,    2251
    7360,    2201,    2202,    2253,    2252
    7361,    2202,    2203,    2254,    2253
    7362,    2203,    2204,    2255,    2254
    7363,    2204,    2205,    2256,    2255
    7364,    2205,    2206,    2257,    2256
    7365,    2206,    2207,    2258,    2257
    7366,    2207,    2208,    2259,    2258
    7367,    2208,    2209,    2260,    2259
    7368,    2209,    2210,    2261,    2260
    7369,    2210,    2211,    2262,    2261
    7370,    2211,    2212,    2263,    2262
    7371,    2212,    2213,    2264,    2263
    7372,    2213,    2214,    2265,    2264
    7373,    2214,    2215,    2266,    2265
    7374,    2215,    2216,    2267,    2266
    7375,    2216,    2217,    2268,    2267
    7376,    2217,    2218,    2269,    2268
    7377,    2218,    2219,    2270,    2269
    7378,    2219,    2220,    2271,    2270
    7379,    2220,    2221,    2272,    2271
    7380,    2221,    2222,    2273,    2272
    7381,    2222,    2223,    2274,    2273
    7382,    2223,    2224,    2275,    2274
    7383,    2224,    2225,    2276,    2275
    7384,    2225,    2226,    2277,    2276
    7385,    2226,    2227,    2278,    2277
    7386,    2227,    2228,    2279,    2278
    7387,    2228,    2229,    2280,    2279
    7388,    2229,    2230,    2281,    2280
    7389,    2230,    2231,    2282,    2281
    7390,    2231,    2232,    2283,    2282
    7391,    2232,    2233,    2284,    2283
    7392,    2233,    2234,    2285,    2284
    7393,    2234,    2235,    2286,    2285
    7394,    2235,    2236,    2287,    2286
    7395,    2236,    2237,    2288,    2287
    7396,    2237,    2238,    2289,    2288
    7397,    2238,    2239,    2290,    2289
    7398,    2239,    2240,    2291,    2290
    7399,    2240,    2241,    2292,    2291
    7400,    2241,    2242,    2293,    2292
    7401,    2242,    2243,    2294,    2293
    7402,    2243,    2244,    2295,    2294
    7403,    2245,    2246,    2297,    2296
    7404,    2246,    2247,    2298,    2297
    7405,    2247,    2248,    2299,    2298
    7406,    2248,    2249,    2300,    2299
    7407,    2249,    2250,    2301,    2300
    7408,    2250,    2251,    2302,    2301
    7409,    2251,    2252,    2303,    2302
    7410,    2252,    2253,    2304,    2303
    7411,    2253,    2254,    2305,    2304
    7412,    2254,    2255,    2306,    2305
    7413,    2255,    2256,    2307,    2306
    7414,    2256,    2257,    2308,    2307
    7415,    2257,    2258,    2309,    2308
    7416,    2258,    2259,    2310,    2309
    7417,    2259,    2260,    2311,    2310
    7418,    2260,    2261,    2312,    2311
    7419,    2261,    2262,    2313,    2312
    7420,    2262,    2263,    2314,    2313
    7421,    2263,    2264,    2315,    2314
    7422,    2264,    2265,    2316,    2315
    7423,    2265,    2266,    2317,    2316
    7424,    2266,    2267,    2318,    2317
    7425,    2267,    2268,    2319,    2318
    7426,    2268,    2269,    2320,    2319
    7427,    2269,    2270,    2321,    2320
    7428,    2270,    2271,    2322,    2321
    7429,    2271,    2272,    2323,    2322
    7430,    2272,    2273,    2324,    2323
    7431,    2273,    2274,    2325,    2324
    7432,    2274,    2275,    2326,    2325
    7433,    2275,    2276,    2327,    2326
    7434,    2276,    2277,    2328,    2327
    7435,    2277,    2278,    2329,    2328
    7436,    2278,    2279,    2330,    2329
    7437,    2279,    2280,    2331,    2330
    7438,    2280,    2281,    2332,    2331
    7439,    2281,    2282,    2333,    2332
    7440,    2282,    2283,    2334,    2333
    7441,    2283,    2284,    2335,    2334
    7442,    2284,    2285,    2336,    2335
    7443,    2285,    2286,    2337,    2336
    7444,    2286,    2287,    2338,    2337
    7445,    2287,    2288,    2339,    2338
    7446,    2288,    2289,    2340,    2339
    7447,    2289,    2290,    2341,    2340
    7448,    2290,    2291,    2342,    2341
    7449,    2291,    2292,    2343,    2342
    7450,    2292,    2293,    2344,    2343
    7451,    2293,    2294,    2345,    2344
    7452,    2294,    2295,    2346,    2345
    7453,    2296,    2297,    2348,    2347
    7454,    2297,    2298,    2349,    2348
    7455,    2298,    2299,    2350,    2349
    7456,    2299,    2300,    2351,    2350
    7457,    2300,    2301,    2352,    2351
    7458,    2301,    2302,    2353,    2352
    7459,    2302,    2303,    2354,    2353
    7460,    2303,    2304,    2355,    2354
    7461,    2304,    2305,    2356,    2355
    7462,    2305,    2306,    2357,    2356
    7463,    2306,    2307,    2358,    2357
    7464,    2307,    2308,    2359,    2358
    7465,    2308,    2309,    2360,    2359
    7466,    2309,    2310,    2361,    2360
    7467,    2310,    2311,    2362,    2361
    7468,    2311,    2312,    2363,    2362
    7469,    2312,    2313,    2364,    2363
    7470,    2313,    2314,    2365,    2364
    7471,    2314,    2315,    2366,    2365
    7472,    2315,    2316,    2367,    2366
    7473,    2316,    2317,    2368,    2367
    7474,    2317,    2318,    2369,    2368
    7475,    2318,    2319,    2370,    2369
    7476,    2319,    2320,    2371,    2370
    7477,    2320,    2321,    2372,    2371
    7478,    2321,    2322,    2373,    2372
    7479,    2322,    2323,    2374,    2373
    7480,    2323,    2324,    2375,    2374
    7481,    2324,    2325,    2376,    2375
    7482,    2325,    2326,    2377,    2376
    7483,    2326,    2327,    2378,    2377
    7484,    2327,    2328,    2379,    2378
    7485,    2328,    2329,    2380,    2379
    7486,    2329,    2330,    2381,    2380
    7487,    2330,    2331,    2382,    2381
    7488,    2331,    2332,    2383,    2382
    7489,    2332,    2333,    2384,    2383
    7490,    2333,    2334,    2385,    2384
    7491,    2334,    2335,    2386,    2385
    7492,    2335,    2336,    2387,    2386
    7493,    2336,    2337,    2388,    2387
    7494,    2337,    2338,    2389,    2388
    7495,    2338,    2339,    2390,    2389
    7496,    2339,    2340,    2391,    2390
    7497,    2340,    2341,    2392,    2391
    7498,    2341,    2342,    2393,    2392
    7499,    2342,    2343,    2394,    2393
    7500,    2343,    2344,    2395,    2394
    7501,    2344,    2345,    2396,    2395
    7502,    2345,    2346,    2397,    2396
    7503,    2347,    2348,    2399,    2398
    7504,    2348,    2349,    2400,    2399
    7505,    2349,    2350,    2401,    2400
    7506,    2350,    2351,    2402,    2401
    7507,    2351,    2352,    2403,    2402
    7508,    2352,    2353,    2404,    2403
    7509,    2353,    2354,    2405,    2404
    7510,    2354,    2355,    2406,    2405
    7511,    2355,    2356,    2407,    2406
    7512,    2356,    2357,    2408,    2407
    7513,    2357,    2358,    2409,    2408
    7514,    2358,    2359,    2410,    2409
    7515,    2359,    2360,    2411,    2410
    7516,    2360,    2361,    2412,    2411
    7517,    2361,    2362,    2413,    2412
    7518,    2362,    2363,    2414,    2413
    7519,    2363,    2364,    2415,    2414
    7520,    2364,    2365,    2416,    2415
    7521,    2365,    2366,    2417,    2416
    7522,    2366,    2367,    2418,    2417
    7523,    2367,    2368,    2419,    2418
    7524,    2368,    2369,    2420,    2419
    7525,    2369,    2370,    2421,    2420
    7526,    2370,    2371,    2422,    2421
    7527,    2371,    2372,    2423,    2422
    7528,    2372,    2373,    2424,    2423
    7529,    2373,    2374,    2425,    2424
    7530,    2374,    2375,    2426,    2425
    7531,    2375,    2376,    2427,    2426
    7532,    2376,    2377,    2428,    2427
    7533,    2377,    2378,    2429,    2428
    7534,    2378,    2379,    2430,    2429
    7535,    2379,    2380,    2431,    2430
    7536,    2380,    2381,    2432,    2431
    7537,    2381,    2382,    2433,    2432
    7538,    2382,    2383,    2434,    2433
    7539,    2383,    2384,    2435,    2434
    7540,    2384,    2385,    2436,    2435
    7541,    2385,    2386,    2437,    2436
    7542,    2386,    2387,    2438,    2437
    7543,    2387,    2388,    2439,    2438
    7544,    2388,    2389,    2440,    2439
    7545,    2389,    2390,    2441,    2440
    7546,    2390,    2391,    2442,    2441
    7547,    2391,    2392,    2443,    2442
    7548,    2392,    2393,    2444,    2443
    7549,    2393,    2394,    2445,    2444
    7550,    2394,    2395,    2446,    2445
    7551,    2395,    2396,    2447,    2446
    7552,    2396,    2397,    2448,    2447
    7553,    2398,    2399,    2450,    2449
    7554,    2399,    2400,    2451,    2450
    7555,    2400,    2401,    2452,    2451
    7556,    2401,    2402,    2453,    2452
    7557,    2402,    2403,    2454,    2453
    7558,    2403,    2404,    2455,    2454
    7559,    2404,    2405,    2456,    2455
    7560,    2405,    2406,    2457,    2456
    7561,    2406,    2407,    2458,    2457
    7562,    2407,    2408,    2459,    2458
    7563,    2408,    2409,    2460,    2459
    7564,    2409,    2410,    2461,    2460
    7565,    2410,    2411,    2462,    2461
    7566,    2411,    2412,    2463,    2462
    7567,    2412,    2413,    2464,    2463
    7568,    2413,    2414,    2465,    2464
    7569,    2414,    2415,    2466,    2465
    7570,    2415,    2416,    2467,    2466
    7571,    2416,    2417,    2468,    2467
    7572,    2417,    2418,    2469,    2468
    7573,    2418,    2419,    2470,    2469
    7574,    2419,    2420,    2471,    2470
    7575,    2420,    2421,    2472,    2471
    7576,    2421,    2422,    2473,    2472
    7577,    2422,    2423,    2474,    2473
    7578,    2423,    2424,    2475,    2474
    7579,    2424,    2425,    2476,    2475
    7580,    2425,    2426,    2477,    2476
    7581,    2426,    2427,    2478,    2477
    7582,    2427,    2428,    2479,    2478
    7583,    2428,    2429,    2480,    2479
    7584,    2429,    2430,    2481,    2480
    7585,    2430,    2431,    2482,    2481
    7586,    2431,    2432,    2483,    2482
    7587,    2432,    2433,    2484,    2483
    7588,    2433,    2434,    2485,    2484
    7589,    2434,    2435,    2486,    2485
    7590,    2435,    2436,    2487,    2486
    7591,    2436,    2437,    2488,    2487
    7592,    2437,    2438,    2489,    2488
    7593,    2438,    2439,    2490,    2489
    7594,    2439,    2440,    2491,    2490
    7595,    2440,    2441,    2492,    2491
    7596,    2441,    2442,    2493,    2492
    7597,    2442,    2443,    2494,    2493
    7598,    2443,    2444,    2495,    2494
    7599,    2444,    2445,    2496,    2495
    7600,    2445,    2446,    2497,    2496
    7601,    2446,    2447,    2498,    2497
    7602,    2447,    2448,    2499,    2498
    7603,    2449,    2450,    2501,    2500
    7604,    2450,    2451,    2502,    2501
    7605,    2451,    2452,    2503,    2502
    7606,    2452,    2453,    2504,    2503
    7607,    2453,    2454,    2505,    2504
    7608,    2454,    2455,    2506,    2505
    7609,    2455,    2456,    2507,    2506
    7610,    2456,    2457,    2508,    2507
    7611,    2457,    2458,    2509,    2508
    7612,    2458,    2459,    2510,    2509
    7613,    2459,    2460,    2511,    2510
    7614,    2460,    2461,    2512,    2511
    7615,    2461,    2462,    2513,    2512
    7616,    2462,    2463,    2514,    2513
    7617,    2463,    2464,    2515,    2514
    7618,    2464,    2465,    2516,    2515
    7619,    2465,    2466,    2517,    2516
    7620,    2466,    2467,    2518,    2517
    7621,    2467,    2468,    2519,    2518
    7622,    2468,    2469,    2520,    2519
    7623,    2469,    2470,    2521,    2520
    7624,    2470,    2471,    2522,    2521
    7625,    2471,    2472,    2523,    2522
    7626,    2472,    2473,    2524,    2523
    7627,    2473,    2474,    2525,    2524
    7628,    2474,    2475,    2526,    2525
    7629,    2475,    2476,    2527,    2526
    7630,    2476,    2477,    2528,    2527
    7631,    2477,    2478,    2529,    2528
    7632,    2478,    2479,    2530,    2529
    7633,    2479,    2480,    2531,    2530
    7634,    2480,    2481,    2532,    2531
    7635,    2481,    2482,    2533,    2532
    7636,    2482,    2483,    2534,    2533
    7637,    2483,    2484,    2535,    2534
    7638,    2484,    2485,    2536,    2535
    7639,    2485,    2486,    2537,    2536
    7640,    2486,    2487,    2538,    2537
    7641,    2487,    2488,    2539,    2538
    7642,    2488,    2489,    2540,    2539
    7643,    2489,    2490,    2541,    2540
    7644,    2490,    2491,    2542,    2541
    7645,    2491,    2492,    2543,    2542
    7646,    2492,    2493,    2544,    2543
    7647,    2493,    2494,    2545,    2544
    7648,    2494,    2495,    2546,    2545
    7649,    2495,    2496,    2547,    2546
    7650,    2496,    2497,    2548,    2547
    7651,    2497,    2498,    2549,    2548
    7652,    2498,    2499,    2550,    2549
    7653,    2500,    2501,    2552,    2551
    7654,    2501,    2502,    2553,    2552
    7655,    2502,    2503,    2554,    2553
    7656,    2503,    2504,    2555,    2554
    7657,    2504,    2505,    2556,    2555
    7658,    2505,    2506,    2557,    2556
    7659,    2506,    2507,    2558,    2557
    7660,    2507,    2508,    2559,    2558
    7661,    2508,    2509,    2560,    2559
    7662,    2509,    2510,    2561,    2560
    7663,    2510,    2511,    2562,    2561
    7664,    2511,    2512,    2563,    2562
    7665,    2512,    2513,    2564,    2563
    7666,    2513,    2514,    2565,    2564
    7667,    2514,    2515,    2566,    2565
    7668,    2515,    2516,    2567,    2566
    7669,    2516,    2517,    2568,    2567
    7670,    2517,    2518,    2569,    2568
    7671,    2518,    2519,    2570,    2569
    7672,    2519,    2520,    2571,    2570
    7673,    2520,    2521,    2572,    2571
    7674,    2521,    2522,    2573,    2572
    7675,    2522,    2523,    2574,    2573
    7676,    2523,    2524,    2575,    2574
    7677,    2524,    2525,    2576,    2575
    7678,    2525,    2526,    2577,    2576
    7679,    2526,    2527,    2578,    2577
    7680,    2527,    2528,    2579,    2578
    7681,    2528,    2529,    2580,    2579
    7682,    2529,    2530,    2581,    2580
    7683,    2530,    2531,    2582,    2581
    7684,    2531,    2532,    2583,    2582
    7685,    2532,    2533,    2584,    2583
    7686,    2533,    2534,    2585,    2584
    7687,    2534,    2535,    2586,    2585
    7688,    2535,    2536,    2587,    2586
    7689,    2536,    2537,    2588,    2587
    7690,    2537,    2538,    2589,    2588
    7691,    2538,    2539,    2590,    2589
    7692,    2539,    2540,    2591,    2590
    7693,    2540,    2541,    2592,    2591
    7694,    2541,    2542,    2593,    2592
    7695,    2542,    2543,    2594,    2593
    7696,    2543,    2544,    2595,    2594
    7697,    2544,    2545,    2596,    2595
    7698,    2545,    2546,    2597,    2596
    7699,    2546,    2547,    2598,    2597
    7700,    2547,    2548,    2599,    2598
    7701,    2548,    2549,    2600,    2599
    7702,    2549,    2550,    2601,    2600
*Elset, elset=PHASE
 PHASE_QUAD
*Elset, elset=DISP
 DISP_QUAD
*Elset, elset=UMATELEM
 UMAT_QUAD
*UEL Property, elset=PHASE_QUAD
 1.500000e-02, 2.700000e-03, 1.000000e+00
*UEL Property, elset=DISP_QUAD
 2.100000e+02, 3.000000e-01, 1.000000e+00, 1.000000e-07, 2601.0
*Solid Section, elset=UMAT_QUAD, material=MAT_QUAD_FACSIMILE
 1.000000,
*Material, name=MAT_QUAD_FACSIMILE
*Depvar
 18
*User Material, constants=4
 1.000000e-11, 3.000000e-01, 2601.0, 4.0
*Equation
 2
 2551, 1, 1.0, 2602, 1, -1.0
*Equation
 2
 2552, 1, 1.0, 2602, 1, -1.0
*Equation
 2
 2553, 1, 1.0, 2602, 1, -1.0
*Equation
 2
 2554, 1, 1.0, 2602, 1, -1.0
*Equation
 2
 2555, 1, 1.0, 2602, 1, -1.0
*Equation
 2
 2556, 1, 1.0, 2602, 1, -1.0
*Equation
 2
 2557, 1, 1.0, 2602, 1, -1.0
*Equation
 2
 2558, 1, 1.0, 2602, 1, -1.0
*Equation
 2
 2559, 1, 1.0, 2602, 1, -1.0
*Equation
 2
 2560, 1, 1.0, 2602, 1, -1.0
*Equation
 2
 2561, 1, 1.0, 2602, 1, -1.0
*Equation
 2
 2562, 1, 1.0, 2602, 1, -1.0
*Equation
 2
 2563, 1, 1.0, 2602, 1, -1.0
*Equation
 2
 2564, 1, 1.0, 2602, 1, -1.0
*Equation
 2
 2565, 1, 1.0, 2602, 1, -1.0
*Equation
 2
 2566, 1, 1.0, 2602, 1, -1.0
*Equation
 2
 2567, 1, 1.0, 2602, 1, -1.0
*Equation
 2
 2568, 1, 1.0, 2602, 1, -1.0
*Equation
 2
 2569, 1, 1.0, 2602, 1, -1.0
*Equation
 2
 2570, 1, 1.0, 2602, 1, -1.0
*Equation
 2
 2571, 1, 1.0, 2602, 1, -1.0
*Equation
 2
 2572, 1, 1.0, 2602, 1, -1.0
*Equation
 2
 2573, 1, 1.0, 2602, 1, -1.0
*Equation
 2
 2574, 1, 1.0, 2602, 1, -1.0
*Equation
 2
 2575, 1, 1.0, 2602, 1, -1.0
*Equation
 2
 2576, 1, 1.0, 2602, 1, -1.0
*Equation
 2
 2577, 1, 1.0, 2602, 1, -1.0
*Equation
 2
 2578, 1, 1.0, 2602, 1, -1.0
*Equation
 2
 2579, 1, 1.0, 2602, 1, -1.0
*Equation
 2
 2580, 1, 1.0, 2602, 1, -1.0
*Equation
 2
 2581, 1, 1.0, 2602, 1, -1.0
*Equation
 2
 2582, 1, 1.0, 2602, 1, -1.0
*Equation
 2
 2583, 1, 1.0, 2602, 1, -1.0
*Equation
 2
 2584, 1, 1.0, 2602, 1, -1.0
*Equation
 2
 2585, 1, 1.0, 2602, 1, -1.0
*Equation
 2
 2586, 1, 1.0, 2602, 1, -1.0
*Equation
 2
 2587, 1, 1.0, 2602, 1, -1.0
*Equation
 2
 2588, 1, 1.0, 2602, 1, -1.0
*Equation
 2
 2589, 1, 1.0, 2602, 1, -1.0
*Equation
 2
 2590, 1, 1.0, 2602, 1, -1.0
*Equation
 2
 2591, 1, 1.0, 2602, 1, -1.0
*Equation
 2
 2592, 1, 1.0, 2602, 1, -1.0
*Equation
 2
 2593, 1, 1.0, 2602, 1, -1.0
*Equation
 2
 2594, 1, 1.0, 2602, 1, -1.0
*Equation
 2
 2595, 1, 1.0, 2602, 1, -1.0
*Equation
 2
 2596, 1, 1.0, 2602, 1, -1.0
*Equation
 2
 2597, 1, 1.0, 2602, 1, -1.0
*Equation
 2
 2598, 1, 1.0, 2602, 1, -1.0
*Equation
 2
 2599, 1, 1.0, 2602, 1, -1.0
*Equation
 2
 2600, 1, 1.0, 2602, 1, -1.0
*Equation
 2
 2601, 1, 1.0, 2602, 1, -1.0
*Boundary
 bottom_nodes, 1, 2
*Boundary
 top_nodes, 2, 2
*Amplitude, name=Amp-1
 0.0, 0.0, 0.5, 0.005
*Amplitude, name=Amp-2
 0.0, 0.005, 0.2, 0.010
*Step, name=Step-1, nlgeom=NO, inc=500
*Static, direct
 0.001, 0.5,
*Boundary, amplitude=Amp-1
 RP, 1, 1, 1.0
*Restart, write, frequency=0
*Output, field, time interval=0.01
*Node Output
 U, RF
*Node Output, nset=RP
 RF, U
*Element Output, elset=UMATELEM
 SDV, S, EVOL
*Output, history, variable=PRESELECT
*Energy Output
 ALLAE, ALLCD, ALLIE, ALLKE, ALLPD, ALLSE, ALLWK, ETOTAL
*End Step
*Step, name=Step-2, nlgeom=NO, inc=2000
*Static, direct
 0.0001, 0.2,
*Boundary, amplitude=Amp-2
 RP, 1, 1, 1.0
*Restart, write, frequency=0
*Output, field, time interval=0.01
*Node Output
 U, RF
*Node Output, nset=RP
 RF, U
*Element Output, elset=UMATELEM
 SDV, S, EVOL
*Output, history, variable=PRESELECT
*Energy Output
 ALLAE, ALLCD, ALLIE, ALLKE, ALLPD, ALLSE, ALLWK, ETOTAL
*End Step
