*HEADING
PK_M1_STAGE14_STEP2_ET5_4K_FRACTURE - 3-Layer UEL Fracture Solve
** Finite Elements: 4692 (4522 quads, 170 tris), Nodes: 4759
** Parameters: E=210 GPa, nu=0.3, l0=0.0075 mm, Gc=0.0027 kN/mm, eta=1e-7
** ----------------------------------------------------------
*USER ELEMENT, TYPE=U1, NODES=4, COORDINATES=2, PROPERTIES=6, VARIABLES=18, UNSYMM
3
*USER ELEMENT, TYPE=U2, NODES=4, COORDINATES=2, PROPERTIES=6, VARIABLES=18, UNSYMM
1, 2
*USER ELEMENT, TYPE=U3, NODES=3, COORDINATES=2, PROPERTIES=6, VARIABLES=18, UNSYMM
3
*USER ELEMENT, TYPE=U4, NODES=3, COORDINATES=2, PROPERTIES=6, VARIABLES=18, UNSYMM
1, 2
*NODE
1, 0.9604716300, 0.0000000000
2, 0.9209131000, 0.0000000000
3, 0.8813685180, 0.0000000000
4, 0.8421180840, 0.0000000000
5, 0.7832753660, 0.0000000000
6, 0.7437281610, 0.0000000000
7, 0.7041741610, 0.0000000000
8, 0.6649261710, 0.0000000000
9, 0.6257364750, 0.0000000000
10, 0.5862374310, 0.0000000000
11, 0.5466868880, 0.0000000000
12, 0.5071263310, 0.0000000000
13, 0.4675812130, 0.0000000000
14, 0.4085768460, 0.0000000000
15, 0.3699188230, 0.0000000000
16, 0.3310842510, 0.0000000000
17, 0.2916529770, 0.0000000000
18, 0.2520924810, 0.0000000000
19, 0.2125350830, 0.0000000000
20, 0.1732450130, 0.0000000000
21, 0.1161731480, 0.0000000000
22, 0.0782241225, 0.0000000000
23, 0.0394495130, 0.0000000000
24, 1.0000000000, 0.0000000000
25, 0.0000000000, 0.0000000000
26, 1.0000000000, 0.9612411260
27, 1.0000000000, 0.9224355220
28, 1.0000000000, 0.8839166160
29, 1.0000000000, 0.8271752000
30, 1.0000000000, 0.7893636820
31, 1.0000000000, 0.7509906290
32, 1.0000000000, 0.7122440930
33, 1.0000000000, 0.6734840870
34, 1.0000000000, 0.6153937580
35, 1.0000000000, 0.5801187750
36, 1.0000000000, 0.5414004920
37, 1.0000000000, 0.4987173680
38, 1.0000000000, 0.4540836810
39, 1.0000000000, 0.4165145160
40, 1.0000000000, 0.3778418900
41, 1.0000000000, 0.3400130870
42, 1.0000000000, 0.2836771010
43, 1.0000000000, 0.2453408240
44, 1.0000000000, 0.2065274720
45, 1.0000000000, 0.1677365300
46, 1.0000000000, 0.1294665930
47, 1.0000000000, 0.0744772553
48, 1.0000000000, 0.0378172398
49, 1.0000000000, 1.0000000000
50, 0.0399597734, 1.0000000000
51, 0.0799582377, 1.0000000000
52, 0.1197055280, 1.0000000000
53, 0.1585501430, 1.0000000000
54, 0.2169005570, 1.0000000000
55, 0.2567157150, 1.0000000000
56, 0.2966921030, 1.0000000000
57, 0.3366741840, 1.0000000000
58, 0.3766543870, 1.0000000000
59, 0.4157571490, 1.0000000000
60, 0.4529316130, 1.0000000000
61, 0.5093755130, 1.0000000000
62, 0.5491167900, 1.0000000000
63, 0.5891067390, 1.0000000000
64, 0.6285761590, 1.0000000000
65, 0.6668527720, 1.0000000000
66, 0.7048736810, 1.0000000000
67, 0.7437164190, 1.0000000000
68, 0.7836079600, 1.0000000000
69, 0.8236122130, 1.0000000000
70, 0.8835373520, 1.0000000000
71, 0.9225852490, 1.0000000000
72, 0.9609189630, 1.0000000000
73, 0.0000000000, 1.0000000000
74, 0.0000000000, 0.5403067470
75, 0.0000000000, 0.5806134340
76, 0.0000000000, 0.6209201810
77, 0.0000000000, 0.6612268690
78, 0.0000000000, 0.7015336160
79, 0.0000000000, 0.7418403630
80, 0.0000000000, 0.7821470500
81, 0.0000000000, 0.8426071410
82, 0.0000000000, 0.8828169110
83, 0.0000000000, 0.9220191840
84, 0.0000000000, 0.9606033560
85, 0.0000000000, 0.5000000000
86, 0.4588881130, 0.5000000000
87, 0.4113177660, 0.5000000000
88, 0.3749905230, 0.5000000000
89, 0.3364792470, 0.5000000000
90, 0.2970779840, 0.5000000000
91, 0.2573483590, 0.5000000000
92, 0.2176562850, 0.5000000000
93, 0.1585648950, 0.5000000000
94, 0.1191706960, 0.5000000000
95, 0.0794787407, 0.5000000000
96, 0.0397395492, 0.5000000000
97, 0.5000000000, 0.5000000000
98, 0.0000000000, 0.0403786004
99, 0.0000000000, 0.0807572007
100, 0.0000000000, 0.1210836620
101, 0.0000000000, 0.1610288920
102, 0.0000000000, 0.2010387030
103, 0.0000000000, 0.2413899900
104, 0.0000000000, 0.2817685900
105, 0.0000000000, 0.3418717980
106, 0.0000000000, 0.3806039090
107, 0.0000000000, 0.4195191560
108, 0.0000000000, 0.4596214000
109, 0.9614604120, 0.0373005942
110, 0.9219333530, 0.0375706963
111, 0.8448466660, 0.0359130017
112, 0.7856876850, 0.0418491885
113, 0.7445126770, 0.0392031781
114, 0.7059492470, 0.0375297703
115, 0.6688036920, 0.0382446982
116, 0.6271759270, 0.0503674932
117, 0.5835114720, 0.0436187387
118, 0.5449868440, 0.0371462964
119, 0.4470877950, 0.0364751518
120, 0.4122475680, 0.0455753021
121, 0.3800828160, 0.0557193197
122, 0.3314336840, 0.0488012806
123, 0.2873207630, 0.0392435044
124, 0.2490258660, 0.0346566625
125, 0.2119063440, 0.0318032168
126, 0.1604505180, 0.0455318242
127, 0.1299230010, 0.0511856303
128, 0.0959224775, 0.0573065057
129, 0.0400863923, 0.0410760120
130, 0.9482271670, 0.0929942131
131, 0.9147843720, 0.0819414183
132, 0.8690730930, 0.0853132382
133, 0.8334609270, 0.0730604380
134, 0.7894086840, 0.0978867933
135, 0.7424330120, 0.0766699910
136, 0.7051482800, 0.0779724941
137, 0.6725606320, 0.0707624108
138, 0.6265722510, 0.0996525437
139, 0.5806369190, 0.0895334408
140, 0.5399722460, 0.0705891252
141, 0.4992321730, 0.0895810127
142, 0.4633109270, 0.0928727761
143, 0.4122954310, 0.0802814960
144, 0.3675687020, 0.0937631726
145, 0.3232078850, 0.0954619721
146, 0.2874598500, 0.0973017663
147, 0.2555065450, 0.0896359608
148, 0.2084954230, 0.0647464171
149, 0.1625975820, 0.0733548328
150, 0.1196011450, 0.0836965442
151, 0.0907976627, 0.0846982151
152, 0.0558738522, 0.0835837349
153, 0.9488178490, 0.1278700530
154, 0.9215715530, 0.1234402430
155, 0.8765560390, 0.1214248610
156, 0.8319343330, 0.1324960140
157, 0.7889854910, 0.1224951970
158, 0.7473669050, 0.1225781740
159, 0.7059806590, 0.1308683010
160, 0.6699073310, 0.1251124440
161, 0.6334567070, 0.1249755100
162, 0.5799052720, 0.1277859210
163, 0.5314980750, 0.1190145090
164, 0.4989703000, 0.1249205470
165, 0.4473604560, 0.1382229330
166, 0.4185578230, 0.1218471600
167, 0.3767467740, 0.1184162870
168, 0.3354964850, 0.1315744070
169, 0.2772315140, 0.1304262580
170, 0.2465197890, 0.1219385940
171, 0.2135947790, 0.1187531950
172, 0.1613412200, 0.1290531610
173, 0.1190576850, 0.1243699190
174, 0.0783647448, 0.1176692770
175, 0.0383357108, 0.1221778540
176, 0.9625423550, 0.1658763890
177, 0.9246301650, 0.1545481090
178, 0.8717198370, 0.1720856580
179, 0.8355935220, 0.1664822100
180, 0.8052931430, 0.1804596040
181, 0.7445594070, 0.1698314700
182, 0.7007274030, 0.1693437550
183, 0.6671486500, 0.1667028520
184, 0.6346642970, 0.1671781090
185, 0.5801662210, 0.1695110800
186, 0.5378516910, 0.1654500660
187, 0.4968657200, 0.1571675840
188, 0.4569026830, 0.1783973280
189, 0.4253218170, 0.1612998400
190, 0.3742768760, 0.1764328180
191, 0.3250221310, 0.1842106580
192, 0.2836440800, 0.1517783550
193, 0.2398205400, 0.1649857310
194, 0.2206690760, 0.1746535150
195, 0.1654070620, 0.1627982110
196, 0.1259145890, 0.1722247450
197, 0.0765888318, 0.1636896130
198, 0.0432381406, 0.1657064110
199, 0.9625251890, 0.2042648940
200, 0.9085394140, 0.2023159410
201, 0.8742314580, 0.2169609960
202, 0.8275259140, 0.1983811560
203, 0.7936267260, 0.2088459880
204, 0.7576057310, 0.2094384880
205, 0.7146046160, 0.2023459670
206, 0.6634448770, 0.2115489840
207, 0.6244245170, 0.1911275240
208, 0.5842911010, 0.2091645000
209, 0.5344913010, 0.2032348960
210, 0.5037501450, 0.2064144760
211, 0.4545206430, 0.2109332830
212, 0.4202041030, 0.1981785600
213, 0.3825506570, 0.2039915030
214, 0.3304582830, 0.2170838420
215, 0.2827729580, 0.2116611900
216, 0.2498743680, 0.1959450690
217, 0.2100477070, 0.2037148620
218, 0.1765530560, 0.2160303740
219, 0.1333714870, 0.2061798870
220, 0.0933092460, 0.2112845030
221, 0.0373206921, 0.2063936590
222, 0.9609668850, 0.2426848710
223, 0.9049268360, 0.2473947410
224, 0.8766645790, 0.2511209550
225, 0.8367194530, 0.2475877700
226, 0.7867810130, 0.2598744330
227, 0.7520981430, 0.2510736880
228, 0.7173654440, 0.2499804940
229, 0.6656255130, 0.2550981640
230, 0.6186981800, 0.2406380030
231, 0.5838937160, 0.2353949700
232, 0.5464348790, 0.2470858990
233, 0.5070588590, 0.2559913990
234, 0.4466202260, 0.2444191580
235, 0.4199198190, 0.2421215180
236, 0.3636751770, 0.2638036610
237, 0.3225012420, 0.2535272540
238, 0.2823051510, 0.2613637450
239, 0.2488171310, 0.2300291210
240, 0.2109096500, 0.2385159430
241, 0.1641238030, 0.2438212340
242, 0.1173288820, 0.2437130210
243, 0.0764924958, 0.2455100420
244, 0.0376627445, 0.2446111440
245, 0.9585729840, 0.2807187140
246, 0.9130305050, 0.2969439030
247, 0.8762186770, 0.2939585150
248, 0.8290768270, 0.2837310730
249, 0.7934514280, 0.2917463780
250, 0.7575494050, 0.2938634460
251, 0.7135892510, 0.2888123390
252, 0.6803883310, 0.2902310790
253, 0.6165907380, 0.2943448130
254, 0.5843684670, 0.2918198110
255, 0.4972112480, 0.2973969880
256, 0.4634823500, 0.2849235830
257, 0.4234354500, 0.2939175960
258, 0.3600542840, 0.3002781270
259, 0.3203690350, 0.2979640070
260, 0.2886655930, 0.2943005260
261, 0.2463354770, 0.2967097160
262, 0.2104458060, 0.2884622510
263, 0.1672934890, 0.3005110030
264, 0.1359235350, 0.2933056950
265, 0.0820451826, 0.2844276430
266, 0.0390269011, 0.2837414740
267, 0.9437950250, 0.3358273210
268, 0.9103495480, 0.3335703020
269, 0.8808810110, 0.3367923200
270, 0.8366526370, 0.3286914530
271, 0.7812677620, 0.3278490900
272, 0.7448267940, 0.3215579690
273, 0.7023118730, 0.3411805630
274, 0.6709485050, 0.3304518760
275, 0.6186490650, 0.3312408630
276, 0.5818109510, 0.3234025540
277, 0.5628007650, 0.3321907820
278, 0.5008428100, 0.3384884600
279, 0.4610520010, 0.3361649220
280, 0.4080790280, 0.3252298530
281, 0.3684412540, 0.3377294540
282, 0.3367095290, 0.3316771390
283, 0.2906430070, 0.3368304970
284, 0.2476754640, 0.3341312410
285, 0.1979725360, 0.3425669370
286, 0.1604663130, 0.3357401790
287, 0.1144980490, 0.3410829010
288, 0.0771437436, 0.3397100570
289, 0.0388185568, 0.3235736790
290, 0.9627732630, 0.3764344450
291, 0.9264603850, 0.3813893500
292, 0.8738326430, 0.3833401200
293, 0.8316084740, 0.3816477360
294, 0.7958222030, 0.3695248370
295, 0.7435520290, 0.3787978590
296, 0.7025619750, 0.3785746100
297, 0.6796185370, 0.3767899270
298, 0.6308607460, 0.3711321950
299, 0.5871903300, 0.3769895430
300, 0.5362558360, 0.3653128740
301, 0.5016191010, 0.3656300310
302, 0.4577177460, 0.3819879590
303, 0.4169423280, 0.3745476600
304, 0.3714585900, 0.3752859230
305, 0.3417721090, 0.3793435690
306, 0.2903639970, 0.3809814160
307, 0.2388955350, 0.3809484540
308, 0.2125831250, 0.3781859580
309, 0.1698071210, 0.3772422370
310, 0.1115450640, 0.3834282460
311, 0.0825576931, 0.3790681360
312, 0.9671688080, 0.4139007630
313, 0.9142497180, 0.4306492510
314, 0.8744526510, 0.4161280990
315, 0.8402152060, 0.4152134660
316, 0.7956234220, 0.4248999060
317, 0.7429535390, 0.4132656460
318, 0.7176300880, 0.4083481430
319, 0.6813800330, 0.4103994670
320, 0.6363524790, 0.4146934450
321, 0.5842578410, 0.4137057660
322, 0.5504181390, 0.4116367400
323, 0.5004952550, 0.4103090170
324, 0.4493927060, 0.4130323830
325, 0.4203352630, 0.4084395170
326, 0.3745512370, 0.4096762540
327, 0.3440655170, 0.4093409480
328, 0.2978526650, 0.4229096170
329, 0.2508192360, 0.4114369450
330, 0.2065934990, 0.4189836380
331, 0.1663522570, 0.4172129030
332, 0.1284314100, 0.4111524220
333, 0.0771236122, 0.4182851910
334, 0.0383308269, 0.4197913110
335, 0.9586617350, 0.4608238340
336, 0.9135906100, 0.4574885670
337, 0.8722400670, 0.4537070990
338, 0.8247852920, 0.4516289530
339, 0.7926329370, 0.4507590530
340, 0.7569748160, 0.4417456980
341, 0.6694880720, 0.4562003020
342, 0.6329646110, 0.4558080730
343, 0.5930886860, 0.4531095920
344, 0.5397254820, 0.4557733240
345, 0.4989754860, 0.4467416410
346, 0.4600258170, 0.4564275740
347, 0.4300638140, 0.4562335310
348, 0.3780513110, 0.4643008710
349, 0.3389936690, 0.4600615200
350, 0.2988685670, 0.4615768790
351, 0.2614765170, 0.4435803890
352, 0.2213938980, 0.4605588320
353, 0.1626494820, 0.4589766260
354, 0.1211338710, 0.4573868810
355, 0.0793155283, 0.4586774110
356, 0.0394047424, 0.4595427810
357, 0.9560822840, 0.5431634190
358, 0.9179033040, 0.5419429540
359, 0.8743515610, 0.5432150960
360, 0.8343220950, 0.5425308350
361, 0.7892972230, 0.5395189520
362, 0.7507664560, 0.5349169370
363, 0.7099237440, 0.5391451720
364, 0.6673747900, 0.5427134040
365, 0.6249053480, 0.5386949780
366, 0.5851269360, 0.5454306600
367, 0.5069668290, 0.5581202510
368, 0.4589085880, 0.5468904970
369, 0.4150319400, 0.5490822790
370, 0.3739857080, 0.5364413860
371, 0.3358308670, 0.5429142120
372, 0.2951651810, 0.5404150490
373, 0.2563273010, 0.5386179090
374, 0.1989088950, 0.5380819440
375, 0.1600577380, 0.5389682650
376, 0.1205198910, 0.5404722690
377, 0.0804068297, 0.5408633350
378, 0.0403570645, 0.5407832860
379, 0.9534310700, 0.5822117330
380, 0.9215487240, 0.5830368400
381, 0.8852019910, 0.5798613430
382, 0.8370136020, 0.5932524200
383, 0.7913603780, 0.5848415490
384, 0.7419757250, 0.5834221840
385, 0.7133690120, 0.5814263220
386, 0.6760019060, 0.5894745590
387, 0.6180496220, 0.5824723840
388, 0.5850224490, 0.5829037430
389, 0.5356163980, 0.5893383030
390, 0.5050569770, 0.5845434070
391, 0.4611621200, 0.5801337960
392, 0.4281033580, 0.5770145650
393, 0.3822779660, 0.5791402460
394, 0.3229024110, 0.5881059770
395, 0.2900725310, 0.5790503030
396, 0.2543549840, 0.5776610370
397, 0.2182107870, 0.5763044360
398, 0.1646181200, 0.5936719180
399, 0.1231093030, 0.5826161500
400, 0.0809481367, 0.5808017250
401, 0.0410325713, 0.5815674070
402, 0.9626654980, 0.6177885530
403, 0.8973254560, 0.6326415540
404, 0.8768259290, 0.6225666400
405, 0.8293957110, 0.6397921440
406, 0.7793115970, 0.6173909900
407, 0.7525819540, 0.6321467760
408, 0.7073814270, 0.6220788960
409, 0.6631827950, 0.6379975080
410, 0.6277317400, 0.6300601360
411, 0.5868928430, 0.6267402770
412, 0.5448383090, 0.6260559560
413, 0.5192376970, 0.6260772940
414, 0.4560061400, 0.6331072450
415, 0.4156479540, 0.6250223520
416, 0.3707421720, 0.6432309150
417, 0.3288827840, 0.6267161370
418, 0.2846925560, 0.6176131960
419, 0.2521880270, 0.6188825370
420, 0.2164880630, 0.6147946720
421, 0.1665673700, 0.6251205210
422, 0.1182533580, 0.6166509990
423, 0.0885525346, 0.6301255230
424, 0.0414818414, 0.6234640480
425, 0.9631395940, 0.6740126610
426, 0.9261191490, 0.6764436960
427, 0.8698269130, 0.6674793360
428, 0.8274264930, 0.6697158810
429, 0.8080351350, 0.6744285820
430, 0.7525478600, 0.6788519620
431, 0.7020224930, 0.6758102770
432, 0.6671417950, 0.6821118000
433, 0.6319762470, 0.6695123910
434, 0.5853462820, 0.6684361700
435, 0.5606403350, 0.6678617600
436, 0.4948370750, 0.6733844280
437, 0.4598352310, 0.6671166420
438, 0.4186012150, 0.6620222330
439, 0.3884336050, 0.6702099440
440, 0.3281483350, 0.6671557430
441, 0.2898646590, 0.6642921570
442, 0.2415970410, 0.6650609370
443, 0.2033736110, 0.6665408610
444, 0.1661805960, 0.6600710150
445, 0.1267768140, 0.6590420010
446, 0.0965382233, 0.6476348640
447, 0.0377245396, 0.6641464230
448, 0.9635211230, 0.7114315030
449, 0.9275018570, 0.7107943300
450, 0.8858373170, 0.7138561010
451, 0.8332976700, 0.7082778810
452, 0.7922812700, 0.7189685110
453, 0.7639972570, 0.7084379200
454, 0.7033814790, 0.7202659850
455, 0.6656225320, 0.7028982040
456, 0.6329343910, 0.7174713020
457, 0.5957296490, 0.7115806340
458, 0.5502957700, 0.7163873310
459, 0.5011314750, 0.7105478050
460, 0.4587413370, 0.7027080660
461, 0.4087318780, 0.7126203780
462, 0.3775224390, 0.7012711760
463, 0.3383517860, 0.7077760700
464, 0.2847641410, 0.7218840720
465, 0.2356572750, 0.7071070080
466, 0.1967511620, 0.7161479590
467, 0.1660698210, 0.7071175580
468, 0.1179006550, 0.7089573140
469, 0.0774641335, 0.7026396990
470, 0.0379076339, 0.7025773530
471, 0.9617670770, 0.7493987080
472, 0.9269913430, 0.7443351150
473, 0.8836984040, 0.7398925420
474, 0.8284711240, 0.7475898860
475, 0.7854370470, 0.7493470310
476, 0.7430235150, 0.7509009840
477, 0.6915618780, 0.7595634460
478, 0.6518810390, 0.7494239810
479, 0.6165676120, 0.7610501650
480, 0.5926927330, 0.7446305160
481, 0.5282468800, 0.7566424010
482, 0.5079994200, 0.7634793520
483, 0.4558130500, 0.7492891550
484, 0.4114671950, 0.7526372670
485, 0.3872768280, 0.7554331420
486, 0.3348482550, 0.7502354980
487, 0.2924659850, 0.7555158140
488, 0.2505219880, 0.7445814010
489, 0.1892533750, 0.7498393060
490, 0.1620793640, 0.7471359370
491, 0.1131596190, 0.7570143940
492, 0.0762383789, 0.7417279480
493, 0.0383782089, 0.7420836690
494, 0.9583519700, 0.7891362910
495, 0.9160995480, 0.7762050630
496, 0.8808545470, 0.7839731570
497, 0.8246484990, 0.7796561720
498, 0.7874984150, 0.7854695320
499, 0.7561498880, 0.7844120260
500, 0.7055717710, 0.7913329600
501, 0.6530672310, 0.8054401870
502, 0.6167976860, 0.7898491020
503, 0.5765790340, 0.7895705100
504, 0.5356967450, 0.7977071400
505, 0.5111366510, 0.7967661020
506, 0.4513604340, 0.7982007270
507, 0.3698646430, 0.7950224880
508, 0.3374521730, 0.7874958520
509, 0.2890766560, 0.8026412130
510, 0.2491423490, 0.7984992270
511, 0.2168234290, 0.7827104930
512, 0.1604664920, 0.7933422920
513, 0.1210365670, 0.7900030610
514, 0.0785430893, 0.7815423610
515, 0.0382231474, 0.8020827170
516, 0.9429728390, 0.8304736020
517, 0.9103155140, 0.8350579140
518, 0.8783767820, 0.8374018670
519, 0.8532180190, 0.8440636990
520, 0.7836406830, 0.8446307180
521, 0.7003515360, 0.8236103060
522, 0.6623209120, 0.8372755050
523, 0.6157920960, 0.8371342420
524, 0.5730760100, 0.8391988870
525, 0.5422127250, 0.8353568320
526, 0.4952939450, 0.8330038790
527, 0.4586298470, 0.8316497800
528, 0.4042784570, 0.8374719620
529, 0.3649432660, 0.8272893430
530, 0.3396892550, 0.8363048430
531, 0.2759594320, 0.8360882400
532, 0.2477460500, 0.8278990390
533, 0.1968161170, 0.8306880000
534, 0.1705348490, 0.8252018090
535, 0.1194637490, 0.8376718760
536, 0.0884835795, 0.8308408860
537, 0.0355093107, 0.8418473010
538, 0.9431946870, 0.8684681650
539, 0.9098149540, 0.8645330070
540, 0.8786715870, 0.8708943130
541, 0.8405803440, 0.8738225700
542, 0.7875146270, 0.8666952850
543, 0.7502430680, 0.8726739880
544, 0.7000598310, 0.8695474270
545, 0.6695319410, 0.8885456920
546, 0.6165907980, 0.8820142150
547, 0.5735037330, 0.8743221160
548, 0.5398068430, 0.8802839520
549, 0.4991720620, 0.8721797470
550, 0.4643973410, 0.8787326220
551, 0.4246625010, 0.8821067810
552, 0.3847064080, 0.8838240500
553, 0.3368448320, 0.8781999950
554, 0.2930823560, 0.8689423200
555, 0.2497827710, 0.8814995880
556, 0.2129641920, 0.8747441770
557, 0.1676142810, 0.8670676350
558, 0.1262212250, 0.8830715420
559, 0.0803255141, 0.8683662410
560, 0.0347178802, 0.8807332520
561, 0.9430667760, 0.9067904950
562, 0.9075333480, 0.9139026400
563, 0.8711407780, 0.9135043620
564, 0.8299444320, 0.9192306400
565, 0.7836182710, 0.9030730720
566, 0.7551348810, 0.9189534190
567, 0.7091287370, 0.9050346020
568, 0.6653023960, 0.9190897940
569, 0.6274234060, 0.9241023060
570, 0.5870590210, 0.9148842690
571, 0.5462949280, 0.9214897160
572, 0.5074205400, 0.9080680010
573, 0.4734233620, 0.8965226410
574, 0.4201651220, 0.9276832940
575, 0.3818493190, 0.9294010400
576, 0.3350329700, 0.9101580380
577, 0.3035878240, 0.9008088710
578, 0.2524974940, 0.9188563820
579, 0.2146952000, 0.9216793780
580, 0.1586526930, 0.9080814720
581, 0.1239445360, 0.9138304590
582, 0.0908886939, 0.9039601090
583, 0.9625396730, 0.9628501530
584, 0.8692496420, 0.9621561770
585, 0.8266125920, 0.9511331320
586, 0.7821004390, 0.9591522220
587, 0.7422550320, 0.9587311150
588, 0.7022517920, 0.9422344570
589, 0.6655255560, 0.9611997600
590, 0.6272565130, 0.9608051780
591, 0.5877798200, 0.9601216910
592, 0.5488579270, 0.9613680240
593, 0.5098783970, 0.9447153210
594, 0.4725232120, 0.9465754030
595, 0.4179130490, 0.9651194810
596, 0.3796514570, 0.9609778520
597, 0.3376278280, 0.9620496030
598, 0.2971466480, 0.9574088450
599, 0.2561869030, 0.9592082500
600, 0.2166700070, 0.9615604880
601, 0.1779266740, 0.9448435310
602, 0.0821574554, 0.9584876300
603, 0.0405419581, 0.9593696590
604, 0.9802414770, 0.0000000000
605, 0.9406933780, 0.0000000000
606, 0.9011331800, 0.0000000000
607, 0.8616836670, 0.0000000000
608, 0.8225873710, 0.0000000000
609, 0.8029823300, 0.0000000000
610, 0.7635084390, 0.0000000000
611, 0.7239478830, 0.0000000000
612, 0.6844856740, 0.0000000000
613, 0.6453832390, 0.0000000000
614, 0.6059978010, 0.0000000000
615, 0.5664671660, 0.0000000000
616, 0.5269066100, 0.0000000000
617, 0.4873461130, 0.0000000000
618, 0.4478316900, 0.0000000000
619, 0.4281257990, 0.0000000000
620, 0.3892109990, 0.0000000000
621, 0.3505784270, 0.0000000000
622, 0.3114147190, 0.0000000000
623, 0.2718727590, 0.0000000000
624, 0.2323122620, 0.0000000000
625, 0.1928002830, 0.0000000000
626, 0.1540036200, 0.0000000000
627, 0.1350335480, 0.0000000000
628, 0.0972731113, 0.0000000000
629, 0.0589562058, 0.0000000000
630, 0.0197638869, 0.0000000000
631, 1.0000000000, 0.9806255700
632, 1.0000000000, 0.9418411850
633, 1.0000000000, 0.9030908350
634, 1.0000000000, 0.8649299740
635, 1.0000000000, 0.8460420370
636, 1.0000000000, 0.8083004950
637, 1.0000000000, 0.7702676060
638, 1.0000000000, 0.7316241260
639, 1.0000000000, 0.6928640600
640, 1.0000000000, 0.6541041140
641, 1.0000000000, 0.6347172260
642, 1.0000000000, 0.5962437390
643, 1.0000000000, 0.5679430960
644, 1.0000000000, 0.5572745800
645, 1.0000000000, 0.5489408970
646, 1.0000000000, 0.5440374610
647, 1.0000000000, 0.5394710300
648, 1.0000000000, 0.5375587940
649, 1.0000000000, 0.5356466770
650, 1.0000000000, 0.5336902140
651, 1.0000000000, 0.5316566230
652, 1.0000000000, 0.5295078750
653, 1.0000000000, 0.5271764400
654, 1.0000000000, 0.5246430640
655, 1.0000000000, 0.5219080450
656, 1.0000000000, 0.5189703700
657, 1.0000000000, 0.5158237220
658, 1.0000000000, 0.5124475960
659, 1.0000000000, 0.5087993140
660, 1.0000000000, 0.5044827460
661, 1.0000000000, 0.4903058410
662, 1.0000000000, 0.4801711440
663, 1.0000000000, 0.4688211080
664, 1.0000000000, 0.4359217290
665, 1.0000000000, 0.3971189860
666, 1.0000000000, 0.3588232990
667, 1.0000000000, 0.3212632540
668, 1.0000000000, 0.3025078180
669, 1.0000000000, 0.2646346090
670, 1.0000000000, 0.2259365920
671, 1.0000000000, 0.1871182920
672, 1.0000000000, 0.1484583020
673, 1.0000000000, 0.1109207870
674, 1.0000000000, 0.0926694870
675, 1.0000000000, 0.0562408566
676, 1.0000000000, 0.0190668106
677, 0.0199721828, 1.0000000000
678, 0.0599591695, 1.0000000000
679, 0.0999170840, 1.0000000000
680, 0.1392190310, 1.0000000000
681, 0.1778621520, 1.0000000000
682, 0.1972771290, 1.0000000000
683, 0.2367487250, 1.0000000000
684, 0.2767039240, 1.0000000000
685, 0.3166803120, 1.0000000000
686, 0.3566749990, 1.0000000000
687, 0.3964504900, 1.0000000000
688, 0.4344983700, 1.0000000000
689, 0.4713484050, 1.0000000000
690, 0.4900778530, 1.0000000000
691, 0.5291476850, 1.0000000000
692, 0.5691189170, 1.0000000000
693, 0.6089833970, 1.0000000000
694, 0.6478235130, 1.0000000000
695, 0.6858285670, 1.0000000000
696, 0.7241263390, 1.0000000000
697, 0.7636073830, 1.0000000000
698, 0.8036100860, 1.0000000000
699, 0.8436143990, 1.0000000000
700, 0.8636115190, 1.0000000000
701, 0.9032266740, 1.0000000000
702, 0.9417430160, 1.0000000000
703, 0.9802886250, 1.0000000000
704, 0.0000000000, 0.5201533440
705, 0.0000000000, 0.5604600910
706, 0.0000000000, 0.6007668380
707, 0.0000000000, 0.6410735250
708, 0.0000000000, 0.6813802720
709, 0.0000000000, 0.7216869590
710, 0.0000000000, 0.7619937060
711, 0.0000000000, 0.8023004530
712, 0.0000000000, 0.8224537970
713, 0.0000000000, 0.8627605440
714, 0.0000000000, 0.9025835390
715, 0.0000000000, 0.9412883520
716, 0.0000000000, 0.9801314470
717, 0.4979097250, 0.5000000000
718, 0.4958298210, 0.5000000000
719, 0.4937602280, 0.5000000000
720, 0.4917008580, 0.5000000000
721, 0.4896517100, 0.5000000000
722, 0.4876127240, 0.5000000000
723, 0.4855838420, 0.5000000000
724, 0.4835622910, 0.5000000000
725, 0.4814732670, 0.5000000000
726, 0.4792397020, 0.5000000000
727, 0.4767374990, 0.5000000000
728, 0.4737042490, 0.5000000000
729, 0.4699081780, 0.5000000000
730, 0.4651494030, 0.5000000000
731, 0.4499965910, 0.5000000000
732, 0.4393213990, 0.5000000000
733, 0.4267466960, 0.5000000000
734, 0.3937459290, 0.5000000000
735, 0.3558882770, 0.5000000000
736, 0.3168702130, 0.5000000000
737, 0.2772181030, 0.5000000000
738, 0.2374887470, 0.5000000000
739, 0.1978976730, 0.5000000000
740, 0.1782194670, 0.5000000000
741, 0.1389000710, 0.5000000000
742, 0.0993460715, 0.5000000000
743, 0.0596093237, 0.5000000000
744, 0.0198697746, 0.5000000000
745, 0.0000000000, 0.0201893002
746, 0.0000000000, 0.0605678968
747, 0.0000000000, 0.1009418670
748, 0.0000000000, 0.1411102710
749, 0.0000000000, 0.1809702960
750, 0.0000000000, 0.2212024330
751, 0.0000000000, 0.2615792750
752, 0.0000000000, 0.3019506630
753, 0.0000000000, 0.3220466380
754, 0.0000000000, 0.3613392410
755, 0.0000000000, 0.3999195400
756, 0.0000000000, 0.4394718710
757, 0.0000000000, 0.4798107150
758, 0.9965841170, 0.5378282670
759, 0.9961426260, 0.5401554700
760, 0.9969753030, 0.5356691480
761, 0.4855555300, 0.5033869150
762, 0.4853039090, 0.4973799290
763, 0.4872564080, 0.4973138270
764, 0.9972669480, 0.5335854890
765, 0.4876327510, 0.5032094120
766, 0.4892404380, 0.4972702560
767, 0.4896999600, 0.5031477210
768, 0.4912223220, 0.4972644750
769, 0.4918009940, 0.5030973550
770, 0.4932799340, 0.4972941280
771, 0.4938600660, 0.5029892330
772, 0.4952764810, 0.4968205090
773, 0.4959682230, 0.5027546290
774, 0.4973664880, 0.4960413280
775, 0.4834971430, 0.5040117500
776, 0.4833110870, 0.4973699450
777, 0.4998569190, 0.4949633180
778, 0.4982088510, 0.5028910640
779, 0.9974332450, 0.5315026040
780, 0.4814632830, 0.5045032500
781, 0.4812535050, 0.4970325230
782, 0.9974539280, 0.5293575530
783, 0.4787924590, 0.5063641670
784, 0.4790398180, 0.4968142510
785, 0.9972872140, 0.5270571710
786, 0.9957566260, 0.5428171160
787, 0.9968962670, 0.5246210100
788, 0.9963160750, 0.5219602580
789, 0.4754078390, 0.5065734390
790, 0.4764002260, 0.4961578850
791, 0.9955881240, 0.5189961190
792, 0.9947846530, 0.5156622530
793, 0.9939535860, 0.5118502970
794, 0.4713718000, 0.5071746110
795, 0.4731149970, 0.4952446220
796, 0.9931240080, 0.5074381230
797, 0.4670158620, 0.5072085260
798, 0.4689684210, 0.4941883980
799, 0.9953005310, 0.5462512370
800, 0.9922753570, 0.5021377800
801, 0.4637159710, 0.4929744900
802, 0.9942606090, 0.5516192910
803, 0.9913012980, 0.4954394700
804, 0.4569809730, 0.4915928240
805, 0.4486678540, 0.5112788080
806, 0.9900753500, 0.4867431220
807, 0.9923942090, 0.5595025420
808, 0.4370779690, 0.5135942100
809, 0.4482476120, 0.4899855850
810, 0.9887329940, 0.4762727320
811, 0.9934299590, 0.5375660060
812, 0.9942592980, 0.5353648660
813, 0.9947934750, 0.5333315130
814, 0.4858762620, 0.5061057210
815, 0.4867994190, 0.4944780770
816, 0.4887810350, 0.4943709080
817, 0.4908900260, 0.4942693710
818, 0.4897091690, 0.5063102250
819, 0.4928186540, 0.4951670470
820, 0.4848749640, 0.4946570690
821, 0.4942787590, 0.5063707230
822, 0.4941101370, 0.4941770140
823, 0.4958633480, 0.4927093090
824, 0.4979797300, 0.4908239540
825, 0.4960853760, 0.5051019790
826, 0.9950433370, 0.5313446520
827, 0.5007261040, 0.5029783250
828, 0.4813806120, 0.5081706050
829, 0.9950538280, 0.5293799040
830, 0.4815193710, 0.4934432210
831, 0.9947339890, 0.5273017880
832, 0.9938501120, 0.5252221230
833, 0.9927043320, 0.5228263140
834, 0.9912288190, 0.5200010540
835, 0.4740367230, 0.4902958270
836, 0.9879611730, 0.5125244860
837, 0.9914110300, 0.5433305500
838, 0.4704718590, 0.5152122970
839, 0.9861578940, 0.5076668260
840, 0.4697969850, 0.4880437550
841, 0.9891811610, 0.5519552830
842, 0.9840418700, 0.5017951130
843, 0.4621059300, 0.5171188710
844, 0.4644101260, 0.4854520560
845, 0.9814239140, 0.4944380220
846, 0.9860253330, 0.5587922930
847, 0.4575950800, 0.4824059310
848, 0.4507309790, 0.5227732660
849, 0.9894551040, 0.5699683430
850, 0.4376497270, 0.4882367850
851, 0.9783921240, 0.4851550160
852, 0.9918656950, 0.5347193480
853, 0.4862392540, 0.4914922120
854, 0.9927979110, 0.5311903360
855, 0.4902195330, 0.4914243820
856, 0.4935192760, 0.4900150900
857, 0.4951938390, 0.4872160260
858, 0.5040086510, 0.5027312640
859, 0.9927794930, 0.5279237630
860, 0.9908277990, 0.5268176790
861, 0.9894103410, 0.5245956780
862, 0.9869901540, 0.5222088690
863, 0.9845759270, 0.5187489390
864, 0.4979245070, 0.5059411530
865, 0.4840196370, 0.5084651110
866, 0.4870290160, 0.5096080900
867, 0.4917654100, 0.5094419120
868, 0.4838777780, 0.4917868970
869, 0.4786444600, 0.5134336950
870, 0.4796454010, 0.4895206090
871, 0.9865553380, 0.5435959100
872, 0.9795839190, 0.5093978050
873, 0.4672561290, 0.4783258140
874, 0.4749579430, 0.5239467620
875, 0.9821904300, 0.5144245620
876, 0.4723309280, 0.4822256270
877, 0.9763188960, 0.5035023690
878, 0.9805970790, 0.5680905580
879, 0.4609585110, 0.4732217490
880, 0.4542174940, 0.5344843860
881, 0.9811790590, 0.5559393760
882, 0.9718564750, 0.4962935150
883, 0.4382352230, 0.5274619460
884, 0.9759113190, 0.4741922910
885, 0.5079153180, 0.4986341300
886, 0.5037438270, 0.4928593640
887, 0.9897742270, 0.5337025520
888, 0.5005527140, 0.5068130490
889, 0.4964473250, 0.5087263580
890, 0.9907177690, 0.5366125110
891, 0.4867371320, 0.4879508610
892, 0.4872803690, 0.5142234560
893, 0.4896211920, 0.5094152090
894, 0.5003907680, 0.4883297980
895, 0.4904507700, 0.4882401230
896, 0.4906062780, 0.5123375060
897, 0.4914568360, 0.4841652810
898, 0.9906259780, 0.5311923030
899, 0.4827906190, 0.4876759050
900, 0.9852131610, 0.5505411030
901, 0.9738870260, 0.5120850800
902, 0.9751131530, 0.5628755090
903, 0.4757333400, 0.4772410090
904, 0.9700541500, 0.5066689850
905, 0.4718277160, 0.4727769490
906, 0.9650671480, 0.5008246900
907, 0.4528326390, 0.4676468670
908, 0.4650273620, 0.5291866660
909, 0.9703626040, 0.5811212660
910, 0.4427597820, 0.5399902460
911, 0.9860116840, 0.5829794410
912, 0.5084443690, 0.4937586190
913, 0.9876731630, 0.5300309660
914, 0.4992453750, 0.5120125410
915, 0.5066058640, 0.5063844320
916, 0.9883177280, 0.5353947280
917, 0.4973819550, 0.4841821190
918, 0.9830604200, 0.5417296890
919, 0.4867654440, 0.4822522100
920, 0.5060062410, 0.4876538520
921, 0.9882696870, 0.5387609600
922, 0.9798277020, 0.5217335220
923, 0.9774293900, 0.5511878130
924, 0.9874576930, 0.5271668430
925, 0.4831832950, 0.4734531640
926, 0.4834052920, 0.5227869150
927, 0.9769747850, 0.5170671340
928, 0.4940261840, 0.5149332880
929, 0.4775712490, 0.4708514210
930, 0.9689576030, 0.5153173210
931, 0.9714000820, 0.5567949410
932, 0.9648541210, 0.5106698270
933, 0.9647304420, 0.4865467850
934, 0.9660830500, 0.5691065790
935, 0.4490291770, 0.4790012240
936, 0.5001430510, 0.4812055230
937, 0.5096549390, 0.4888964590
938, 0.5089677570, 0.5092788340
939, 0.5119898320, 0.4993483720
940, 0.4870198970, 0.5314337610
941, 0.9749001260, 0.5245943070
942, 0.9830331800, 0.5264350180
943, 0.4884803590, 0.4765467640
944, 0.9847289320, 0.5326252580
945, 0.4936248660, 0.4795140030
946, 0.9839750530, 0.5378505590
947, 0.4913322630, 0.4713759420
948, 0.9799261690, 0.5382602810
949, 0.4964923560, 0.5191399460
950, 0.5063375830, 0.5207403300
951, 0.9721266630, 0.5199884770
952, 0.9714427590, 0.5435948370
953, 0.9642609360, 0.5602661970
954, 0.4864912030, 0.4658280310
955, 0.9647732970, 0.5186734200
956, 0.4674419160, 0.4648948910
957, 0.9597069620, 0.5062123540
958, 0.9623513220, 0.4739135800
959, 0.4425916370, 0.4620285030
960, 0.4251149000, 0.4865743520
961, 0.9874683020, 0.4641579090
962, 0.4786721170, 0.5358820560
963, 0.4317930040, 0.5458991530
964, 0.5073990820, 0.4832131270
965, 0.5128145810, 0.4945980310
966, 0.5149855020, 0.5052475330
967, 0.9789673090, 0.5340623260
968, 0.5089416500, 0.5146691800
969, 0.9701060650, 0.5273758170
970, 0.4997420310, 0.5347902180
971, 0.5047332640, 0.4822700320
972, 0.9652578830, 0.5464728470
973, 0.9773266910, 0.5292512180
974, 0.9701040390, 0.5390899180
975, 0.4948476250, 0.4748945830
976, 0.4933210020, 0.4601743520
977, 0.9674407840, 0.5230064390
978, 0.5056915280, 0.5296083090
979, 0.4781242610, 0.4590223130
980, 0.9607326980, 0.5149796010
981, 0.9550223950, 0.5704157350
982, 0.4840969150, 0.5465608840
983, 0.9519029260, 0.4840314390
984, 0.4692778290, 0.5410997270
985, 0.9502586130, 0.4745266740
986, 0.4234626590, 0.5153759720
987, 0.5137205120, 0.4898225070
988, 0.5162403580, 0.5003463630
989, 0.5038977860, 0.4777798650
990, 0.5135848520, 0.5103071330
991, 0.9659949540, 0.5409151320
992, 0.9635771510, 0.5531771780
993, 0.9744512440, 0.5365380640
994, 0.9725095030, 0.5319305660
995, 0.5078869460, 0.4785363670
996, 0.5101237890, 0.5188316700
997, 0.9658100610, 0.5301646590
998, 0.5039106610, 0.4669637080
999, 0.4887280460, 0.4514557120
1000, 0.9577838180, 0.5195479990
1001, 0.4991946820, 0.5493913290
1002, 0.9534246330, 0.5022194390
1003, 0.4710367020, 0.4445280130
1004, 0.9591396450, 0.5473883750
1005, 0.5172894000, 0.4954741000
1006, 0.5193954710, 0.5065382120
1007, 0.5145692830, 0.4848986270
1008, 0.5073774460, 0.4736991230
1009, 0.9627499580, 0.5420975090
1010, 0.9577236770, 0.5532407760
1011, 0.9647148850, 0.5366960170
1012, 0.5124126670, 0.5152440070
1013, 0.9683323500, 0.5345079900
1014, 0.5016255970, 0.4566414060
1015, 0.5086764100, 0.5247568490
1016, 0.9621027110, 0.5259569880
1017, 0.4853270950, 0.4409576060
1018, 0.9555990100, 0.5117218490
1019, 0.9460549350, 0.4989005030
1020, 0.4583756330, 0.4369490150
1021, 0.4227012100, 0.5333312750
1022, 0.9591106180, 0.5430394410
1023, 0.5114306810, 0.4788447320
1024, 0.5207182770, 0.5015113950
1025, 0.5181542630, 0.4906445740
1026, 0.9615772960, 0.5383229850
1027, 0.5179680590, 0.5117583870
1028, 0.9516726730, 0.5515056850
1029, 0.9605631830, 0.5354669090
1030, 0.9562220570, 0.5608379240
1031, 0.5120449070, 0.4643523400
1032, 0.5133118630, 0.5344120260
1033, 0.4966258110, 0.4356930550
1034, 0.5098893640, 0.4539364870
1035, 0.9512594340, 0.5229737160
1036, 0.9423003200, 0.5058596730
1037, 0.5187529920, 0.4857365790
1038, 0.5219924450, 0.4964257780
1039, 0.9581774470, 0.5391469600
1040, 0.5116819740, 0.4728758340
1041, 0.9480867390, 0.5585761670
1042, 0.5162607430, 0.5172683600
1043, 0.5136600140, 0.5239454510
1044, 0.5065851210, 0.5425556900
1045, 0.9591874480, 0.5307509300
1046, 0.9444200990, 0.5680133100
1047, 0.5087850090, 0.4435026940
1048, 0.4756673570, 0.4283929470
1049, 0.5186561350, 0.4600674510
1050, 0.9465540050, 0.5154445170
1051, 0.9381293060, 0.4954173270
1052, 0.4657720330, 0.4238246080
1053, 0.9545570020, 0.5401840210
1054, 0.5163294080, 0.4740604760
1055, 0.9468445780, 0.5476425890
1056, 0.5265655520, 0.4976266030
1057, 0.5231139060, 0.4862827960
1058, 0.5179238320, 0.4684018190
1059, 0.5240314600, 0.5079208610
1060, 0.5204442740, 0.5187373760
1061, 0.5207830670, 0.5305369500
1062, 0.5178409810, 0.4518765810
1063, 0.5146089200, 0.5511124730
1064, 0.9405300020, 0.5534010530
1065, 0.4909113350, 0.5566378240
1066, 0.5076848860, 0.4320969580
1067, 0.9400925040, 0.5788722630
1068, 0.9318494800, 0.5087142590
1069, 0.9336496000, 0.4817057550
1070, 0.9505019780, 0.5282952190
1071, 0.4933902320, 0.4225983620
1072, 0.9509732130, 0.5431874990
1073, 0.9576748610, 0.5350950360
1074, 0.5253043170, 0.5027858020
1075, 0.5195779800, 0.4809025530
1076, 0.5231472250, 0.4913398620
1077, 0.5204609040, 0.4645892080
1078, 0.5230358840, 0.4705468120
1079, 0.5271212460, 0.5151328440
1080, 0.5252511500, 0.5273080470
1081, 0.9439810510, 0.5417492390
1082, 0.5250926020, 0.4589673880
1083, 0.9353864790, 0.5636270050
1084, 0.5294688340, 0.5493195060
1085, 0.5185317400, 0.4419435860
1086, 0.9247813220, 0.4985641840
1087, 0.9385518430, 0.5140111450
1088, 0.9300693870, 0.4895612000
1089, 0.9407070280, 0.4770278630
1090, 0.5189462900, 0.4154613320
1091, 0.4986781780, 0.5658548470
1092, 0.4827699360, 0.4154447320
1093, 0.9531651140, 0.5352438690
1094, 0.5249276160, 0.4651184680
1095, 0.5302220580, 0.4994500580
1096, 0.5290040370, 0.5093436240
1097, 0.9391725660, 0.5439744590
1098, 0.9484909180, 0.5387812850
1099, 0.9273099900, 0.5139415260
1100, 0.9399953480, 0.5224946140
1101, 0.5253591540, 0.4776734710
1102, 0.5313210490, 0.5227950810
1103, 0.5252414940, 0.4513469640
1104, 0.9549324510, 0.5294414160
1105, 0.9143112900, 0.4929015640
1106, 0.9222706560, 0.5096245410
1107, 0.5254522560, 0.5612741110
1108, 0.5298378470, 0.5295513270
1109, 0.9270536900, 0.4752204420
1110, 0.5200511810, 0.4296048580
1111, 0.9331258540, 0.5513626930
1112, 0.5146372320, 0.5678235890
1113, 0.4821259680, 0.5643951890
1114, 0.9352766280, 0.4684969480
1115, 0.9500064850, 0.5326294900
1116, 0.5303001400, 0.5038927200
1117, 0.9380703570, 0.5369797350
1118, 0.9344663020, 0.5441425440
1119, 0.5292714830, 0.4919643100
1120, 0.5277771950, 0.4850595590
1121, 0.5319458250, 0.4750990270
1122, 0.5321272610, 0.5167139770
1123, 0.9317229390, 0.5187154410
1124, 0.9228245020, 0.5183133480
1125, 0.5389070510, 0.5519728060
1126, 0.5307673810, 0.4591895040
1127, 0.9465051890, 0.5339478850
1128, 0.9283606410, 0.5586946610
1129, 0.5188701750, 0.5788972970
1130, 0.9176621440, 0.5048940780
1131, 0.5271378760, 0.4432223440
1132, 0.5387610790, 0.5621815320
1133, 0.9134771230, 0.4695095120
1134, 0.9174016120, 0.4819418190
1135, 0.5340434910, 0.4133503440
1136, 0.9563810830, 0.5244301560
1137, 0.5337625150, 0.4971820410
1138, 0.9422890540, 0.5355377790
1139, 0.9345371130, 0.5246769190
1140, 0.5341392760, 0.5107701420
1141, 0.5330471990, 0.4842582940
1142, 0.5307552810, 0.4661850930
1143, 0.9266927840, 0.5225919490
1144, 0.9182128910, 0.5144401190
1145, 0.5352047680, 0.4889304040
1146, 0.9111394290, 0.5010704990
1147, 0.9342277050, 0.5379664300
1148, 0.5364379880, 0.5176957850
1149, 0.9290348290, 0.5730621220
1150, 0.5360134240, 0.5319701430
1151, 0.5330866580, 0.4500273170
1152, 0.5477166180, 0.5526899700
1153, 0.9035239820, 0.4914256040
1154, 0.5346952680, 0.4302946030
1155, 0.4914269450, 0.5753437280
1156, 0.4749050440, 0.5529636740
1157, 0.9735312460, 0.4614610080
1158, 0.4496464730, 0.4490319490
1159, 0.5366033910, 0.5038253070
1160, 0.9225654600, 0.5258966680
1161, 0.5357214810, 0.4708999100
1162, 0.9302595260, 0.5430843830
1163, 0.5403139000, 0.4852115810
1164, 0.9364973310, 0.5308341980
1165, 0.5355538730, 0.4616621430
1166, 0.9190086720, 0.5223753450
1167, 0.5550507310, 0.5520558360
1168, 0.5390914080, 0.5133997800
1169, 0.9296346900, 0.5274704100
1170, 0.5386824010, 0.5234286190
1171, 0.5385226010, 0.4938566390
1172, 0.9132918720, 0.5108793380
1173, 0.9195040460, 0.5653809310
1174, 0.9032882450, 0.4995897710
1175, 0.9032090900, 0.4817098080
1176, 0.5416575670, 0.4419334830
1177, 0.5403764250, 0.5427984000
1178, 0.4385716320, 0.4754059910
1179, 0.5061855910, 0.5725467210
1180, 0.4648409490, 0.5596303340
1181, 0.4480265680, 0.5529660580
1182, 0.5424728990, 0.5344861150
1183, 0.9193911550, 0.5281208750
1184, 0.5397393110, 0.4763792160
1185, 0.5420821310, 0.5079982280
1186, 0.5476966500, 0.5442094210
1187, 0.9320233460, 0.5329953430
1188, 0.9146418570, 0.5193353300
1189, 0.9309065340, 0.5379793050
1190, 0.9215295910, 0.5486906170
1191, 0.9249340300, 0.5307103990
1192, 0.5436691640, 0.4898214040
1193, 0.5435832140, 0.5171464680
1194, 0.5420676470, 0.4990050200
1195, 0.5543178920, 0.5447492600
1196, 0.5495038630, 0.5621997710
1197, 0.9080078600, 0.5078444480
1198, 0.9100165370, 0.5613285300
1199, 0.5460996030, 0.4505625670
1200, 0.8936060070, 0.4928193690
1201, 0.5402117370, 0.4663382770
1202, 0.5523597000, 0.4380043750
1203, 0.5235341790, 0.5883908870
1204, 0.9282663460, 0.5336009260
1205, 0.9265578990, 0.5414657590
1206, 0.9160537120, 0.5266101960
1207, 0.5460688470, 0.5034973030
1208, 0.5448617340, 0.4711752530
1209, 0.9196974640, 0.5316588880
1210, 0.5446015000, 0.4807874260
1211, 0.5550964470, 0.5380443330
1212, 0.5451442000, 0.5269325380
1213, 0.5466916560, 0.5115504260
1214, 0.9096201060, 0.5164430740
1215, 0.9172380570, 0.5501097440
1216, 0.9032495020, 0.5054917930
1217, 0.5487046840, 0.4568687380
1218, 0.5472100970, 0.4946409170
1219, 0.5642006990, 0.5565670130
1220, 0.9117674830, 0.5748493080
1221, 0.5579169990, 0.5599904660
1222, 0.5447240470, 0.4612225000
1223, 0.8957189320, 0.5010717510
1224, 0.8909550310, 0.4832667410
1225, 0.5541234610, 0.4481908980
1226, 0.9274877310, 0.5372118350
1227, 0.5499116180, 0.5077996250
1228, 0.9143416290, 0.5320073960
1229, 0.9199172260, 0.5454295870
1230, 0.9118480680, 0.5243340730
1231, 0.5499676470, 0.4656059440
1232, 0.5552922490, 0.4582996670
1233, 0.5494034890, 0.4758985640
1234, 0.5523066520, 0.4903847280
1235, 0.5569245820, 0.5320035820
1236, 0.5486968160, 0.5202628370
1237, 0.9041715260, 0.5134804250
1238, 0.5508856770, 0.4993475080
1239, 0.5541077260, 0.5234495400
1240, 0.9123848080, 0.5551014540
1241, 0.5609221460, 0.5507460240
1242, 0.8884410260, 0.5038734670
1243, 0.9013925790, 0.4704346360
1244, 0.5632865430, 0.5681731700
1245, 0.5411618350, 0.5729846360
1246, 0.9041090010, 0.5673519970
1247, 0.5651917460, 0.4252959790
1248, 0.5628887410, 0.4473897220
1249, 0.9232623580, 0.5399670600
1250, 0.9169908170, 0.5461654070
1251, 0.9161219600, 0.5365864040
1252, 0.9239134790, 0.5359455940
1253, 0.9099021550, 0.5292724970
1254, 0.5545699000, 0.5041593310
1255, 0.5559675690, 0.4952713850
1256, 0.9068000910, 0.5220670700
1257, 0.5536336900, 0.4809128340
1258, 0.5547836420, 0.4706013200
1259, 0.9047011140, 0.5560452340
1260, 0.9127514360, 0.5494445560
1261, 0.5595277550, 0.5265608430
1262, 0.5624704360, 0.5342793460
1263, 0.8959166410, 0.5156632660
1264, 0.5524038080, 0.5134750600
1265, 0.5621648430, 0.4550740420
1266, 0.8787791130, 0.5010338430
1267, 0.5750828390, 0.4391760230
1268, 0.5607860680, 0.4650282860
1269, 0.5649893280, 0.5494449140
1270, 0.8757733700, 0.4749530550
1271, 0.8885112400, 0.4722402100
1272, 0.5534412860, 0.5737156870
1273, 0.5303214190, 0.5756943820
1274, 0.9172330500, 0.5442296860
1275, 0.9172851440, 0.5397213700
1276, 0.9187309740, 0.5435084700
1277, 0.9105481510, 0.5360478760
1278, 0.9054227470, 0.5276026730
1279, 0.9073389170, 0.5476065280
1280, 0.5579952000, 0.5089910630
1281, 0.5595656630, 0.5001930590
1282, 0.8996049170, 0.5595501660
1283, 0.5576701160, 0.5179350380
1284, 0.5591105820, 0.4761374590
1285, 0.5575492980, 0.4860351380
1286, 0.5648529530, 0.5295362470
1287, 0.9004697200, 0.5201842190
1288, 0.8859987850, 0.5133902430
1289, 0.5716001390, 0.4491149190
1290, 0.5656754370, 0.5454144480
1291, 0.8808933500, 0.5087313650
1292, 0.5698437690, 0.5624945160
1293, 0.5650936960, 0.4714047310
1294, 0.8790892960, 0.4871354400
1295, 0.8727864620, 0.4635577800
1296, 0.8996531960, 0.4580771630
1297, 0.9148633480, 0.5415050980
1298, 0.9139429930, 0.5446487670
1299, 0.9128171210, 0.5392319560
1300, 0.9053757190, 0.5359772440
1301, 0.5630477070, 0.5049434900
1302, 0.5647956130, 0.4963195920
1303, 0.9006917480, 0.5272748470
1304, 0.5626639720, 0.5216723080
1305, 0.5676621200, 0.5250365140
1306, 0.9103440050, 0.5427528020
1307, 0.8921781780, 0.5191825630
1308, 0.5677234530, 0.5367159840
1309, 0.5752629640, 0.4587609170
1310, 0.8777721520, 0.5164905190
1311, 0.5686396360, 0.5524742600
1312, 0.9000192280, 0.5443319680
1313, 0.5865206120, 0.4433338640
1314, 0.5630445480, 0.4817250370
1315, 0.8922259210, 0.5535652640
1316, 0.8941534760, 0.5725490450
1317, 0.8701499100, 0.5012519360
1318, 0.9075337050, 0.5394420030
1319, 0.5707034470, 0.5208195450
1320, 0.9047061200, 0.5323349240
1321, 0.9040619730, 0.5423388480
1322, 0.5682287810, 0.5012365580
1323, 0.5665111540, 0.5093716380
1324, 0.8941296340, 0.5235128400
1325, 0.8833419080, 0.5184933540
1326, 0.8972454670, 0.5523310300
1327, 0.5667108300, 0.4872554540
1328, 0.5726695660, 0.5281392930
1329, 0.5720851420, 0.5408721570
1330, 0.8861006500, 0.5609517690
1331, 0.8735247850, 0.5087314250
1332, 0.5786094070, 0.4274999200
1333, 0.5742858650, 0.5563845630
1334, 0.8693748120, 0.4935729500
1335, 0.5751037600, 0.4738027450
1336, 0.9025859240, 0.5825229290
1337, 0.8679149750, 0.4876770970
1338, 0.5726543660, 0.5761191840
1339, 0.8860859870, 0.4605218470
1340, 0.9020927550, 0.5375064020
1341, 0.8956140880, 0.5458248260
1342, 0.8912389870, 0.5467094180
1343, 0.5735766890, 0.4978792370
1344, 0.9010855560, 0.5327527520
1345, 0.5754895210, 0.5237709880
1346, 0.5749331710, 0.5356561540
1347, 0.5714722280, 0.5059020520
1348, 0.8881978990, 0.5256981250
1349, 0.8767122630, 0.5231354240
1350, 0.5743746760, 0.5102748270
1351, 0.5723865630, 0.4834775920
1352, 0.8705919980, 0.5151552560
1353, 0.5770078300, 0.5498733520
1354, 0.5784151550, 0.4638319310
1355, 0.8616234060, 0.5013775230
1356, 0.8873773810, 0.5537478330
1357, 0.5781292920, 0.5681574940
1358, 0.8822366600, 0.5701310630
1359, 0.8977205750, 0.4449850020
1360, 0.5464223620, 0.5821720960
1361, 0.5897134540, 0.4319706560
1362, 0.8540921810, 0.4843492810
1363, 0.8824443820, 0.4481021460
1364, 0.5737646820, 0.5169737940
1365, 0.8984258770, 0.5389226080
1366, 0.8822343350, 0.5239494440
1367, 0.5757821800, 0.4891511200
1368, 0.5786752700, 0.5436502100
1369, 0.5802819730, 0.5264058710
1370, 0.8909490700, 0.5311583880
1371, 0.8710085750, 0.5231929420
1372, 0.8899189230, 0.5397643450
1373, 0.8871606590, 0.5477076770
1374, 0.5767394900, 0.5029968620
1375, 0.5794870850, 0.4523214400
1376, 0.8766140340, 0.5627593400
1377, 0.8667200210, 0.5076568130
1378, 0.5819129940, 0.4700277750
1379, 0.5839093920, 0.5525453690
1380, 0.5817498560, 0.5602198840
1381, 0.8597966430, 0.4934020940
1382, 0.8636507390, 0.4778532390
1383, 0.5780943630, 0.5193730590
1384, 0.5820478200, 0.5339672570
1385, 0.8766016360, 0.5291094780
1386, 0.8945347070, 0.5401062970
1387, 0.5852205750, 0.4586316350
1388, 0.5814729930, 0.4857796730
1389, 0.8864930270, 0.5341774230
1390, 0.5795198680, 0.5082823630
1391, 0.8762007950, 0.5535660390
1392, 0.5918927190, 0.5467119220
1393, 0.5858935120, 0.5384631750
1394, 0.8634530310, 0.5180822610
1395, 0.5971198080, 0.4619281890
1396, 0.5892259480, 0.4659407140
1397, 0.5791194440, 0.4946617480
1398, 0.8723044400, 0.5571481590
1399, 0.8558222650, 0.5051609870
1400, 0.5916370150, 0.5542796250
1401, 0.8691930170, 0.5735217930
1402, 0.8467147350, 0.4912289080
1403, 0.5970208050, 0.4385289850
1404, 0.8460183140, 0.4756943290
1405, 0.5675205590, 0.4110329150
1406, 0.8731806280, 0.5493518110
1407, 0.8848928810, 0.5420762300
1408, 0.5812410120, 0.5145473480
1409, 0.8817763330, 0.5461201670
1410, 0.8818497660, 0.5334898230
1411, 0.8714506030, 0.5296710130
1412, 0.5884109140, 0.5254079700
1413, 0.8652189970, 0.5248126390
1414, 0.5890220400, 0.5333236460
1415, 0.8621026870, 0.5645568970
1416, 0.5984457730, 0.4689995650
1417, 0.5823010210, 0.5001613500
1418, 0.5989095570, 0.5466643570
1419, 0.5907663700, 0.5629164580
1420, 0.6027947660, 0.4481993020
1421, 0.5848509670, 0.4764652850
1422, 0.5848197940, 0.4914448260
1423, 0.8545514350, 0.5155937080
1424, 0.8728131650, 0.5853599910
1425, 0.8516321180, 0.4983487730
1426, 0.5974949000, 0.4209640320
1427, 0.8833212850, 0.5369914770
1428, 0.8807019000, 0.5411766770
1429, 0.8645676370, 0.5540513990
1430, 0.5924223660, 0.5359204410
1431, 0.8772143720, 0.5347445610
1432, 0.5833104250, 0.5209667090
1433, 0.5881287460, 0.4970265030
1434, 0.8661873340, 0.5310378070
1435, 0.5877918000, 0.5183004140
1436, 0.5852740410, 0.5059481860
1437, 0.5920223000, 0.5403689740
1438, 0.5871435400, 0.4825685320
1439, 0.8578745130, 0.5211269860
1440, 0.5929453970, 0.4738542740
1441, 0.5998829600, 0.5545151230
1442, 0.5888292190, 0.5726227160
1443, 0.8539744020, 0.5675818320
1444, 0.6083459260, 0.4600409570
1445, 0.6130973100, 0.4416981940
1446, 0.8500571850, 0.5100370650
1447, 0.8556893470, 0.5784637330
1448, 0.8351501820, 0.4930101630
1449, 0.8800814150, 0.5380727050
1450, 0.8717982770, 0.5353292230
1451, 0.8673579690, 0.5463995930
1452, 0.5883024930, 0.5125349760
1453, 0.5928809640, 0.5293557050
1454, 0.5978332760, 0.5399494770
1455, 0.8600041870, 0.5271363850
1456, 0.8591696620, 0.5564086440
1457, 0.5961523650, 0.5341839790
1458, 0.5920411940, 0.4802259800
1459, 0.6055783030, 0.5452337270
1460, 0.5912100080, 0.5026919840
1461, 0.6048547630, 0.4712124170
1462, 0.6007199880, 0.5636167530
1463, 0.6013503670, 0.5744915600
1464, 0.8499016760, 0.5199948550
1465, 0.6184118990, 0.4522743230
1466, 0.8446026440, 0.5678091050
1467, 0.8442780970, 0.5042690630
1468, 0.8574534060, 0.5910960440
1469, 0.8703160290, 0.5412918930
1470, 0.8728856440, 0.5393128400
1471, 0.8629174830, 0.5473700170
1472, 0.8705223200, 0.5385827420
1473, 0.8671362400, 0.5361329320
1474, 0.8852942590, 0.5295136570
1475, 0.8613170390, 0.5333147050
1476, 0.5920581820, 0.5212385060
1477, 0.6033380630, 0.5382616520
1478, 0.6008361580, 0.5318943860
1479, 0.5977525710, 0.5251793270
1480, 0.5940452220, 0.5081317420
1481, 0.8527857070, 0.5582494140
1482, 0.6004938480, 0.4893400370
1483, 0.8533746000, 0.5241005420
1484, 0.6003907320, 0.4784224630
1485, 0.6080116030, 0.5530265570
1486, 0.8421099190, 0.5787703390
1487, 0.6174981590, 0.4681555930
1488, 0.6137990360, 0.5717794900
1489, 0.5975869300, 0.4993597870
1490, 0.6285563710, 0.4464823900
1491, 0.8455250860, 0.5158098940
1492, 0.8264464140, 0.4982723300
1493, 0.8669768570, 0.5415188670
1494, 0.8628030420, 0.5399816040
1495, 0.8577727080, 0.5487160680
1496, 0.6002609730, 0.5056548710
1497, 0.6060838700, 0.5295143720
1498, 0.8554472330, 0.5293017030
1499, 0.6032676700, 0.5250111220
1500, 0.5943612460, 0.5162556770
1501, 0.6065381170, 0.4839535950
1502, 0.8458153010, 0.5587342380
1503, 0.6116693020, 0.5427271720
1504, 0.6120190020, 0.4764191810
1505, 0.6378653050, 0.4439791440
1506, 0.6044926050, 0.4958268700
1507, 0.8462366460, 0.5254759790
1508, 0.8377520440, 0.5028237100
1509, 0.8277603390, 0.4902724330
1510, 0.6245882510, 0.4611927870
1511, 0.6018089650, 0.5888128880
1512, 0.6107112170, 0.5617789630
1513, 0.8360556960, 0.5653246050
1514, 0.6255114080, 0.4353379610
1515, 0.8682206870, 0.5385621190
1516, 0.6116566660, 0.5254034400
1517, 0.6087817550, 0.5358665590
1518, 0.6058516500, 0.5204212670
1519, 0.6068729160, 0.5037133690
1520, 0.6155456300, 0.5498837830
1521, 0.8521345260, 0.5500056740
1522, 0.8502619270, 0.5266810060
1523, 0.6015722160, 0.5122486350
1524, 0.8571829800, 0.5414388780
1525, 0.6129561070, 0.4916115400
1526, 0.8401235340, 0.5123047830
1527, 0.8203608990, 0.5054588320
1528, 0.6189749240, 0.4828333850
1529, 0.6309663650, 0.4686575230
1530, 0.8200509550, 0.4981339280
1531, 0.8395501970, 0.4849180580
1532, 0.8390272260, 0.5575437550
1533, 0.8312811850, 0.5740780830
1534, 0.6248162390, 0.4752647280
1535, 0.6426464920, 0.4524076280
1536, 0.8514655230, 0.5420855880
1537, 0.6139776710, 0.5333279970
1538, 0.8418565990, 0.5283399220
1539, 0.6143817900, 0.5180650950
1540, 0.8337422610, 0.5100159650
1541, 0.8423053030, 0.5212279560
1542, 0.8463371400, 0.5508974790
1543, 0.6167338490, 0.5397002100
1544, 0.6135608550, 0.5016089680
1545, 0.6261514430, 0.4883732200
1546, 0.8135607240, 0.4992951150
1547, 0.8206604120, 0.5120090840
1548, 0.6202257870, 0.5576471690
1549, 0.8188323380, 0.4797821640
1550, 0.8299659490, 0.4806784390
1551, 0.6088307500, 0.5127221940
1552, 0.6316268440, 0.4814051090
1553, 0.6526608470, 0.4468761090
1554, 0.6454752090, 0.4646241660
1555, 0.8289054630, 0.5610872510
1556, 0.8403242830, 0.4569834470
1557, 0.8280225400, 0.5509470110
1558, 0.8473694320, 0.5317946080
1559, 0.8448097110, 0.5385367870
1560, 0.6183779840, 0.5261721610
1561, 0.6194331650, 0.5319741370
1562, 0.8357340100, 0.5491510630
1563, 0.8414079550, 0.5446854230
1564, 0.8513162730, 0.5309288500
1565, 0.8374919300, 0.5190535780
1566, 0.6215713020, 0.5452363490
1567, 0.8264196520, 0.5180220010
1568, 0.6218523980, 0.4952895940
1569, 0.8401179910, 0.5248463750
1570, 0.8152860400, 0.5124278070
1571, 0.6173955800, 0.5138153430
1572, 0.6156010630, 0.5088589190
1573, 0.8169334530, 0.4663281740
1574, 0.8084200020, 0.4834014770
1575, 0.6248759630, 0.5668682460
1576, 0.8231075410, 0.5677466990
1577, 0.6379196050, 0.4874053000
1578, 0.8335754870, 0.4695362450
1579, 0.6380117540, 0.4741990270
1580, 0.6572108270, 0.4593281750
1581, 0.6428612470, 0.4325603250
1582, 0.8315059540, 0.5463703870
1583, 0.6293767690, 0.5511055590
1584, 0.8434121010, 0.5332353710
1585, 0.8364351390, 0.5249053840
1586, 0.8408305640, 0.5396128890
1587, 0.6220976710, 0.5146412850
1588, 0.8234406110, 0.5560128090
1589, 0.8322356940, 0.5181789990
1590, 0.8150599600, 0.5186235900
1591, 0.8092597720, 0.5074604750
1592, 0.6327641610, 0.4938783050
1593, 0.6441010830, 0.4806928630
1594, 0.6257561450, 0.5313382150
1595, 0.8045885560, 0.4953287240
1596, 0.8238159420, 0.5829742550
1597, 0.6344591380, 0.5614791510
1598, 0.6194111110, 0.5011836890
1599, 0.6516439910, 0.4742473960
1600, 0.8030825260, 0.4748759270
1601, 0.6613980530, 0.4262979030
1602, 0.8373984690, 0.5443987850
1603, 0.8241891860, 0.5465196970
1604, 0.8256423470, 0.5240594150
1605, 0.8393951650, 0.5347587470
1606, 0.8201951980, 0.5243598220
1607, 0.8376693730, 0.5299817320
1608, 0.6233972310, 0.5071710350
1609, 0.8310799000, 0.5258352160
1610, 0.8099311590, 0.5181249380
1611, 0.6311673520, 0.5406848190
1612, 0.6282474990, 0.5003688930
1613, 0.8015366200, 0.5049259070
1614, 0.6437647340, 0.4934224490
1615, 0.6228966120, 0.5265370610
1616, 0.8173233270, 0.5611333850
1617, 0.8003483410, 0.4888399540
1618, 0.7934930920, 0.4672657250
1619, 0.6562365890, 0.4823916850
1620, 0.6608779430, 0.4697852130
1621, 0.8151811360, 0.5742001530
1622, 0.6430847640, 0.5568970440
1623, 0.8281551000, 0.5425966380
1624, 0.8335400220, 0.5317375060
1625, 0.8372213840, 0.5405378940
1626, 0.8087700610, 0.5232540370
1627, 0.6305307150, 0.5113396640
1628, 0.8194575310, 0.5506774780
1629, 0.8245969410, 0.5282776950
1630, 0.6388815640, 0.4994077380
1631, 0.8038553000, 0.5099023580
1632, 0.6318978670, 0.5332269670
1633, 0.7944565420, 0.4947860540
1634, 0.6713074450, 0.4676963090
1635, 0.6392416360, 0.5486326810
1636, 0.6490036250, 0.5649037360
1637, 0.6344139580, 0.5053302650
1638, 0.6638291480, 0.4786640700
1639, 0.8092318180, 0.5659583210
1640, 0.6494668720, 0.4874515240
1641, 0.8318276410, 0.5390635730
1642, 0.8355490570, 0.5364531280
1643, 0.8211918470, 0.5418431760
1644, 0.8270362020, 0.5308265090
1645, 0.8209360840, 0.5295764210
1646, 0.8046817180, 0.5171024200
1647, 0.7957689170, 0.5081851480
1648, 0.6325895790, 0.5209915040
1649, 0.6381617780, 0.5402023200
1650, 0.6448479290, 0.5051497820
1651, 0.8135021330, 0.5547001360
1652, 0.6601297260, 0.4890911880
1653, 0.6502720120, 0.5523884890
1654, 0.7903224230, 0.5013166070
1655, 0.6302952170, 0.5765819550
1656, 0.6561648850, 0.5589721200
1657, 0.6493831870, 0.4991979000
1658, 0.7885328530, 0.4904272850
1659, 0.8043913840, 0.5799558160
1660, 0.6402351860, 0.5103561280
1661, 0.6685040590, 0.4859956200
1662, 0.6715695260, 0.4776346980
1663, 0.6838085650, 0.4553609490
1664, 0.8253864650, 0.5383986830
1665, 0.8229354620, 0.5341331960
1666, 0.8165664080, 0.5316837430
1667, 0.8097791080, 0.5302991270
1668, 0.7986744050, 0.5144734380
1669, 0.6429601310, 0.5220341090
1670, 0.6558507680, 0.5476626160
1671, 0.8187214140, 0.5369470120
1672, 0.7879934310, 0.5095351340
1673, 0.8056830170, 0.5581400390
1674, 0.6677933340, 0.4934350550
1675, 0.6638631220, 0.5654421450
1676, 0.6512675290, 0.5120976570
1677, 0.8112324480, 0.5901882050
1678, 0.7990323310, 0.5703202490
1679, 0.6552983520, 0.5041011570
1680, 0.7941968440, 0.4826263490
1681, 0.7847856280, 0.4981091620
1682, 0.6542691590, 0.4934716520
1683, 0.6477198600, 0.5796263220
1684, 0.6775300500, 0.4898306730
1685, 0.6833323240, 0.4681339260
1686, 0.8036161070, 0.4580155010
1687, 0.6813680530, 0.4411287900
1688, 0.8142369990, 0.5399491190
1689, 0.8121524450, 0.5348154310
1690, 0.8037835360, 0.5221289990
1691, 0.8110795620, 0.5484961270
1692, 0.6443770530, 0.5308873060
1693, 0.7915730480, 0.5166622400
1694, 0.6521255970, 0.5426899790
1695, 0.6379151340, 0.5326051710
1696, 0.6653915640, 0.5808232430
1697, 0.6724573970, 0.4991198480
1698, 0.6593375210, 0.5139418840
1699, 0.7816408870, 0.5050430890
1700, 0.6614380480, 0.5526973610
1701, 0.7872360350, 0.5746043920
1702, 0.6512311100, 0.5217701200
1703, 0.7972670790, 0.5509789590
1704, 0.7782621980, 0.4953563810
1705, 0.7848742600, 0.4768004120
1706, 0.6811594370, 0.4797274770
1707, 0.6660432820, 0.4424048070
1708, 0.6957882640, 0.4405319090
1709, 0.8058307770, 0.5330529210
1710, 0.8045407530, 0.5508025290
1711, 0.6508838530, 0.5372711420
1712, 0.6600622530, 0.5424525740
1713, 0.7989493010, 0.5210465190
1714, 0.7815145850, 0.5154821280
1715, 0.7845001220, 0.5654370780
1716, 0.8078109030, 0.5375930070
1717, 0.6619919540, 0.5066636800
1718, 0.7762468460, 0.5103206040
1719, 0.6643669610, 0.5463833210
1720, 0.6514282820, 0.5301309820
1721, 0.6586566570, 0.5219311120
1722, 0.6864209180, 0.4944540560
1723, 0.6640029550, 0.5001416210
1724, 0.7773111460, 0.5015348200
1725, 0.7708265780, 0.4714106920
1726, 0.6727219220, 0.5729272370
1727, 0.6565686460, 0.5886928440
1728, 0.6959089640, 0.4711591010
1729, 0.6798534990, 0.4257838430
1730, 0.7014231090, 0.4560132620
1731, 0.7990758420, 0.5253670220
1732, 0.7986848350, 0.5446452500
1733, 0.7859706280, 0.5206503270
1734, 0.7999230620, 0.5367366670
1735, 0.6596271990, 0.5310438870
1736, 0.8025479910, 0.5353440640
1737, 0.6659224030, 0.5152065160
1738, 0.7765291330, 0.5209962730
1739, 0.6704702970, 0.5568247440
1740, 0.7865465280, 0.5533499720
1741, 0.6755610700, 0.5120534900
1742, 0.6558915380, 0.5384336710
1743, 0.7722005250, 0.5036711100
1744, 0.6812077760, 0.5041906240
1745, 0.6912552710, 0.4834282100
1746, 0.7704391480, 0.4851754610
1747, 0.7818251850, 0.4593233470
1748, 0.7758652570, 0.5676402450
1749, 0.6831926110, 0.5808737870
1750, 0.6569149490, 0.6078614000
1751, 0.6628388170, 0.4949239790
1752, 0.7995244260, 0.5399012570
1753, 0.7982745770, 0.5300394890
1754, 0.6645377280, 0.5376290080
1755, 0.7907633190, 0.5479124190
1756, 0.6653745170, 0.5211530330
1757, 0.7795360680, 0.5575958490
1758, 0.7815197710, 0.5259843470
1759, 0.6695069070, 0.5477196570
1760, 0.6691865320, 0.5083420280
1761, 0.7694131730, 0.5159876940
1762, 0.6954353450, 0.4996445180
1763, 0.7721800800, 0.5763276220
1764, 0.6807827350, 0.5177515150
1765, 0.7624349000, 0.4977811570
1766, 0.6791605950, 0.5648557540
1767, 0.7601597310, 0.4601508380
1768, 0.7072191830, 0.4775920210
1769, 0.6957072020, 0.5885189180
1770, 0.7956805830, 0.5384779570
1771, 0.7856641410, 0.5433650020
1772, 0.7977107170, 0.5350584390
1773, 0.6676862840, 0.5276461240
1774, 0.6744791270, 0.5448685290
1775, 0.7959975600, 0.5267758970
1776, 0.7896328570, 0.5251575710
1777, 0.7772825360, 0.5303272600
1778, 0.6705377700, 0.5180628900
1779, 0.7813778520, 0.5473687650
1780, 0.7728776340, 0.5267889500
1781, 0.6786702870, 0.5511208180
1782, 0.6899133920, 0.5114603640
1783, 0.7712560300, 0.5609986190
1784, 0.7653165460, 0.5069152120
1785, 0.7010731100, 0.4886464180
1786, 0.7598574760, 0.4880077840
1787, 0.7149930600, 0.4666540320
1788, 0.7497585420, 0.4691194000
1789, 0.7951959370, 0.5326144100
1790, 0.6717997190, 0.5348179340
1791, 0.7750511170, 0.5500855450
1792, 0.7811070080, 0.5318524840
1793, 0.7687757610, 0.5327648520
1794, 0.6852176790, 0.5572553870
1795, 0.6838769320, 0.5249297620
1796, 0.7633844610, 0.5656165480
1797, 0.6912878160, 0.5231964590
1798, 0.7609595660, 0.5188841220
1799, 0.6741475460, 0.5232554670
1800, 0.6836792230, 0.5449774270
1801, 0.7044622900, 0.5044447780
1802, 0.7540884610, 0.5015604500
1803, 0.7241954800, 0.4757758680
1804, 0.7171494360, 0.4850239160
1805, 0.7923405170, 0.5358192320
1806, 0.7925494310, 0.5292252900
1807, 0.7810752390, 0.5380038620
1808, 0.7746941450, 0.5359178780
1809, 0.6782320140, 0.5398786660
1810, 0.7670085430, 0.5521746280
1811, 0.7637916210, 0.5265613790
1812, 0.6903736000, 0.5316230060
1813, 0.7000563140, 0.5138118860
1814, 0.7585489150, 0.5552147630
1815, 0.7104662060, 0.4947325290
1816, 0.7577150460, 0.5103410480
1817, 0.6900416610, 0.5496857170
1818, 0.7502807380, 0.4926823680
1819, 0.7893840670, 0.5323756340
1820, 0.7784104350, 0.5425192120
1821, 0.7639366390, 0.5409160260
1822, 0.6995291110, 0.5249256490
1823, 0.6875374910, 0.5386304260
1824, 0.7548362020, 0.5446978210
1825, 0.6938244700, 0.5627135040
1826, 0.7133095860, 0.5109236240
1827, 0.7539939880, 0.5225754380
1828, 0.7526031730, 0.5694964530
1829, 0.7460338470, 0.4841203690
1830, 0.7461068630, 0.5059906240
1831, 0.7191864250, 0.5013222100
1832, 0.7935585380, 0.5427888040
1833, 0.6820966010, 0.5346267820
1834, 0.6962474580, 0.5340225100
1835, 0.7081716660, 0.5230992440
1836, 0.7577831150, 0.5311840770
1837, 0.6977561710, 0.5539246200
1838, 0.7489417200, 0.5582475070
1839, 0.6936073300, 0.5420490500
1840, 0.7210773830, 0.5131151080
1841, 0.7272973660, 0.4926044050
1842, 0.7372331620, 0.4895827770
1843, 0.7503652570, 0.5141200420
1844, 0.7333793640, 0.5026256440
1845, 0.7042349580, 0.5311160680
1846, 0.7025746110, 0.5373571520
1847, 0.7039999370, 0.5671893360
1848, 0.7156007290, 0.5215328340
1849, 0.7006450300, 0.5453760030
1850, 0.7458077070, 0.5475805400
1851, 0.7472752930, 0.5260198710
1852, 0.7387803790, 0.5109497900
1853, 0.7402026650, 0.5715303420
1854, 0.7322749500, 0.4830385150
1855, 0.7275069360, 0.4568964540
1856, 0.7703639270, 0.4479939040
1857, 0.7406355740, 0.4612449710
1858, 0.7765300270, 0.5893086190
1859, 0.6890193820, 0.5717369910
1860, 0.7087929840, 0.5479720830
1861, 0.7171534300, 0.5304914120
1862, 0.7383624910, 0.5601633790
1863, 0.7318003770, 0.5181410910
1864, 0.7428020830, 0.5376399760
1865, 0.7152642610, 0.4461688400
1866, 0.7437764410, 0.5179107190
1867, 0.7263187170, 0.5084753630
1868, 0.7178099160, 0.5398505930
1869, 0.7176687720, 0.5495343210
1870, 0.7364670630, 0.5493863820
1871, 0.7249020340, 0.5300146340
1872, 0.7068272830, 0.5573725100
1873, 0.7276071910, 0.5717575550
1874, 0.7344967130, 0.5391834970
1875, 0.7326500420, 0.5292653440
1876, 0.7168418770, 0.5596657990
1877, 0.7275004980, 0.5606423020
1878, 0.7154147620, 0.5703051690
1879, 0.7274637820, 0.5834645030
1880, 0.7261263730, 0.5398684140
1881, 0.7270228860, 0.5500277880
1882, 0.6955391760, 0.4279622140
1883, 0.7004242540, 0.5775079730
1884, 0.4566192030, 0.4182061250
1885, 0.4104846420, 0.4851116540
1886, 0.6577381490, 0.4057050940
1887, 0.9335874320, 0.5912178750
1888, 0.4722067420, 0.4105554220
1889, 0.7059897780, 0.4351116120
1890, 0.8034211990, 0.6058312060
1891, 0.6757713560, 0.6046952610
1892, 0.6354931000, 0.6035293340
1893, 0.9837952260, 0.5990395550
1894, 0.7369005680, 0.4442801480
1895, 0.8623141050, 0.4488233920
1896, 0.5697916150, 0.3955364230
1897, 0.6375309820, 0.5864314440
1898, 0.7851651910, 0.4405557810
1899, 0.7819705010, 0.6023836730
1900, 0.3910849090, 0.5163686870
1901, 0.6137918230, 0.6009507180
1902, 0.9863255620, 0.4497859180
1903, 0.9822794800, 0.0923690051
1904, 0.9817608590, 0.0740409642
1905, 0.9825864430, 0.1107951920
1906, 0.9712983970, 0.4471448360
1907, 0.4534560140, 0.9823933240
1908, 0.9812417630, 0.0557352677
1909, 0.4351069330, 0.9825605750
1910, 0.8950520160, 0.4310379330
1911, 0.9825378660, 0.1294161080
1912, 0.4719813470, 0.9821692110
1913, 0.4166306260, 0.9825428130
1914, 0.9807587860, 0.3388955300
1915, 0.9808473590, 0.0373462290
1916, 0.3938946720, 0.4837279620
1917, 0.3734268550, 0.5177731510
1918, 0.9805815220, 0.3197087050
1919, 0.9809241890, 0.3578032260
1920, 0.9802134040, 0.3006567060
1921, 0.1185738150, 0.0181669910
1922, 0.9802494650, 0.8277738690
1923, 0.9797084930, 0.8084607720
1924, 0.9806733730, 0.8470401170
1925, 0.0995934159, 0.0201887228
1926, 0.9794626240, 0.7892715330
1927, 0.1373968720, 0.0163924731
1928, 0.6661700010, 0.9805679920
1929, 0.9808954000, 0.8661670090
1930, 0.9821435210, 0.1482332940
1931, 0.9816350940, 0.3767979440
1932, 0.6471602320, 0.9804905650
1933, 0.9799073340, 0.2820655700
1934, 0.6851871610, 0.9805212620
1935, 0.0795637146, 0.0204468407
1936, 0.9798992870, 0.7700122000
1937, 0.3758130370, 0.4824103120
1938, 0.3548783660, 0.5194666390
1939, 0.9240204690, 0.9821563960
1940, 0.9810259340, 0.8851646180
1941, 0.9429472090, 0.9819027190
1942, 0.1559783070, 0.0153974276
1943, 0.6277725100, 0.9803575870
1944, 0.7044388060, 0.9802892210
1945, 0.0182945747, 0.3617189230
1946, 0.0595265180, 0.0206195693
1947, 0.0198455323, 0.9406570200
1948, 0.9806794520, 0.7505222560
1949, 0.9827485680, 0.3958657980
1950, 0.9816507700, 0.1670809090
1951, 0.3718307910, 0.0194330532
1952, 0.9800431130, 0.2634108360
1953, 0.4907964170, 0.9819310900
1954, 0.3975704010, 0.9820368290
1955, 0.1784197540, 0.9819516540
1956, 0.0201891586, 0.9601427910
1957, 0.0183727853, 0.3811194300
1958, 0.9824189540, 0.6170861720
1959, 0.1593662950, 0.9823681710
1960, 0.3517586590, 0.0215449743
1961, 0.9811601040, 0.9042356010
1962, 0.9049540160, 0.9821861390
1963, 0.3908992410, 0.0177106448
1964, 0.9813445210, 0.7311307190
1965, 0.9619017840, 0.9815646410
1966, 0.9816087480, 0.6545091870
1967, 0.9817079310, 0.6736497280
1968, 0.9817195530, 0.7119105460
1969, 0.9818054440, 0.6927794810
1970, 0.9813939330, 0.1861515790
1971, 0.9812902810, 0.9620888830
1972, 0.9817742710, 0.6355637310
1973, 0.9839980010, 0.4147276880
1974, 0.9813860060, 0.9428464770
1975, 0.9804880020, 0.2442267980
1976, 0.9813128110, 0.9235177640
1977, 0.9852017160, 0.4330083430
1978, 0.3568627830, 0.4812370540
1979, 0.3357962370, 0.5206080080
1980, 0.9809568520, 0.2248624710
1981, 0.9812304380, 0.2054578210
1982, 0.8999518160, 0.6004592780
1983, 0.9148820640, 0.4447715880
1984, 0.0191509556, 0.9212532040
1985, 0.0185854062, 0.3421117960
1986, 0.3311488630, 0.0231737494
1987, 0.0397671685, 0.0205928907
1988, 0.1401705890, 0.9824200270
1989, 0.0201956406, 0.9799287920
1990, 0.8236265180, 0.0189329050
1991, 0.6462173460, 0.0216762256
1992, 0.4096324150, 0.0166929848
1993, 0.1746081260, 0.0150667401
1994, 0.6663112040, 0.0197769683
1995, 0.8431923990, 0.0181218479
1996, 0.7238057260, 0.9799515600
1997, 0.6081365940, 0.9802749750
1998, 0.0186998155, 0.4003956320
1999, 0.8039674160, 0.0198712964
2000, 0.3375251290, 0.4804745610
2001, 0.3162687720, 0.5206879970
2002, 0.1976291540, 0.9814249280
2003, 0.6259226800, 0.0237435345
2004, 0.1591664550, 0.5195590850
2005, 0.1802363840, 0.4796872140
2006, 0.1604451090, 0.4792985320
2007, 0.1394636930, 0.5199131370
2008, 0.3105519120, 0.0218614303
2009, 0.1788021620, 0.5192406180
2010, 0.1998873200, 0.4800677300
2011, 0.8626570700, 0.0176525880
2012, 0.0198985171, 0.0204063449
2013, 0.6858575940, 0.0188863501
2014, 0.8855761890, 0.9817420240
2015, 0.4287690520, 0.0170143656
2016, 0.7843480710, 0.0204680003
2017, 0.1404154150, 0.4788952770
2018, 0.1197204740, 0.5202146170
2019, 0.1934478880, 0.0152180213
2020, 0.6056876180, 0.0231572594
2021, 0.4479843970, 0.0179637466
2022, 0.2193480130, 0.4804813270
2023, 0.1983583720, 0.5190237760
2024, 0.5856645110, 0.0217535235
2025, 0.2902274130, 0.0200115480
2026, 0.8821818230, 0.0176423788
2027, 0.4673330190, 0.0187508631
2028, 0.0182977635, 0.9016834500
2029, 0.7644507290, 0.0202729199
2030, 0.9609168170, 0.0186632331
2031, 0.5659563540, 0.0201616008
2032, 0.5099950430, 0.9816460010
2033, 0.7051920890, 0.0187774822
2034, 0.2124810220, 0.0156784877
2035, 0.9412015080, 0.0186751168
2036, 0.9018648860, 0.0180460867
2037, 0.2704702320, 0.0184639115
2038, 0.2316758330, 0.0163761266
2039, 0.5462191700, 0.0189203769
2040, 0.7246723770, 0.0191060454
2041, 0.5264956360, 0.0183480438
2042, 0.4869003890, 0.0187462140
2043, 0.9215541480, 0.0185315460
2044, 0.7444513440, 0.0196891222
2045, 0.2509728370, 0.0172714870
2046, 0.5066760780, 0.0184130780
2047, 0.1205179100, 0.9817878600
2048, 0.3179094790, 0.4804769750
2049, 0.2963911590, 0.5202142000
2050, 0.3777596350, 0.9809449910
2051, 0.1201321410, 0.4786005020
2052, 0.0998898745, 0.5204055910
2053, 0.0190950520, 0.3225132520
2054, 0.2388494310, 0.4808413680
2055, 0.2178958800, 0.5189750790
2056, 0.5659266110, 0.6053928730
2057, 0.2170630250, 0.9808787110
2058, 0.2585958240, 0.4810620250
2059, 0.2374221530, 0.5190333130
2060, 0.2981387080, 0.4807942210
2061, 0.2766211930, 0.5196636920
2062, 0.0998189971, 0.4787736540
2063, 0.0799452811, 0.5204728840
2064, 0.0795923322, 0.4791463610
2065, 0.0600036271, 0.5204699640
2066, 0.0595826469, 0.4794735310
2067, 0.2783819140, 0.4810571370
2068, 0.2569774690, 0.5192493800
2069, 0.0400642343, 0.5204256770
2070, 0.0396609195, 0.4796887930
2071, 0.0200932380, 0.5203483100
2072, 0.5884730220, 0.9803233740
2073, 0.7431293130, 0.9796470400
2074, 0.0202938002, 0.1424946640
2075, 0.8657971620, 0.9805632230
2076, 0.0209294427, 0.1632452610
2077, 0.0191018134, 0.4198919830
2078, 0.1006147640, 0.9806717630
2079, 0.2367612720, 0.9802868370
2080, 0.5294784900, 0.9812849760
2081, 0.3573081790, 0.9809127450
2082, 0.0404204689, 0.9796045420
2083, 0.5688450340, 0.9805218580
2084, 0.2767961030, 0.9792087670
2085, 0.2567364280, 0.9796593190
2086, 0.2967146040, 0.9791831970
2087, 0.3166563510, 0.9798387290
2088, 0.8455016020, 0.9785702820
2089, 0.0807154626, 0.9796580670
2090, 0.0606659763, 0.9793894290
2091, 0.7628580930, 0.9794911150
2092, 0.3368979100, 0.9806029200
2093, 0.8040131930, 0.9776991010
2094, 0.5491523740, 0.9808745380
2095, 0.7832602860, 0.9789015050
2096, 0.8249210720, 0.9767937060
2097, 0.0195388310, 0.1219165550
2098, 0.0176109727, 0.8818911310
2099, 0.0197685100, 0.1834786680
2100, 0.9349367020, 0.4483611290
2101, 0.0193196684, 0.3027365800
2102, 0.0191394631, 0.1014757980
2103, 0.0194003265, 0.4396857320
2104, 0.0178308897, 0.8419798610
2105, 0.0191550106, 0.7821223740
2106, 0.0188165903, 0.7021430130
2107, 0.0190683119, 0.6624588370
2108, 0.0205425974, 0.6219677930
2109, 0.0206340943, 0.5812199120
2110, 0.0204352066, 0.5608878730
2111, 0.0197942816, 0.6421830650
2112, 0.0189707167, 0.7220172290
2113, 0.0191963352, 0.7620943780
2114, 0.0183978658, 0.8219795230
2115, 0.0191032905, 0.7420217390
2116, 0.0202667397, 0.5406258110
2117, 0.0207556933, 0.6016386150
2118, 0.0187741239, 0.6823766230
2119, 0.0188728739, 0.8020390870
2120, 0.0174532831, 0.8619887830
2121, 0.0188655797, 0.2035385970
2122, 0.7436089520, 0.5963674190
2123, 0.0192375053, 0.2828286590
2124, 0.0193382557, 0.0809944123
2125, 0.0185797680, 0.2233439830
2126, 0.0186933987, 0.2431236060
2127, 0.0197930895, 0.0608223528
2128, 0.0199389439, 0.0406915024
2129, 0.0189718362, 0.2629576330
2130, 0.0196272079, 0.4596836270
2131, 0.9660600420, 0.5993875270
2132, 0.4373352230, 0.4409263130
2133, 0.4822662170, 0.5854499340
2134, 0.8474495410, 0.4432086650
2135, 0.8003882770, 0.4443614480
2136, 0.5468273160, 0.6083087330
2137, 0.9545413850, 0.4462956190
2138, 0.9120652080, 0.5925319190
2139, 0.8626198170, 0.6054987910
2140, 0.6196246150, 0.4223621490
2141, 0.4723685680, 0.5724871750
2142, 0.4538889230, 0.5663301940
2143, 0.5509841440, 0.3961784240
2144, 0.5142647030, 0.3985787330
2145, 0.4369330110, 0.5587200520
2146, 0.5173427460, 0.5965112450
2147, 0.7602153420, 0.5932672020
2148, 0.6251311300, 0.6115407940
2149, 0.8414198760, 0.6088466640
2150, 0.5911813380, 0.6014589070
2151, 0.7256149050, 0.4357463720
2152, 0.7108322380, 0.5933741930
2153, 0.5691244010, 0.3796345000
2154, 0.6728326680, 0.6141515970
2155, 0.4082558160, 0.5157840850
2156, 0.4118782880, 0.4688244460
2157, 0.6447571520, 0.6133544450
2158, 0.8548699620, 0.4297631380
2159, 0.8927520510, 0.6192365290
2160, 0.4630920590, 0.4057836530
2161, 0.4389382900, 0.4186123910
2162, 0.8106321100, 0.4473035340
2163, 0.8227899670, 0.6141225700
2164, 0.9236077070, 0.6035930510
2165, 0.4226827030, 0.4295279090
2166, 0.7924986480, 0.6093087790
2167, 0.8866600990, 0.6067390440
2168, 0.3900439740, 0.5324022170
2169, 0.9636503460, 0.0740611926
2170, 0.9649336930, 0.0923882723
2171, 0.5929256680, 0.3955467050
2172, 0.9623224740, 0.0556887351
2173, 0.9655998350, 0.1106083020
2174, 0.4538994430, 0.9647233490
2175, 0.8739394550, 0.4342100320
2176, 0.4950836900, 0.5979028940
2177, 0.8307176830, 0.4354956150
2178, 0.4723734860, 0.9643596410
2179, 0.5663599970, 0.6204684380
2180, 0.9617922310, 0.3184428220
2181, 0.6425269250, 0.3877879080
2182, 0.7466999890, 0.4329450430
2183, 0.9618588690, 0.8482424620
2184, 0.9595673680, 0.8090552090
2185, 0.1406764390, 0.0321189687
2186, 0.9619442820, 0.8674703840
2187, 0.1031456810, 0.0416476689
2188, 0.6843144300, 0.9612978700
2189, 0.4911426900, 0.9638637300
2190, 0.1582216770, 0.0305930749
2191, 0.9438565370, 0.9636081460
2192, 0.9594139460, 0.2619976400
2193, 0.9598815440, 0.7691902520
2194, 0.3556576070, 0.5404279830
2195, 0.9621846680, 0.9054276940
2196, 0.0399303585, 0.9394848940
2197, 0.3939441740, 0.0354075171
2198, 0.1785358340, 0.9636367560
2199, 0.0360052213, 0.3622580170
2200, 0.9630210400, 0.7301988010
2201, 0.9625948070, 0.6550871130
2202, 0.0602488220, 0.0409986228
2203, 0.9627641440, 0.9438993330
2204, 0.9620903130, 0.2234670070
2205, 0.3549984100, 0.0418748483
2206, 0.1414523270, 0.9654036760
2207, 0.7230535150, 0.9597021940
2208, 0.0373665392, 0.4003482760
2209, 0.1974946110, 0.9625520110
2210, 0.9068592190, 0.9645450710
2211, 0.6492840650, 0.0419005044
2212, 0.0362295993, 0.9002016780
2213, 0.8637948040, 0.0349727087
2214, 0.4285238680, 0.0337822326
2215, 0.1795849060, 0.5383679270
2216, 0.1825307610, 0.4594579340
2217, 0.1403095280, 0.5397257210
2218, 0.3154261110, 0.5419654850
2219, 0.3077596430, 0.0429448076
2220, 0.6038814780, 0.0464443788
2221, 0.4866762760, 0.0378499329
2222, 0.7649237510, 0.0407476723
2223, 0.5640983580, 0.0398458056
2224, 0.9417576790, 0.0375371650
2225, 0.2679369450, 0.0366265066
2226, 0.5259446500, 0.0360692814
2227, 0.1005371440, 0.5407710670
2228, 0.2599334720, 0.4621342120
2229, 0.2372174260, 0.5381987690
2230, 0.2755732830, 0.5393001440
2231, 0.0603465065, 0.5408306120
2232, 0.5294298530, 0.9623220560
2233, 0.2362000050, 0.9604527950
2234, 0.7618029710, 0.9596116540
2235, 0.3174718620, 0.9597319360
2236, 0.0386984944, 0.1870625320
2237, 0.0389545336, 0.4395817220
2238, 0.0381468683, 0.7221627240
2239, 0.0371892676, 0.2254179720
2240, 0.0400283299, 0.0614387393
2241, 0.5337929130, 0.3809236290
2242, 0.7636761070, 0.6051180960
2243, 0.7984243040, 0.4358210560
2244, 0.4417371750, 0.5725638870
2245, 0.5101754670, 0.6078321930
2246, 0.7663649320, 0.4341338570
2247, 0.7018792030, 0.4137311280
2248, 0.9519416690, 0.4308473470
2249, 0.4709358510, 0.5949788090
2250, 0.7270126340, 0.5958034400
2251, 0.5004619960, 0.3893838520
2252, 0.6692438720, 0.3888750080
2253, 0.7454565760, 0.6121962070
2254, 0.5313434600, 0.6033985610
2255, 0.0376085155, 0.6833934190
2256, 0.4897829890, 0.4023835360
2257, 0.5683801770, 0.9605436330
2258, 0.2766969200, 0.9578791860
2259, 0.2793943580, 0.4621537330
2260, 0.1423088460, 0.4583962260
2261, 0.0393260606, 0.6439316270
2262, 0.6254045960, 0.3983572720
2263, 0.0395243764, 0.1426826860
2264, 0.9021087880, 0.0359497853
2265, 0.0999069661, 0.4579238000
2266, 0.7248958350, 0.0381772667
2267, 0.1937104170, 0.0308044218
2268, 0.1024683790, 0.9614027140
2269, 0.0415112190, 0.6024093630
2270, 0.0373650566, 0.1019484620
2271, 0.6074237230, 0.9603802560
2272, 0.9635307790, 0.6927878260
2273, 0.3187229630, 0.4605849090
2274, 0.0613146573, 0.9584780930
2275, 0.0406432897, 0.5610965490
2276, 0.0592481606, 0.4592155520
2277, 0.2303569760, 0.0330646150
2278, 0.3577758070, 0.9628359080
2279, 0.6874279380, 0.0373159312
2280, 0.9611045720, 0.3570228520
2281, 0.9640741940, 0.1473858360
2282, 0.4358328580, 0.9649809000
2283, 0.9650329350, 0.3955313560
2284, 0.6467176680, 0.9610788820
2285, 0.3589142860, 0.4620116350
2286, 0.3999062180, 0.9647040960
2287, 0.9624466300, 0.1849785450
2288, 0.8936159610, 0.4157418610
2289, 0.8127706050, 0.4350032810
2290, 0.5037515160, 0.6217184070
2291, 0.7360284920, 0.6300133470
2292, 0.9437947870, 0.8493635650
2293, 0.0595009550, 0.3043084440
2294, 0.1447862680, 0.0470208600
2295, 0.8571277860, 0.9403512480
2296, 0.1968995780, 0.9432337280
2297, 0.1805295940, 0.5572336910
2298, 0.1848308890, 0.4393480420
2299, 0.4259699580, 0.0499245860
2300, 0.7977469560, 0.9372529980
2301, 0.9493498800, 0.1104229020
2302, 0.0506777614, 0.8614166380
2303, 0.6843432780, 0.6305124160
2304, 0.2424120310, 0.4421107770
2305, 0.2368735370, 0.5574835540
2306, 0.5288446550, 0.9432100060
2307, 0.7259980440, 0.6082994340
2308, 0.4879484470, 0.0566527396
2309, 0.9433321360, 0.6563838720
2310, 0.6570462580, 0.3763718610
2311, 0.9445847870, 0.3178044260
2312, 0.6363892560, 0.6214270000
2313, 0.8651878830, 0.0518420003
2314, 0.9085263610, 0.9472217560
2315, 0.6158807870, 0.6201408510
2316, 0.0526425466, 0.3628473280
2317, 0.9458218220, 0.0749298483
2318, 0.4911620910, 0.9458468560
2319, 0.4005154970, 0.0549164861
2320, 0.1426543740, 0.9496420620
2321, 0.4743686320, 0.3948291240
2322, 0.7805888060, 0.4288708870
2323, 0.8419532180, 0.4264421160
2324, 0.7211438420, 0.9396494030
2325, 0.0558700673, 0.2270845620
2326, 0.0574396551, 0.7221299410
2327, 0.2350434060, 0.9405567650
2328, 0.4516543750, 0.4008450810
2329, 0.4480024870, 0.5873953700
2330, 0.5820556880, 0.6137721540
2331, 0.7619048360, 0.9413829450
2332, 0.7638322110, 0.0606047474
2333, 0.0565372333, 0.1926407670
2334, 0.1415759920, 0.5593317150
2335, 0.9482442140, 0.5976112480
2336, 0.1448536960, 0.4392439130
2337, 0.5675657990, 0.9398586750
2338, 0.2740562560, 0.5587788820
2339, 0.2801582220, 0.4434846040
2340, 0.0567787476, 0.6839111450
2341, 0.5254555340, 0.0527564101
2342, 0.2755239010, 0.9363567830
2343, 0.3994585570, 0.4482619460
2344, 0.9610736370, 0.8288022880
2345, 0.1226560100, 0.0354153141
2346, 0.9386528730, 0.2593775090
2347, 0.7036156060, 0.9608494040
2348, 0.7246202830, 0.0572712012
2349, 0.0806045979, 0.0394926704
2350, 0.6071406600, 0.9405096170
2351, 0.9010764960, 0.0527964756
2352, 0.0363174751, 0.3813726310
2353, 0.9452866320, 0.6931026580
2354, 0.3754424150, 0.0381050780
2355, 0.0571062975, 0.1410756110
2356, 0.1933396610, 0.0465902798
2357, 0.5264531370, 0.6159332990
2358, 0.0577458851, 0.6470999720
2359, 0.5957299470, 0.6194617750
2360, 0.0990510583, 0.4378096160
2361, 0.1011863950, 0.5610394480
2362, 0.5101947780, 0.9631797670
2363, 0.6484093070, 0.6298136710
2364, 0.3183044790, 0.4407633240
2365, 0.3129068610, 0.5626968740
2366, 0.1066739190, 0.9431121950
2367, 0.3205013570, 0.9404281380
2368, 0.9442985650, 0.9450873140
2369, 0.9386112090, 0.3561574820
2370, 0.0561655685, 0.3993557390
2371, 0.6854555010, 0.3955650330
2372, 0.9400885110, 0.8110768800
2373, 0.5600277780, 0.0580474474
2374, 0.5148893590, 0.3784760240
2375, 0.6884946230, 0.0553843565
2376, 0.0618440844, 0.6023117300
2377, 0.3454246820, 0.0679279640
2378, 0.0679009706, 0.1024903800
2379, 0.9428881410, 0.0562850051
2380, 0.9436883330, 0.2217784370
2381, 0.2283242050, 0.0499698073
2382, 0.0586467125, 0.4391986130
2383, 0.4836397470, 0.6133350130
2384, 0.0609324053, 0.9375604990
2385, 0.3729843500, 0.9440734390
2386, 0.4543043080, 0.9468509550
2387, 0.9452310800, 0.7288846370
2388, 0.0606418066, 0.5610897540
2389, 0.6465349200, 0.9417552950
2390, 0.0623399578, 0.0630996004
2391, 0.5991516110, 0.0687638596
2392, 0.3592208920, 0.5623790620
2393, 0.3625812830, 0.4432454110
2394, 0.9333608750, 0.4312365950
2395, 0.9497039910, 0.4140099290
2396, 0.4031380710, 0.9477634430
2397, 0.2644134760, 0.0545497984
2398, 0.3011879620, 0.0623735152
2399, 0.9127646680, 0.4152310490
2400, 0.7241638300, 0.4175604580
2401, 0.6422851090, 0.0675482303
2402, 0.9435210820, 0.1843579260
2403, 0.9405642750, 0.7668087480
2404, 0.8741284010, 0.3994219600
2405, 0.7017651200, 0.3963918690
2406, 0.7766765950, 0.6341536050
2407, 0.9472382660, 0.3963018660
2408, 0.8791053890, 0.6362445950
2409, 0.9388031960, 0.6170017720
2410, 0.4062963130, 0.5316881540
2411, 0.7920572160, 0.6185519100
2412, 0.4031523470, 0.4294170140
2413, 0.8564767840, 0.4148861470
2414, 0.4314721230, 0.5951319930
2415, 0.8882063030, 0.9640488620
2416, 0.0368643552, 0.3428515790
2417, 0.5065158610, 0.0364787169
2418, 0.4107587640, 0.0326248854
2419, 0.8827283380, 0.0349309184
2420, 0.9621509310, 0.6361851690
2421, 0.1599512700, 0.9647660260
2422, 0.1222407450, 0.9641994240
2423, 0.9253332610, 0.9642713070
2424, 0.1758118720, 0.0302690119
2425, 0.0382610783, 0.9198216800
2426, 0.9618761540, 0.8864461780
2427, 0.9625767470, 0.9247189760
2428, 0.5667076110, 0.3463796680
2429, 0.9617394210, 0.3378308710
2430, 0.8455618620, 0.6370851400
2431, 0.3958615660, 0.4664092960
2432, 0.9653311970, 0.1289586130
2433, 0.4365447160, 0.4031680520
2434, 0.4254516960, 0.5629745720
2435, 0.6137021180, 0.3829877670
2436, 0.7764788270, 0.4162287710
2437, 0.4438080790, 0.6093186140
2438, 0.7299148440, 0.4084760840
2439, 0.8910315040, 0.9471157190
2440, 0.0538018644, 0.3448408540
2441, 0.7170888780, 0.3961433470
2442, 0.8060519700, 0.6183193920
2443, 0.1182139810, 0.0589660667
2444, 0.6817952990, 0.6474941970
2445, 0.4727081360, 0.9289455410
2446, 0.9324578050, 0.0944713801
2447, 0.4363858100, 0.3859754500
2448, 0.7478098870, 0.6630253200
2449, 0.9092552660, 0.9304008480
2450, 0.0535490178, 0.8976665140
2451, 0.8052105900, 0.6344128250
2452, 0.9086673260, 0.6130312090
2453, 0.4929618840, 0.0738473535
2454, 0.0684746206, 0.3625241520
2455, 0.9284698370, 0.3311407270
2456, 0.0603065342, 0.3261474670
2457, 0.8739168050, 0.9449838400
2458, 0.6679006220, 0.6598912480
2459, 0.4652835130, 0.6175158620
2460, 0.0508762226, 0.8790965080
2461, 0.4192458090, 0.0644952357
2462, 0.2158580870, 0.9418727160
2463, 0.1649408940, 0.4388907850
2464, 0.1302378480, 0.9329321380
2465, 0.8106988670, 0.4225444790
2466, 0.3680184190, 0.0743244290
2467, 0.1612598300, 0.5579268930
2468, 0.7801384930, 0.9411098360
2469, 0.8831710820, 0.0679973662
2470, 0.0882732198, 0.0664463490
2471, 0.9243718390, 0.9091160890
2472, 0.2554192250, 0.5579851870
2473, 0.9445896150, 0.6749190690
2474, 0.5480508800, 0.9415266510
2475, 0.2631183560, 0.4258853790
2476, 0.6717022060, 0.0551532619
2477, 0.6271200180, 0.9417729970
2478, 0.5427876710, 0.0542804785
2479, 0.6650057440, 0.9414521460
2480, 0.0575153343, 0.1217964140
2481, 0.9344482420, 0.7888911370
2482, 0.0536298901, 0.3809947670
2483, 0.0577248111, 0.4191614990
2484, 0.0849180073, 0.9343194960
2485, 0.7061451080, 0.0567705631
2486, 0.9252801540, 0.8679414390
2487, 0.1215593740, 0.5608707670
2488, 0.2929500040, 0.5599951150
2489, 0.3408646580, 0.4371269050
2490, 0.1222073880, 0.4354163410
2491, 0.3362494410, 0.5691013340
2492, 0.7418360110, 0.9348130230
2493, 0.0740970150, 0.2114610820
2494, 0.2548471090, 0.9388325210
2495, 0.9419974090, 0.2402855310
2496, 0.2987056670, 0.9322398900
2497, 0.9455927610, 0.7109825020
2498, 0.7437177900, 0.0582097918
2499, 0.0574331209, 0.7026022080
2500, 0.9439558390, 0.3775459830
2501, 0.5871102810, 0.9389833810
2502, 0.4141568240, 0.5918135640
2503, 0.3185599150, 0.0695518926
2504, 0.3616217970, 0.0596546270
2505, 0.3801217080, 0.5570060010
2506, 0.2106046380, 0.0480993241
2507, 0.2988575100, 0.4424659610
2508, 0.3815641400, 0.4462415580
2509, 0.0551469736, 0.6659944060
2510, 0.9217277170, 0.0581656918
2511, 0.9441375140, 0.2032839060
2512, 0.3394995630, 0.9446656700
2513, 0.9413341280, 0.1638399660
2514, 0.0807281956, 0.5609877710
2515, 0.0784589648, 0.4386367200
2516, 0.0643346608, 0.6258113380
2517, 0.0712433308, 0.0887077749
2518, 0.5786392090, 0.0671936870
2519, 0.8620969060, 0.6361701490
2520, 0.6556985380, 0.0581922717
2521, 0.6043035390, 0.3684625030
2522, 0.3571859900, 0.9460144640
2523, 0.3902460630, 0.9481688140
2524, 0.0610010922, 0.5813772080
2525, 0.9438380000, 0.7473207120
2526, 0.2462609710, 0.0520290956
2527, 0.7901197670, 0.6519054770
2528, 0.6172875760, 0.0735816881
2529, 0.8553889990, 0.3990417420
2530, 0.9415285590, 0.6375762820
2531, 0.8927137260, 0.3996817170
2532, 0.2827666100, 0.0577913597
2533, 0.4134160580, 0.5775750880
2534, 0.4042634960, 0.3934083280
2535, 0.9294112920, 0.3980059620
2536, 0.8468801980, 0.6505540610
2537, 0.0812926516, 0.0555078313
2538, 0.0573643409, 0.9172257180
2539, 0.9262148140, 0.9463231560
2540, 0.5732904670, 0.6339820620
2541, 0.4193398060, 0.9471423630
2542, 0.5830814240, 0.3609398900
2543, 0.7159920930, 0.9211942550
2544, 0.0605127513, 0.1784404520
2545, 0.5506361720, 0.3455017510
2546, 0.7082119580, 0.6062270400
2547, 0.8373305800, 0.4003188310
2548, 0.4834789630, 0.6345655320
2549, 0.6833474040, 0.9425721760
2550, 0.9462020400, 0.1451746520
2551, 0.0538787320, 0.1021114510
2552, 0.9013549690, 0.6471408010
2553, 0.6539983750, 0.6491522190
2554, 0.6066703200, 0.6291095610
2555, 0.1251318750, 0.9479461310
2556, 0.9440425040, 0.9261910920
2557, 0.6883105640, 0.6168025730
2558, 0.0603819489, 0.1572674810
2559, 0.9260314700, 0.8328074220
2560, 0.7180696130, 0.6374767420
2561, 0.1620168540, 0.0598436929
2562, 0.5237514380, 0.3617603480
2563, 0.1765671220, 0.0454786718
2564, 0.9335796240, 0.1259933260
2565, 0.1596378540, 0.9470508690
2566, 0.6887569430, 0.3838983180
2567, 0.5258070830, 0.6419638990
2568, 0.5072233080, 0.0536379628
2569, 0.9413646460, 0.2997956570
2570, 0.8829348090, 0.0515663922
2571, 0.9328992370, 0.2806459370
2572, 0.7874151470, 0.0664172694
2573, 0.9224695560, 0.8164657950
2574, 0.0568828434, 0.2455130070
2575, 0.0575213358, 0.7419685720
2576, 0.1766780470, 0.9255570770
2577, 0.5090771910, 0.9263083340
2578, 0.0743741766, 0.1417483090
2579, 0.1763521580, 0.0604045689
2580, 0.7733807560, 0.4029182200
2581, 0.0754961148, 0.9123404030
2582, 0.7002229090, 0.9251946810
2583, 0.9292855860, 0.1404386460
2584, 0.7581763270, 0.4208102520
2585, 0.1085388880, 0.0678204075
2586, 0.8074804540, 0.4106097220
2587, 0.0778871253, 0.0758884922
2588, 0.1558076440, 0.9275798200
2589, 0.9261674280, 0.9281475540
2590, 0.4678138200, 0.6338394880
2591, 0.3091979320, 0.0866581574
2592, 0.6331818100, 0.0828512907
2593, 0.2773774270, 0.0757519603
2594, 0.6116790180, 0.0928497910
2595, 0.9232916240, 0.7610955240
2596, 0.9237152930, 0.1685108990
2597, 0.7020820980, 0.6436601880
2598, 0.6457546350, 0.9230404500
2599, 0.9279453750, 0.7274796960
2600, 0.8934400680, 0.9313781260
2601, 0.0698527619, 0.8933552500
2602, 0.0664189905, 0.3487006130
2603, 0.3655861910, 0.5835890770
2604, 0.6875078080, 0.0733660981
2605, 0.1370724140, 0.0624438114
2606, 0.4223002790, 0.6108807330
2607, 0.4768608810, 0.0809995458
2608, 0.6797707080, 0.6725362540
2609, 0.4990950230, 0.6559776660
2610, 0.4358328280, 0.0716903806
2611, 0.6085316540, 0.9219574930
2612, 0.0750056654, 0.1287706350
2613, 0.4194525180, 0.3906728030
2614, 0.3824069500, 0.0713590160
2615, 0.8652358060, 0.9252151850
2616, 0.0785071850, 0.3226819630
2617, 0.0655694380, 0.8623121380
2618, 0.3311313090, 0.4183450040
2619, 0.8670052890, 0.0684613213
2620, 0.9152966740, 0.8009414080
2621, 0.1959695520, 0.9233524800
2622, 0.1869260370, 0.4201006890
2623, 0.1814922240, 0.5756049160
2624, 0.1007827520, 0.9182029960
2625, 0.5251259210, 0.0681145489
2626, 0.8807489280, 0.6530247930
2627, 0.7911843060, 0.9195399280
2628, 0.9420899750, 0.8876368400
2629, 0.7245653270, 0.0763759017
2630, 0.9242437480, 0.6589605810
2631, 0.3689803480, 0.4258555470
2632, 0.9116794470, 0.0694874972
2633, 0.2363697890, 0.5769606830
2634, 0.3331697580, 0.0811639428
2635, 0.7667731050, 0.6585014460
2636, 0.0851052031, 0.0949454531
2637, 0.9121962790, 0.2686547640
2638, 0.1323736760, 0.4227915700
2639, 0.4018298980, 0.9276893730
2640, 0.1919486820, 0.0624171570
2641, 0.2457318160, 0.4239553810
2642, 0.3275190290, 0.9238607290
2643, 0.5275396110, 0.9240267280
2644, 0.2723477480, 0.5783234240
2645, 0.9270114300, 0.6939077380
2646, 0.9258564110, 0.2199765740
2647, 0.5659630300, 0.0771991014
2648, 0.2803047900, 0.4248682260
2649, 0.2887493670, 0.9102209210
2650, 0.5656748410, 0.9186937210
2651, 0.8219175340, 0.4056933220
2652, 0.7596578600, 0.0780186206
2653, 0.7766177060, 0.9247117040
2654, 0.2334699780, 0.9204435350
2655, 0.5840791460, 0.6467807290
2656, 0.0751150399, 0.2279559370
2657, 0.0692780763, 0.6667240860
2658, 0.0764217600, 0.7222302560
2659, 0.4373516740, 0.9282002450
2660, 0.7312064170, 0.9140828250
2661, 0.0809564516, 0.6398167010
2662, 0.2428022030, 0.0694497824
2663, 0.5958434340, 0.3584885900
2664, 0.8621853590, 0.6491044160
2665, 0.0736893490, 0.1966742870
2666, 0.7249981160, 0.6519239540
2667, 0.4129211900, 0.5633625390
2668, 0.9267913100, 0.8499493600
2669, 0.9293671850, 0.3171042500
2670, 0.4908878800, 0.9280440810
2671, 0.6790686250, 0.3594363930
2672, 0.6304382090, 0.6493243580
2673, 0.8094024660, 0.0599177033
2674, 0.5130352970, 0.3514066640
2675, 0.9207118750, 0.3657423850
2676, 0.0962603912, 0.4180980620
2677, 0.0814908296, 0.6000064020
2678, 0.0582613572, 0.2646432820
2679, 0.0579590835, 0.7620009180
2680, 0.5447251200, 0.6555411220
2681, 0.9340373280, 0.1103914160
2682, 0.4572428760, 0.6020970940
2683, 0.4901835920, 0.9107406140
2684, 0.8317425850, 0.6517026420
2685, 0.9293220040, 0.0775520131
2686, 0.8258423210, 0.4194447700
2687, 0.7320666310, 0.3971410100
2688, 0.3879656790, 0.5983439680
2689, 0.8138039110, 0.6585417990
2690, 0.8922955990, 0.3834947350
2691, 0.8540270920, 0.3829856220
2692, 0.6431437730, 0.6595939990
2693, 0.3901839550, 0.3925863500
2694, 0.7194374200, 0.3823434110
2695, 0.5343248840, 0.3522792460
2696, 0.4812597040, 0.6525430080
2697, 0.6922051910, 0.6863359810
2698, 0.7601335640, 0.4072830080
2699, 0.5093262200, 0.0696374848
2700, 0.4340910020, 0.6187602280
2701, 0.5996246930, 0.3458076420
2702, 0.6194047330, 0.3524271850
2703, 0.3610140090, 0.9161881210
2704, 0.2387794700, 0.0867118537
2705, 0.1150348410, 0.9271996020
2706, 0.0975342020, 0.1011138190
2707, 0.1017534880, 0.6324649450
2708, 0.6012153030, 0.3296090360
2709, 0.4730125070, 0.9119493370
2710, 0.3244627120, 0.9024251700
2711, 0.5659896730, 0.0915206298
2712, 0.9071162940, 0.2335956540
2713, 0.1058995050, 0.6698004600
2714, 0.4064685400, 0.9069941040
2715, 0.2277341340, 0.4153111880
2716, 0.1493976710, 0.0735302940
2717, 0.2718804780, 0.0931059048
2718, 0.5252484680, 0.9046671390
2719, 0.9059908990, 0.6623552440
2720, 0.8060792090, 0.9129475950
2721, 0.2830012740, 0.8915934560
2722, 0.3125084640, 0.6012156010
2723, 0.3461435740, 0.0939366072
2724, 0.9077789780, 0.1857038740
2725, 0.2356348340, 0.5968562960
2726, 0.6075980070, 0.1091805250
2727, 0.3016116020, 0.1021289830
2728, 0.8996936080, 0.0837404877
2729, 0.1122996880, 0.9064053890
2730, 0.1889462620, 0.0784710273
2731, 0.2741368110, 0.3881990310
2732, 0.5611064430, 0.8977544310
2733, 0.7913286690, 0.3972410860
2734, 0.1006538420, 0.5989075900
2735, 0.0947850570, 0.7230999470
2736, 0.3272122740, 0.4043476880
2737, 0.3150901500, 0.4210224150
2738, 0.7252560260, 0.0940899476
2739, 0.2708481850, 0.5981674790
2740, 0.9082306030, 0.7550088760
2741, 0.0897110850, 0.1312624070
2742, 0.9084746840, 0.6950135230
2743, 0.3544037340, 0.4198966320
2744, 0.6478354330, 0.0925480649
2745, 0.0843916312, 0.8483640550
2746, 0.6926267150, 0.6632906790
2747, 0.4653033020, 0.0621169023
2748, 0.9110381010, 0.7269440890
2749, 0.4437198340, 0.0549755991
2750, 0.3577524130, 0.6098991040
2751, 0.0951191112, 0.2276297060
2752, 0.7691996690, 0.9096367960
2753, 0.3865510230, 0.9376927610
2754, 0.0950923562, 0.3990330990
2755, 0.0787432045, 0.3045277600
2756, 0.1013162580, 0.5806724430
2757, 0.8472339510, 0.0531463102
2758, 0.7667876480, 0.0995434821
2759, 0.1428259460, 0.4077974860
2760, 0.1314002280, 0.5985949640
2761, 0.3979207280, 0.0730058998
2762, 0.8539438840, 0.0853097141
2763, 0.5133896470, 0.0849249810
2764, 0.8416709300, 0.9321509600
2765, 0.6127063040, 0.9068881870
2766, 0.9192975160, 0.1113949940
2767, 0.3628276590, 0.4062225220
2768, 0.1994664220, 0.5569900270
2769, 0.0526276752, 0.8425973650
2770, 0.1821870360, 0.5934214000
2771, 0.6831165550, 0.0904917344
2772, 0.8642802240, 0.9055839780
2773, 0.1895987840, 0.4032686050
2774, 0.7266426680, 0.3691811260
2775, 0.8983669880, 0.2580349740
2776, 0.0965735912, 0.3069922630
2777, 0.2048362490, 0.4394096140
2778, 0.8996366860, 0.8098458650
2779, 0.3581625520, 0.9303479190
2780, 0.5717034940, 0.6567026970
2781, 0.8203526140, 0.6775236130
2782, 0.3134866950, 0.9149985910
2783, 0.7903748150, 0.6722859140
2784, 0.0759508312, 0.3961661760
2785, 0.8149451610, 0.9304167630
2786, 0.6423756480, 0.9064658280
2787, 0.2182281320, 0.5570988660
2788, 0.3832188250, 0.0855406448
2789, 0.4909796120, 0.3546022180
2790, 0.2239400740, 0.4396936600
2791, 0.5179808140, 0.6612679960
2792, 0.5579239130, 0.6432041530
2793, 0.9241241220, 0.2368671450
2794, 0.9007890220, 0.8996686940
2795, 0.6438336970, 0.6804237960
2796, 0.4856738750, 0.0960715562
2797, 0.1947281810, 0.9025652410
2798, 0.4516188800, 0.6221278910
2799, 0.4269679490, 0.0874032006
2800, 0.6667087080, 0.3522267040
2801, 0.8057848810, 0.0400272757
2802, 0.9082247610, 0.3722501400
2803, 0.9196998480, 0.8883935210
2804, 0.0848709196, 0.8871105310
2805, 0.8050002460, 0.4009614590
2806, 0.3977202770, 0.6172527070
2807, 0.0383720286, 0.2640738790
2808, 0.0386332832, 0.7822266820
2809, 0.0906104818, 0.1965018810
2810, 0.0844761208, 0.3597352500
2811, 0.7219123240, 0.8969713450
2812, 0.9210913180, 0.6421301960
2813, 0.4886087180, 0.8943258520
2814, 0.8950363990, 0.9186519380
2815, 0.1760236320, 0.9059078100
2816, 0.5406236650, 0.3321102860
2817, 0.8735753300, 0.3679806590
2818, 0.4045209590, 0.3795669080
2819, 0.8553043010, 0.3683093790
2820, 0.9115990400, 0.1327666640
2821, 0.4739787280, 0.8846253160
2822, 0.0787590370, 0.6812839510
2823, 0.0746257529, 0.6540476680
2824, 0.0839037895, 0.6175840500
2825, 0.3071337640, 0.5805166960
2826, 0.1139165980, 0.4158732000
2827, 0.5960958000, 0.0895554051
2828, 0.9070283770, 0.8226723670
2829, 0.6967549320, 0.9103710650
2830, 0.6899696590, 0.3674819170
2831, 0.9178439380, 0.3270297350
2832, 0.3489692210, 0.5909057860
2833, 0.1025168820, 0.0919853225
2834, 0.1465914400, 0.4224895540
2835, 0.8988366130, 0.0680141225
2836, 0.0812006816, 0.1060808970
2837, 0.8483751420, 0.6711171270
2838, 0.8963614110, 0.8650548460
2839, 0.4391176400, 0.9087333680
2840, 0.1438112850, 0.9063290360
2841, 0.9286310080, 0.3045984510
2842, 0.8154135350, 0.3933558760
2843, 0.4333020150, 0.3691228930
2844, 0.1325706990, 0.0744925141
2845, 0.8927287460, 0.6794742940
2846, 0.6089178320, 0.6690303680
2847, 0.2255066780, 0.0669643059
2848, 0.5543458460, 0.0735301077
2849, 0.3647072910, 0.6272091270
2850, 0.0693944171, 0.3791659770
2851, 0.8790909650, 0.9288890360
2852, 0.0657441467, 0.8765927550
2853, 0.6547642350, 0.0790025592
2854, 0.6835220460, 0.9254288670
2855, 0.9217752220, 0.3438999650
2856, 0.2632184620, 0.4097008710
2857, 0.1437887400, 0.5781010990
2858, 0.3562621180, 0.0825034529
2859, 0.9255525470, 0.1852584180
2860, 0.2714107040, 0.9157707690
2861, 0.2321983430, 0.9000263210
2862, 0.0784440562, 0.2640086410
2863, 0.0769115090, 0.7613079550
2864, 0.4548434320, 0.9288164970
2865, 0.4480218290, 0.6434227820
2866, 0.4846011400, 0.8789678220
2867, 0.9171802400, 0.0967329443
2868, 0.7197141050, 0.6839659810
2869, 0.1176456510, 0.5997632150
2870, 0.0969202220, 0.3821331260
2871, 0.6979575750, 0.3553476040
2872, 0.7116426830, 0.3622703850
2873, 0.7828726770, 0.3844032590
2874, 0.0903582200, 0.1206465510
2875, 0.7085769770, 0.6570540670
2876, 0.8123579030, 0.3721627890
2877, 0.7917304040, 0.6896215680
2878, 0.3798028230, 0.6215015050
2879, 0.6157615180, 0.8943352100
2880, 0.6777209040, 0.1082163010
2881, 0.6782648560, 0.6948877570
2882, 0.7309601900, 0.6669039130
2883, 0.8562831280, 0.0975244343
2884, 0.4296353160, 0.6302567720
2885, 0.6076090340, 0.6486007570
2886, 0.4226542710, 0.9068965320
2887, 0.3774730270, 0.9001743790
2888, 0.6479865310, 0.3612053990
2889, 0.9020217060, 0.0991800055
2890, 0.4195671380, 0.1039974540
2891, 0.4512569010, 0.0804962888
2892, 0.1120410410, 0.3247578740
2893, 0.3335375190, 0.8927803040
2894, 0.4129312340, 0.6405822040
2895, 0.8889076710, 0.1701129230
2896, 0.1658794730, 0.6101827030
2897, 0.5793044570, 0.1087722260
2898, 0.0392333195, 0.3036332430
2899, 0.8494209650, 0.9583080410
2900, 0.5962483290, 0.3060897590
2901, 0.7237212060, 0.1098319960
2902, 0.8844491840, 0.0846989006
2903, 0.8771131630, 0.8964988590
2904, 0.8532211780, 0.9176256060
2905, 0.6203749780, 0.1158097160
2906, 0.4928035440, 0.1098429710
2907, 0.3923492430, 0.3713531200
2908, 0.9025278090, 0.3210708800
2909, 0.2956813870, 0.4021883310
2910, 0.1126453880, 0.8908588890
2911, 0.1088155280, 0.1068507130
2912, 0.3825064300, 0.1000140760
2913, 0.3359975810, 0.1066928580
2914, 0.6626508240, 0.1009763330
2915, 0.0982265845, 0.8671647910
2916, 0.8504485490, 0.0697613433
2917, 0.6488589050, 0.8876212240
2918, 0.1761432290, 0.3991460200
2919, 0.5352416040, 0.0883447602
2920, 0.2181360570, 0.1011550050
2921, 0.5353234410, 0.6701613070
2922, 0.2438389210, 0.4008850160
2923, 0.8926934000, 0.7768456940
2924, 0.1113729550, 0.3989589210
2925, 0.1325493160, 0.0991715044
2926, 0.5776790380, 0.8932507040
2927, 0.4585653840, 0.8940285440
2928, 0.3215118940, 0.6123631600
2929, 0.8940289620, 0.3653393090
2930, 0.8950549360, 0.7485979200
2931, 0.5351861120, 0.3211854400
2932, 0.1116725800, 0.6533507700
2933, 0.7761769290, 0.8864304420
2934, 0.8962218170, 0.1344171460
2935, 0.2506932020, 0.1063585430
2936, 0.7565006610, 0.1107580740
2937, 0.1015735420, 0.6162027120
2938, 0.8909357190, 0.2176053670
2939, 0.2531830070, 0.5976832510
2940, 0.2819629010, 0.1140786780
2941, 0.0999161750, 0.3669313790
2942, 0.2973034380, 0.8848524690
2943, 0.9086407420, 0.7113779190
2944, 0.5433248280, 0.9012035130
2945, 0.2135515210, 0.9000322820
2946, 0.6830621360, 0.3387453850
2947, 0.8905121680, 0.8863462210
2948, 0.8089411260, 0.6906331780
2949, 0.5044741630, 0.8900651340
2950, 0.8287330870, 0.0557733215
2951, 0.7004333140, 0.8914619680
2952, 0.8737967610, 0.6893320080
2953, 0.1572605670, 0.8904540540
2954, 0.8900625710, 0.6948021650
2955, 0.3431892400, 0.6180387740
2956, 0.4282014970, 0.3533233400
2957, 0.0934107900, 0.1105635540
2958, 0.6121654510, 0.6894099710
2959, 0.2894758280, 0.5993902090
2960, 0.7603920700, 0.8930773740
2961, 0.2503884730, 0.8993967180
2962, 0.0973384082, 0.7050139310
2963, 0.1131866130, 0.2087189410
2964, 0.8950645920, 0.8503755330
2965, 0.1044462250, 0.1684955950
2966, 0.4665909110, 0.0387101062
2967, 0.0903349891, 0.1430034490
2968, 0.0980134681, 0.2617884280
2969, 0.0595225170, 0.2842301130
2970, 0.0585109144, 0.7823004720
2971, 0.0953446180, 0.7596427800
2972, 0.7492351530, 0.3973802920
2973, 0.9046123030, 0.1497539280
2974, 0.1437656280, 0.0925115496
2975, 0.0951726660, 0.3382787110
2976, 0.8709639910, 0.3538969460
2977, 0.8933762910, 0.3073696490
2978, 0.0965622067, 0.2446191010
2979, 0.0940994993, 0.7414288520
2980, 0.7318322660, 0.3865182700
2981, 0.1732797920, 0.8859029410
2982, 0.4017806950, 0.0988971442
2983, 0.6400533910, 0.3448824880
2984, 0.5754233600, 0.6793330910
2985, 0.8945140840, 0.8329204320
2986, 0.7000960110, 0.7006162410
2987, 0.8027676340, 0.9564639930
2988, 0.5047976370, 0.1032781080
2989, 0.6969608660, 0.0945473462
2990, 0.8969947100, 0.2817225750
2991, 0.1498737190, 0.6117444630
2992, 0.3596514170, 0.1063321160
2993, 0.1665720790, 0.0883918777
2994, 0.1425992400, 0.9372104410
2995, 0.3464190960, 0.3899272680
2996, 0.6328098770, 0.6895318030
2997, 0.2022417490, 0.4599018390
2998, 0.2180933800, 0.5379981400
2999, 0.1060888100, 0.1424553100
3000, 0.3838914630, 0.6379625200
3001, 0.8866948490, 0.1014377700
3002, 0.1052027200, 0.1157662940
3003, 0.8867182730, 0.3496415020
3004, 0.8381636140, 0.3618819120
3005, 0.8999006750, 0.3418217600
3006, 0.4650799040, 0.6494744420
3007, 0.5276480320, 0.6854685540
3008, 0.3140863180, 0.3981941040
3009, 0.6886984710, 0.3215809170
3010, 0.7355405090, 0.6828662750
3011, 0.8468062280, 0.1034426170
3012, 0.4327237900, 0.1065075700
3013, 0.1127086580, 0.3095010820
3014, 0.1998784100, 0.5941923860
3015, 0.4063858090, 0.8885979650
3016, 0.8741272090, 0.1873221550
3017, 0.4821787770, 0.1144385930
3018, 0.3484221700, 0.8896365760
3019, 0.8555957670, 0.8962976930
3020, 0.8847052450, 0.9111288190
3021, 0.5641871090, 0.1098698820
3022, 0.5938388710, 0.1076814160
3023, 0.3274341820, 0.8833821420
3024, 0.6409646270, 0.1082789970
3025, 0.6380227800, 0.8923654560
3026, 0.7365412710, 0.1131056170
3027, 0.1906431020, 0.3916560410
3028, 0.1561137290, 0.4020636980
3029, 0.3484292030, 0.1190754250
3030, 0.5075108410, 0.3102675680
3031, 0.2543525100, 0.3828900460
3032, 0.1143494920, 0.8673260210
3033, 0.6048204300, 0.3162731830
3034, 0.1340363920, 0.6145268680
3035, 0.1257525980, 0.3972286580
3036, 0.5512468220, 0.0903267637
3037, 0.8906654120, 0.7968351840
3038, 0.0954734907, 0.3503596480
3039, 0.8490959410, 0.6939488650
3040, 0.8891116980, 0.7586351040
3041, 0.6776528950, 0.9044734840
3042, 0.7676633600, 0.1223496870
3043, 0.6349822280, 0.3273307680
3044, 0.1312988400, 0.9011696580
3045, 0.2209918800, 0.3940314650
3046, 0.5571663380, 0.8772882220
3047, 0.8548341990, 0.3559226990
3048, 0.4754057530, 0.6875190140
3049, 0.8127732870, 0.8899227980
3050, 0.3023757340, 0.6100999120
3051, 0.3344876470, 0.6018459200
3052, 0.1233437730, 0.6742610930
3053, 0.1918725970, 0.8808213470
3054, 0.8850913640, 0.2669160070
3055, 0.2960826750, 0.1177240680
3056, 0.8170003290, 0.0784414783
3057, 0.8902378680, 0.2324219500
3058, 0.8792768720, 0.8526878950
3059, 0.4450654690, 0.3458482030
3060, 0.4106894730, 0.3600539860
3061, 0.2790500520, 0.8743770720
3062, 0.2344622310, 0.6173621420
3063, 0.1093976420, 0.1905253680
3064, 0.2344558390, 0.1037951260
3065, 0.8250890970, 0.6896471980
3066, 0.9038910870, 0.8767515420
3067, 0.2404221890, 0.4614726310
3068, 0.5217263700, 0.8852198720
3069, 0.1978073120, 0.1135562290
3070, 0.5206897260, 0.0993313789
3071, 0.2331454600, 0.8800156710
3072, 0.3546091910, 0.3840332030
3073, 0.1004157140, 0.6870377060
3074, 0.0979732648, 0.7780945300
3075, 0.1001311990, 0.2780921760
3076, 0.3033673760, 0.5936042670
3077, 0.2692766490, 0.6175090670
3078, 0.7929035430, 0.7051325440
3079, 0.1113876480, 0.7251204850
3080, 0.0583241694, 0.8025545480
3081, 0.1157555580, 0.2263383720
3082, 0.3363683520, 0.3973304330
3083, 0.7787824870, 0.3703302740
3084, 0.2618842120, 0.1254894440
3085, 0.5897274020, 0.6901098490
3086, 0.6044362190, 0.1209737810
3087, 0.7342363000, 0.3555051680
3088, 0.5664469000, 0.6909726260
3089, 0.8912009600, 0.1180165630
3090, 0.7113404270, 0.8821929690
3091, 0.5512117740, 0.3179125190
3092, 0.6407607790, 0.7029154900
3093, 0.1194774580, 0.6357394460
3094, 0.4560004770, 0.9109542970
3095, 0.5989348890, 0.6793687340
3096, 0.9004887940, 0.7401934270
3097, 0.4754644040, 0.8660044670
3098, 0.1363139150, 0.1156200540
3099, 0.4377639890, 0.6620334390
3100, 0.4429494740, 0.8889252540
3101, 0.8816242220, 0.1379761550
3102, 0.3975184860, 0.6503459810
3103, 0.5116308330, 0.6784672740
3104, 0.7966276410, 0.3569030760
3105, 0.7082005740, 0.6944463850
3106, 0.6275594830, 0.9086049200
3107, 0.7620964050, 0.3772666160
3108, 0.6739413740, 0.7122281790
3109, 0.8827797770, 0.3185646530
3110, 0.7191197280, 0.3469565210
3111, 0.3504131140, 0.6343368290
3112, 0.5689476730, 0.3056579230
3113, 0.1463785620, 0.8945750590
3114, 0.1208569180, 0.8955900670
3115, 0.2676091190, 0.8966631290
3116, 0.2589946390, 0.3951599600
3117, 0.6943164470, 0.1154177260
3118, 0.8654271960, 0.7043924930
3119, 0.8916944860, 0.2465538980
3120, 0.3163768950, 0.8912184240
3121, 0.8911237720, 0.2022137340
3122, 0.6170598860, 0.3138921560
3123, 0.9019156690, 0.7666789290
3124, 0.4384230970, 0.1203291790
3125, 0.3417721390, 0.8991249800
3126, 0.7353076340, 0.8863182660
3127, 0.3982020320, 0.1228949730
3128, 0.3144744040, 0.1086628590
3129, 0.7742162350, 0.6906097530
3130, 0.8918652530, 0.3295168280
3131, 0.9095462560, 0.3538745050
3132, 0.8862007860, 0.1538841720
3133, 0.3251604440, 0.1190149640
3134, 0.7435045840, 0.3425099250
3135, 0.4778419440, 0.6699316500
3136, 0.7753914590, 0.7180978660
3137, 0.3406349720, 0.8857342600
3138, 0.8844979410, 0.7676236030
3139, 0.6269338730, 0.8951535220
3140, 0.7768629190, 0.7048603300
3141, 0.6039264200, 0.7003204820
3142, 0.3876837490, 0.6516994830
3143, 0.5061392190, 0.6947810650
3144, 0.8393953440, 0.0891279280
3145, 0.0996890143, 0.2918709810
3146, 0.3869525490, 0.3525209430
3147, 0.1164119540, 0.7736685280
3148, 0.1024389040, 0.7961996790
3149, 0.1186876740, 0.2776767310
3150, 0.5992884640, 0.9002677200
3151, 0.8676602840, 0.3403052990
3152, 0.3943340180, 0.6600530740
3153, 0.8859298230, 0.8178114300
3154, 0.8567745090, 0.1143482700
3155, 0.1522952020, 0.6270570160
3156, 0.4408244490, 0.0952322483
3157, 0.6296888590, 0.3102782960
3158, 0.3289519850, 0.3859830800
3159, 0.4793810550, 0.1288050860
3160, 0.8431524630, 0.9074062710
3161, 0.6721287970, 0.3146061900
3162, 0.7431134580, 0.0969270691
3163, 0.4390350580, 0.3314487640
3164, 0.7782641650, 0.1103219540
3165, 0.8205002550, 0.9045859580
3166, 0.2049181010, 0.4011129740
3167, 0.7840009930, 0.3590538500
3168, 0.4622837600, 0.8557547930
3169, 0.3689158860, 0.3555486200
3170, 0.7197669740, 0.6979337330
3171, 0.5811530950, 0.7014066580
3172, 0.2177557050, 0.5954873560
3173, 0.8128660320, 0.1029543130
3174, 0.5431520340, 0.3008331660
3175, 0.2556323410, 0.1399740870
3176, 0.0369491503, 0.8219808940
3177, 0.8712971810, 0.7296127080
3178, 0.4360235330, 0.1374565960
3179, 0.7337500450, 0.8596551420
3180, 0.4048257770, 0.1426794980
3181, 0.6553573610, 0.7139313820
3182, 0.1244340540, 0.3548948170
3183, 0.7277134060, 0.3296009300
3184, 0.1459187420, 0.8547437190
3185, 0.5431275370, 0.6940135960
3186, 0.8543674950, 0.7197046280
3187, 0.6831028460, 0.7274062040
3188, 0.6121089460, 0.1295317260
3189, 0.3777837160, 0.6580186490
3190, 0.1296609190, 0.6470292210
3191, 0.3125150800, 0.1295381340
3192, 0.7231033440, 0.8716869350
3193, 0.2304407360, 0.1213322210
3194, 0.6252615450, 0.6984604000
3195, 0.3358445170, 0.6423387530
3196, 0.3077262040, 0.3757225870
3197, 0.5576543210, 0.2896919550
3198, 0.8159008030, 0.3551407460
3199, 0.8712505700, 0.7684335710
3200, 0.1381315290, 0.6934281590
3201, 0.1368171420, 0.2247338890
3202, 0.1270403710, 0.7385917900
3203, 0.8108555670, 0.7068499920
3204, 0.8708727360, 0.2329198120
3205, 0.4333806630, 0.6781579260
3206, 0.7482289080, 0.3632793430
3207, 0.2630166410, 0.8671401140
3208, 0.5493346450, 0.1074655060
3209, 0.2716368440, 0.6361702080
3210, 0.1795722100, 0.1278646440
3211, 0.7707316280, 0.8680611250
3212, 0.7679199580, 0.3596347270
3213, 0.5940796730, 0.1236797790
3214, 0.1300998930, 0.1883723290
3215, 0.4907395840, 0.8528031110
3216, 0.4735349420, 0.1053379550
3217, 0.6427593230, 0.8780538440
3218, 0.3603827360, 0.1317940060
3219, 0.5197156070, 0.2978727520
3220, 0.3110776250, 0.8777871730
3221, 0.8736925130, 0.2022254320
3222, 0.7783181670, 0.1329669950
3223, 0.6554275160, 0.1168589890
3224, 0.3093824680, 0.6200277810
3225, 0.8676995640, 0.8854694960
3226, 0.5078992250, 0.1143050040
3227, 0.2256375250, 0.3660738470
3228, 0.6871843340, 0.8818143010
3229, 0.5991052990, 0.2775358860
3230, 0.6475095750, 0.1334812490
3231, 0.1821912970, 0.6105179190
3232, 0.5615531210, 0.1335676760
3233, 0.2318350520, 0.6381244060
3234, 0.3638467790, 0.8737567660
3235, 0.8604326250, 0.1881098450
3236, 0.1367151440, 0.3821124140
3237, 0.3078085780, 0.8633539080
3238, 0.8692411780, 0.3120425640
3239, 0.2258340420, 0.8573759200
3240, 0.8951355220, 0.7299092410
3241, 0.6837786440, 0.1336737870
3242, 0.1234742780, 0.3128348290
3243, 0.8064161540, 0.8756710290
3244, 0.5164884330, 0.8667516110
3245, 0.7065789700, 0.3251550500
3246, 0.4681967500, 0.3524771630
3247, 0.4605028630, 0.6865481140
3248, 0.5554238560, 0.8572971820
3249, 0.7225080730, 0.1239503920
3250, 0.2653754350, 0.3717998560
3251, 0.8679001330, 0.2747978870
3252, 0.1856996420, 0.8603310590
3253, 0.0809427276, 0.8039103750
3254, 0.1321305040, 0.8549248580
3255, 0.8377941250, 0.6816496250
3256, 0.8627835510, 0.1257024410
3257, 0.4519354100, 0.1062799540
3258, 0.6463987230, 0.3037405610
3259, 0.6046831610, 0.8821249010
3260, 0.1989506780, 0.6122363810
3261, 0.5187122230, 0.1156481800
3262, 0.8066679840, 0.3374294340
3263, 0.2001805450, 0.3866001370
3264, 0.5287774800, 0.7222356200
3265, 0.8341887590, 0.8952021000
3266, 0.3045609000, 0.3571309150
3267, 0.6472144720, 0.8693337440
3268, 0.1421588510, 0.6451716420
3269, 0.7127859000, 0.7096885440
3270, 0.5145090220, 0.1289586870
3271, 0.1809312700, 0.6266555190
3272, 0.4207049910, 0.3238504530
3273, 0.8354866500, 0.1107534470
3274, 0.5326833720, 0.2860776190
3275, 0.8721145990, 0.8243290780
3276, 0.1258815380, 0.1443094020
3277, 0.8463392850, 0.7358680960
3278, 0.8086162810, 0.7219052910
3279, 0.1254364550, 0.3230488300
3280, 0.4869877400, 0.1411388070
3281, 0.6066957120, 0.8923481700
3282, 0.1003556850, 0.1224103500
3283, 0.6104184390, 0.7216402890
3284, 0.8006552460, 0.1122297790
3285, 0.8470904830, 0.1256038840
3286, 0.6897526380, 0.8560841080
3287, 0.4070000350, 0.6777403950
3288, 0.4048368040, 0.3431735930
3289, 0.7909147140, 0.7330994610
3290, 0.4513774220, 0.8710946440
3291, 0.7536418440, 0.8539476390
3292, 0.4207005800, 0.1403620840
3293, 0.1319113670, 0.3353056610
3294, 0.3458507360, 0.1450099800
3295, 0.7761375310, 0.0852061436
3296, 0.8620112540, 0.7450200920
3297, 0.6232288480, 0.1433421520
3298, 0.2948206960, 0.1362127660
3299, 0.1575689020, 0.6792181130
3300, 0.1618351790, 0.8489899040
3301, 0.3478962480, 0.3563003840
3302, 0.6618481870, 0.7359842060
3303, 0.8601928350, 0.2190873470
3304, 0.8526899220, 0.1749887320
3305, 0.0554687530, 0.8228807450
3306, 0.5850250120, 0.2630652490
3307, 0.3226425950, 0.8580871820
3308, 0.3576483430, 0.6502903700
3309, 0.2733624280, 0.8561179640
3310, 0.8518159990, 0.2956667540
3311, 0.1338202660, 0.7689605360
3312, 0.4729426800, 0.8418630360
3313, 0.1368528900, 0.2779290970
3314, 0.7462755440, 0.1458603440
3315, 0.8012421130, 0.8619578480
3316, 0.3553217050, 0.8584809300
3317, 0.2052624370, 0.1383131890
3318, 0.6398777960, 0.1504524350
3319, 0.1375690400, 0.8394321200
3320, 0.2373196040, 0.3504182700
3321, 0.5716192720, 0.1531953510
3322, 0.8603924510, 0.2575438320
3323, 0.4872319700, 0.7065122720
3324, 0.7371649150, 0.1334598210
3325, 0.6947904230, 0.2886339130
3326, 0.2823608820, 0.3577543500
3327, 0.2526108030, 0.6439976690
3328, 0.2028159200, 0.8528770210
3329, 0.5720592140, 0.8565926550
3330, 0.8643772600, 0.8508253100
3331, 0.7218464610, 0.1408741030
3332, 0.4446290140, 0.6737360360
3333, 0.1430988010, 0.1625554860
3334, 0.8574938180, 0.8652585150
3335, 0.2437527630, 0.8459680680
3336, 0.3139062520, 0.6343927380
3337, 0.5474255080, 0.1515998840
3338, 0.2443557830, 0.1342345770
3339, 0.6124651430, 0.2605194150
3340, 0.4835194050, 0.3426813190
3341, 0.3382572530, 0.8551470040
3342, 0.1302154660, 0.7195719480
3343, 0.5362121460, 0.8577545290
3344, 0.2963327470, 0.6394440530
3345, 0.4232763050, 0.6808653470
3346, 0.7856299880, 0.8541461830
3347, 0.3053700630, 0.8490138050
3348, 0.8541892170, 0.2018282260
3349, 0.1527588520, 0.2025561480
3350, 0.5108813050, 0.8506978150
3351, 0.2136510910, 0.6334715490
3352, 0.2122020270, 0.3532599210
3353, 0.6751301290, 0.1503467110
3354, 0.5210325720, 0.7007479670
3355, 0.7861167190, 0.1440243270
3356, 0.1302208010, 0.7532052400
3357, 0.1390409620, 0.2432521580
3358, 0.7553271650, 0.3319526610
3359, 0.3701242800, 0.1444901380
3360, 0.5458652380, 0.2744108440
3361, 0.6325287220, 0.8784108760
3362, 0.5930951240, 0.1602008640
3363, 0.8534477950, 0.2411612420
3364, 0.8601694700, 0.7771925930
3365, 0.6249788400, 0.7308859230
3366, 0.1256305580, 0.3689797220
3367, 0.8519819380, 0.3113441770
3368, 0.5581730010, 0.7034227850
3369, 0.3968208430, 0.6917289500
3370, 0.3210496900, 0.1429622470
3371, 0.8663890960, 0.1406959590
3372, 0.1372052730, 0.6301850080
3373, 0.7113568780, 0.8585768940
3374, 0.1440026760, 0.6606966850
3375, 0.8775386810, 0.8042876720
3376, 0.7571746110, 0.6948316100
3377, 0.7636981610, 0.7278916240
3378, 0.1093910630, 0.8146095280
3379, 0.1189820920, 0.2948554160
3380, 0.8251431580, 0.3437508050
3381, 0.0928894356, 0.8164456490
3382, 0.7257046100, 0.3107216360
3383, 0.1040350420, 0.8338370320
3384, 0.4510554970, 0.1481187190
3385, 0.5728775260, 0.7131995560
3386, 0.1998781260, 0.5756864550
3387, 0.8268036250, 0.7296069260
3388, 0.1911244090, 0.3753606980
3389, 0.6344404820, 0.8656551840
3390, 0.7552327510, 0.3162702320
3391, 0.1965101360, 0.6296396260
3392, 0.7156763080, 0.7295486330
3393, 0.8211403490, 0.3316907880
3394, 0.8229583500, 0.1182427480
3395, 0.6204839940, 0.8686282630
3396, 0.5324610470, 0.1420027020
3397, 0.4091465470, 0.3118293880
3398, 0.7908450370, 0.3428211810
3399, 0.7400460240, 0.2916797100
3400, 0.6522824170, 0.3206097780
3401, 0.1443412150, 0.3250409070
3402, 0.8469489220, 0.8858910800
3403, 0.5888903740, 0.8711872100
3404, 0.8041582110, 0.7357906700
3405, 0.5354769230, 0.7433691620
3406, 0.8542458420, 0.7618854050
3407, 0.4529836480, 0.3220399020
3408, 0.1565608680, 0.6424407960
3409, 0.4041461350, 0.1613472850
3410, 0.7420874240, 0.8459114430
3411, 0.4991419020, 0.1411745400
3412, 0.6658442620, 0.8718677760
3413, 0.8559349780, 0.7978957300
3414, 0.4234568480, 0.3384948670
3415, 0.4395828840, 0.1514274480
3416, 0.1561218350, 0.6973785160
3417, 0.4371256230, 0.8618195060
3418, 0.8200225830, 0.8690402510
3419, 0.3060815040, 0.1514883640
3420, 0.8457016350, 0.2260455940
3421, 0.1426248550, 0.3510227800
3422, 0.8482297660, 0.2797385450
3423, 0.3924842180, 0.1482924220
3424, 0.7749126550, 0.8546771410
3425, 0.7707053420, 0.1474726500
3426, 0.6778023840, 0.8652319910
3427, 0.3915482760, 0.8606898780
3428, 0.0344797559, 0.8614453670
3429, 0.2622729240, 0.8333407640
3430, 0.1384382550, 0.7841993570
3431, 0.1338098790, 0.8208222990
3432, 0.2306424680, 0.8436646460
3433, 0.6616835590, 0.1418772040
3434, 0.1548871850, 0.8323726650
3435, 0.4360946120, 0.6873275040
3436, 0.2219157370, 0.3392287190
3437, 0.1832025650, 0.1438478530
3438, 0.6790891290, 0.7451534870
3439, 0.5590014460, 0.2617888450
3440, 0.7382692100, 0.7027918100
3441, 0.8070086840, 0.1488252280
3442, 0.2517558340, 0.3610062600
3443, 0.1519860330, 0.2965033950
3444, 0.8516945840, 0.1424708810
3445, 0.3257026670, 0.3501021270
3446, 0.4771395330, 0.3243040140
3447, 0.5575177070, 0.8375991580
3448, 0.2017634210, 0.3652997910
3449, 0.1484563050, 0.1835623830
3450, 0.1787507830, 0.8413171770
3451, 0.6880983110, 0.1594839840
3452, 0.2295715360, 0.1414852590
3453, 0.7270036940, 0.7189955710
3454, 0.7800223230, 0.7299425600
3455, 0.2254864570, 0.6569778320
3456, 0.6361055970, 0.2712464930
3457, 0.5969977970, 0.2484446760
3458, 0.3784086110, 0.6832228900
3459, 0.1269345730, 0.8055571320
3460, 0.1576977370, 0.2218719270
3461, 0.5874234440, 0.7231907250
3462, 0.6396293640, 0.7385166880
3463, 0.8585401770, 0.8317850230
3464, 0.7412797810, 0.3076532190
3465, 0.4663721620, 0.1449908170
3466, 0.8346110580, 0.3136701880
3467, 0.8018553260, 0.0863737538
3468, 0.7656404970, 0.8545379040
3469, 0.5647884610, 0.7255242470
3470, 0.8153110740, 0.7387248280
3471, 0.4838613270, 0.7214630840
3472, 0.2179933340, 0.8454892040
3473, 0.6939330700, 0.2739096580
3474, 0.8407359120, 0.7507272960
3475, 0.4729817510, 0.7040305140
3476, 0.5336624980, 0.2598333360
3477, 0.6970685720, 0.1443568020
3478, 0.3031035360, 0.3434691730
3479, 0.1250173300, 0.1060051320
3480, 0.3565713760, 0.1572411660
3481, 0.6019236450, 0.7335689660
3482, 0.4480568170, 0.8453720810
3483, 0.4764534830, 0.3670746090
3484, 0.5581889750, 0.1653942170
3485, 0.8408751490, 0.1884765480
3486, 0.1503021720, 0.1476856320
3487, 0.1382072720, 0.2609402240
3488, 0.6218500140, 0.1630043690
3489, 0.6540681720, 0.1583923400
3490, 0.0729332641, 0.8257048130
3491, 0.5088561180, 0.7306202650
3492, 0.7677043680, 0.3406126200
3493, 0.1494758870, 0.7643214460
3494, 0.3568977120, 0.8414701220
3495, 0.2699082490, 0.1457653790
3496, 0.5248400570, 0.8474456670
3497, 0.3047072290, 0.6574028730
3498, 0.3163675070, 0.8303128480
3499, 0.8448765280, 0.8534980420
3500, 0.3663726450, 0.6660910250
3501, 0.1431236710, 0.1341085280
3502, 0.7227348090, 0.1677436830
3503, 0.6170611380, 0.7457734940
3504, 0.8103987570, 0.1264598520
3505, 0.2468241300, 0.1522379670
3506, 0.4543572070, 0.1297374220
3507, 0.6400758030, 0.2875397500
3508, 0.2810092270, 0.6501673460
3509, 0.1435234100, 0.7993537780
3510, 0.2760799530, 0.1688503030
3511, 0.7574451570, 0.8419831400
3512, 0.4807006120, 0.8270463350
3513, 0.8462803960, 0.8357030150
3514, 0.8395672440, 0.7715669870
3515, 0.4466206130, 0.6876742840
3516, 0.5218040940, 0.2459467950
3517, 0.7780538800, 0.1651047320
3518, 0.6584276560, 0.2799564600
3519, 0.4865849610, 0.8130987290
3520, 0.8020631070, 0.7512556910
3521, 0.8305144910, 0.2327038650
3522, 0.4819419980, 0.1534117160
3523, 0.6040496230, 0.8688157200
3524, 0.1675411020, 0.1801895950
3525, 0.5138421650, 0.1424747560
3526, 0.3963406980, 0.3225358130
3527, 0.4182749990, 0.3110817070
3528, 0.6966151600, 0.7317706350
3529, 0.1768328990, 0.6425767540
3530, 0.7557237150, 0.3063761590
3531, 0.5260232690, 0.1590823230
3532, 0.6575095060, 0.3371200260
3533, 0.1802229140, 0.3655276300
3534, 0.8258821960, 0.0953007191
3535, 0.3677954380, 0.1665585490
3536, 0.7964702840, 0.8493351340
3537, 0.7758471370, 0.8423242570
3538, 0.1687175630, 0.6823723320
3539, 0.1583304850, 0.3632404800
3540, 0.7234212760, 0.2643614710
3541, 0.8318295480, 0.7595639820
3542, 0.8544962410, 0.1580727550
3543, 0.4127788250, 0.8646051880
3544, 0.8191011550, 0.1399749220
3545, 0.3482149240, 0.6967583300
3546, 0.2045855820, 0.1578216850
3547, 0.6539396640, 0.8565850260
3548, 0.4069075580, 0.1808215980
3549, 0.4334324000, 0.8325273390
3550, 0.8175796270, 0.3174017070
3551, 0.3991976080, 0.8743328450
3552, 0.2778729800, 0.6693912150
3553, 0.5667521950, 0.1804528530
3554, 0.1576899140, 0.1080366520
3555, 0.1545789840, 0.2806400660
3556, 0.6026721600, 0.1751328260
3557, 0.4962351920, 0.7260850070
3558, 0.5877651570, 0.8556182380
3559, 0.6763364080, 0.2713181970
3560, 0.6471723910, 0.1744628250
3561, 0.5209647420, 0.2716076080
3562, 0.6821486350, 0.7699114680
3563, 0.4987807870, 0.8178244830
3564, 0.7338393330, 0.1806606350
3565, 0.2920328970, 0.8225181700
3566, 0.1649592970, 0.1462443320
3567, 0.3120539780, 0.6755850320
3568, 0.4421613220, 0.1716024880
3569, 0.5967811940, 0.7656286360
3570, 0.3518026170, 0.8195597530
3571, 0.4225944280, 0.8491209150
3572, 0.6645301580, 0.2970131640
3573, 0.1656145600, 0.3164672850
3574, 0.3140982690, 0.3355857130
3575, 0.4705927970, 0.7195059660
3576, 0.6347988840, 0.7698639630
3577, 0.1841850130, 0.2330283670
3578, 0.8299649360, 0.1781783850
3579, 0.1712927220, 0.1981659680
3580, 0.6072098020, 0.2326949830
3581, 0.2942317720, 0.1576272250
3582, 0.5615969900, 0.8188371060
3583, 0.1505070330, 0.3738392590
3584, 0.2643029090, 0.3438384830
3585, 0.7673202750, 0.7432337400
3586, 0.1902441680, 0.3551383610
3587, 0.3876549600, 0.1697082070
3588, 0.7566734550, 0.1591189950
3589, 0.8248228430, 0.2681685390
3590, 0.7423484330, 0.2704587280
3591, 0.3873592020, 0.7228939530
3592, 0.8427606230, 0.2634017170
3593, 0.7226526140, 0.7427880760
3594, 0.1623797120, 0.7322968840
3595, 0.8432630300, 0.8051787610
3596, 0.1488603200, 0.8153983350
3597, 0.2313745320, 0.8277741670
3598, 0.7651497720, 0.3215466140
3599, 0.3593459430, 0.7078267930
3600, 0.6796147230, 0.1751046930
3601, 0.1841456890, 0.8158715960
3602, 0.8429547550, 0.1571409850
3603, 0.5706093910, 0.7473311420
3604, 0.3520312010, 0.3364006280
3605, 0.2660975460, 0.8184553380
3606, 0.2349310370, 0.1777296510
3607, 0.2175564020, 0.6742451790
3608, 0.8267496230, 0.8821909430
3609, 0.2670211200, 0.6605514880
3610, 0.6804034110, 0.8426141140
3611, 0.5220677260, 0.7364538910
3612, 0.1328138710, 0.3063624200
3613, 0.2311436830, 0.3244747520
3614, 0.5591589810, 0.2339998480
3615, 0.7802183630, 0.8302864430
3616, 0.8337976930, 0.7927810550
3617, 0.3125807050, 0.1697798820
3618, 0.2041797790, 0.1746692060
3619, 0.4275776740, 0.6964913610
3620, 0.3019540910, 0.1861955670
3621, 0.6033204790, 0.8543667790
3622, 0.7690045240, 0.3092418310
3623, 0.7812750940, 0.3107053640
3624, 0.7994664310, 0.8293196560
3625, 0.5223367810, 0.1721711900
3626, 0.7658562660, 0.1737628880
3627, 0.1891854110, 0.1937169730
3628, 0.3987407090, 0.3086494210
3629, 0.4681492450, 0.8186095950
3630, 0.3832271400, 0.3370530610
3631, 0.4440487920, 0.7013995650
3632, 0.8152408000, 0.2373957190
3633, 0.3887093960, 0.8237243290
3634, 0.1814811080, 0.3353407380
3635, 0.1846348350, 0.6872847080
3636, 0.8182762270, 0.8357528450
3637, 0.7872362730, 0.7682121990
3638, 0.8473147750, 0.7844989900
3639, 0.1615894140, 0.7598996760
3640, 0.2755093280, 0.3224024470
3641, 0.8162552120, 0.7506497500
3642, 0.7663522960, 0.8407642250
3643, 0.5882353780, 0.1844318210
3644, 0.6177472470, 0.1773682980
3645, 0.6351932290, 0.8496977090
3646, 0.1819638310, 0.3856573700
3647, 0.1849654760, 0.1601386220
3648, 0.2782641650, 0.1872659920
3649, 0.6309325100, 0.2565241750
3650, 0.4460411670, 0.8199204800
3651, 0.5337414740, 0.2327071880
3652, 0.7544053790, 0.1830837130
3653, 0.4222491680, 0.1816724540
3654, 0.6593570710, 0.1831584420
3655, 0.6295986180, 0.1816306110
3656, 0.6947901250, 0.2626052800
3657, 0.4806458950, 0.7335564490
3658, 0.6424774530, 0.8344066740
3659, 0.5013021830, 0.8055443760
3660, 0.2789892850, 0.8173553940
3661, 0.3795181510, 0.7364813090
3662, 0.5213639140, 0.7691095470
3663, 0.3370952610, 0.6833165290
3664, 0.5951701400, 0.2221947760
3665, 0.5414904360, 0.7643871900
3666, 0.3141139450, 0.3149757980
3667, 0.2463584990, 0.1817163830
3668, 0.8109709620, 0.2876893880
3669, 0.3648169640, 0.7289412620
3670, 0.7589339610, 0.2803100940
3671, 0.2557110790, 0.8151668910
3672, 0.5451212530, 0.8131674530
3673, 0.5719413760, 0.2212731540
3674, 0.3431332410, 0.3146553640
3675, 0.1636965870, 0.8094007970
3676, 0.2393181770, 0.3100047410
3677, 0.6100097890, 0.7722500560
3678, 0.6812897320, 0.8218265180
3679, 0.2164165530, 0.8083018060
3680, 0.2151902170, 0.3138806220
3681, 0.7006943820, 0.8459926250
3682, 0.2456944290, 0.8129459620
3683, 0.2026096580, 0.8132014870
3684, 0.8031414150, 0.2564958930
3685, 0.1775655750, 0.7045556900
3686, 0.4974413810, 0.2729951440
3687, 0.6715525390, 0.1915759740
3688, 0.1940902170, 0.2096476260
3689, 0.2947333460, 0.6811336280
3690, 0.5687034130, 0.8029212950
3691, 0.4536450510, 0.2982597050
3692, 0.4778143170, 0.1702669260
3693, 0.1764511020, 0.7488266230
3694, 0.8330250380, 0.8617172240
3695, 0.6917749050, 0.1835766730
3696, 0.8166792990, 0.1595883370
3697, 0.1657809910, 0.3914799090
3698, 0.1961055700, 0.2484928370
3699, 0.5882297160, 0.7799655800
3700, 0.3292348980, 0.8216572400
3701, 0.1876891260, 0.6607052680
3702, 0.2202213110, 0.1873237040
3703, 0.8124971390, 0.2077266870
3704, 0.5271449690, 0.8336021900
3705, 0.7127059700, 0.1799698620
3706, 0.3863012790, 0.8468560580
3707, 0.3613437710, 0.8063238860
3708, 0.3401834960, 0.8095127940
3709, 0.8270868060, 0.1526274980
3710, 0.4173779490, 0.8152027730
3711, 0.8323212860, 0.2988073830
3712, 0.2641823590, 0.1811913850
3713, 0.2234527770, 0.1593276410
3714, 0.5092929010, 0.2362374510
3715, 0.2574906650, 0.6971044540
3716, 0.6942465310, 0.7808854580
3717, 0.3920094670, 0.1844095740
3718, 0.1796659080, 0.1107438500
3719, 0.7942318920, 0.1607766450
3720, 0.8188200000, 0.7649030690
3721, 0.7300724390, 0.7634993200
3722, 0.5460330840, 0.1772171710
3723, 0.8376983400, 0.2112104150
3724, 0.1719401480, 0.6928477880
3725, 0.7372832300, 0.2569009070
3726, 0.6925845740, 0.7422220110
3727, 0.1756859120, 0.2708147760
3728, 0.8118569250, 0.8184631470
3729, 0.4252370000, 0.7147737740
3730, 0.3614403310, 0.1786833550
3731, 0.5528172850, 0.1920181660
3732, 0.8253670930, 0.8491926190
3733, 0.1863794920, 0.1769738790
3734, 0.7238457800, 0.1911564920
3735, 0.1864203510, 0.6714228390
3736, 0.6503859160, 0.1993359480
3737, 0.3435618880, 0.1748528480
3738, 0.6063227060, 0.1916871070
3739, 0.5242747070, 0.8041380640
3740, 0.1918123220, 0.7000554200
3741, 0.3192150590, 0.8098879460
3742, 0.2980334160, 0.6993882660
3743, 0.4914109710, 0.8015359040
3744, 0.7630445360, 0.1938667450
3745, 0.5310501460, 0.1739460830
3746, 0.3836609720, 0.3211577530
3747, 0.3307664990, 0.1582710740
3748, 0.8240224120, 0.2190185340
3749, 0.7312815190, 0.8346695900
3750, 0.1732833680, 0.7683665750
3751, 0.7888383870, 0.8193877940
3752, 0.7659643290, 0.8235254880
3753, 0.3118058740, 0.1946094480
3754, 0.3732596040, 0.7503929730
3755, 0.7445533280, 0.1943371440
3756, 0.2077891980, 0.6918701530
3757, 0.2555036250, 0.3174049260
3758, 0.2936004700, 0.3111376460
3759, 0.5340800290, 0.7767933610
3760, 0.4372842910, 0.3017150460
3761, 0.4648388030, 0.3107036650
3762, 0.2325524240, 0.1891077310
3763, 0.4949108060, 0.1773734090
3764, 0.6840516330, 0.1979799270
3765, 0.4074298140, 0.1965101060
3766, 0.6863268020, 0.2562087180
3767, 0.6181330080, 0.2168238160
3768, 0.7699711920, 0.7538279290
3769, 0.3563657700, 0.3178931770
3770, 0.6672338250, 0.7922210690
3771, 0.6633431910, 0.8184544440
3772, 0.2324531380, 0.8117539880
3773, 0.8070250750, 0.7886983160
3774, 0.5469523670, 0.2190413920
3775, 0.2996626790, 0.8106000420
3776, 0.7312337760, 0.2416073080
3777, 0.5089876650, 0.2846503850
3778, 0.8169756530, 0.1744983790
3779, 0.7923119070, 0.1930422930
3780, 0.1934642340, 0.8025870920
3781, 0.2762065830, 0.7033205030
3782, 0.2056699540, 0.1898663790
3783, 0.3969166870, 0.8080055710
3784, 0.1866188050, 0.3175166250
3785, 0.2012627120, 0.2244585010
3786, 0.4872208830, 0.2509233950
3787, 0.1797371210, 0.7333872320
3788, 0.6038190720, 0.7851719260
3789, 0.3494507370, 0.7968723770
3790, 0.4557513000, 0.7342448830
3791, 0.7188755870, 0.7730319500
3792, 0.1869278400, 0.2915611570
3793, 0.7434151170, 0.7660228610
3794, 0.4894544780, 0.2279922960
3795, 0.3025414050, 0.2056627870
3796, 0.1827942430, 0.2587567270
3797, 0.7512888310, 0.8328416940
3798, 0.7990180850, 0.2406258880
3799, 0.3516596260, 0.7186038490
3800, 0.4862826470, 0.2856765690
3801, 0.1554372610, 0.7781550880
3802, 0.6264478560, 0.8192391990
3803, 0.5129058960, 0.1822762640
3804, 0.4107670490, 0.6956847310
3805, 0.7760092020, 0.1899473070
3806, 0.5614519120, 0.2067054810
3807, 0.6450216770, 0.2488207670
3808, 0.3311869500, 0.3109322790
3809, 0.7751416560, 0.2962019740
3810, 0.8035497070, 0.7682323460
3811, 0.7902737860, 0.2760241930
3812, 0.2684074340, 0.2034809590
3813, 0.4369483890, 0.1866498290
3814, 0.6049175860, 0.2102939490
3815, 0.6187318560, 0.8525932430
3816, 0.2124600260, 0.7096511130
3817, 0.5900036100, 0.8256247640
3818, 0.4363162820, 0.8054922820
3819, 0.6510674360, 0.7856761810
3820, 0.6979826090, 0.8020156620
3821, 0.2247233840, 0.3000524640
3822, 0.7712012530, 0.2629283370
3823, 0.3808987440, 0.8020958300
3824, 0.5566158890, 0.7958524820
3825, 0.5201579330, 0.2199430760
3826, 0.5751740930, 0.7692967060
3827, 0.7416788340, 0.8209740520
3828, 0.4410557450, 0.7499892710
3829, 0.4138160940, 0.2805874650
3830, 0.3038657900, 0.2889123560
3831, 0.7713520530, 0.7685558800
3832, 0.1756543670, 0.8052247760
3833, 0.2585306470, 0.3010411260
3834, 0.7567607160, 0.7677994370
3835, 0.2255440210, 0.7926985620
3836, 0.3865231280, 0.3053783180
3837, 0.3175869580, 0.7889005540
3838, 0.3324465160, 0.7204766270
3839, 0.2084856780, 0.2629763780
3840, 0.2602298260, 0.8014861350
3841, 0.4391211870, 0.2877871390
3842, 0.4135203360, 0.3019921480
3843, 0.6776300670, 0.2450000940
3844, 0.6106632950, 0.8199089770
3845, 0.7845850590, 0.8005183340
3846, 0.7298530940, 0.8109116550
3847, 0.7290884260, 0.7765780090
3848, 0.6961191890, 0.2054877430
3849, 0.4760819080, 0.8062263730
3850, 0.5268635750, 0.7870948310
3851, 0.4052001540, 0.7327078580
3852, 0.4823156890, 0.7925519350
3853, 0.1799668820, 0.7889078860
3854, 0.5540534260, 0.7729806900
3855, 0.7740143540, 0.2790476980
3856, 0.3561038370, 0.7642105820
3857, 0.4857240020, 0.3089265820
3858, 0.3127984110, 0.2162731740
3859, 0.7094477420, 0.2367236470
3860, 0.6394606230, 0.1896163370
3861, 0.2730484010, 0.2997241320
3862, 0.3464089330, 0.2981470230
3863, 0.1921942680, 0.6462561490
3864, 0.7338539360, 0.2037087980
3865, 0.1802205590, 0.3029119670
3866, 0.6389113070, 0.8184011580
3867, 0.5217868690, 0.1842548250
3868, 0.3702212570, 0.3199425940
3869, 0.4752114420, 0.2727282640
3870, 0.2243290390, 0.7272424100
3871, 0.1922617110, 0.7627824540
3872, 0.4508323370, 0.1914956270
3873, 0.3076116740, 0.3031852840
3874, 0.5957301860, 0.1984724100
3875, 0.6575734620, 0.2394834610
3876, 0.3175384100, 0.7167797680
3877, 0.2610735600, 0.2180458310
3878, 0.6793036460, 0.8016667370
3879, 0.5814918280, 0.8082041140
3880, 0.3987335260, 0.7560917740
3881, 0.4338291880, 0.2050467580
3882, 0.7672548290, 0.2467744200
3883, 0.2346613710, 0.2871892450
3884, 0.7981719970, 0.8067556620
3885, 0.7766180630, 0.2092360850
3886, 0.4690338080, 0.2338492570
3887, 0.6381374600, 0.7914042470
3888, 0.3468892570, 0.1978164320
3889, 0.6389176250, 0.2134856880
3890, 0.5176221130, 0.1963510070
3891, 0.4314793050, 0.7873495820
3892, 0.2053424270, 0.7925554510
3893, 0.3186267910, 0.2034423500
3894, 0.2369491010, 0.7966275220
3895, 0.7468059660, 0.2348711040
3896, 0.2503358720, 0.7128100990
3897, 0.8143884540, 0.3026759620
3898, 0.4694911240, 0.7351366880
3899, 0.3453952670, 0.7791338560
3900, 0.6891279220, 0.2358272220
3901, 0.5750812890, 0.1951088460
3902, 0.2239710090, 0.1976464690
3903, 0.3203276400, 0.6962124110
3904, 0.5122949480, 0.8067384360
3905, 0.5998805760, 0.7989559770
3906, 0.2002207490, 0.7361448410
3907, 0.1940401790, 0.2750852700
3908, 0.3978425860, 0.2088994530
3909, 0.3545973300, 0.7447005510
3910, 0.1958368270, 0.6792989970
3911, 0.3818586170, 0.7866070870
3912, 0.6283107400, 0.2261576060
3913, 0.6894848940, 0.2170643660
3914, 0.4937536120, 0.3204520640
3915, 0.2320218090, 0.2077881400
3916, 0.4764539300, 0.2110245530
3917, 0.4040326480, 0.2950496380
3918, 0.6266222600, 0.8050599690
3919, 0.7409330610, 0.2183239010
3920, 0.4894118310, 0.7430992130
3921, 0.2638520600, 0.7188212280
3922, 0.5142512920, 0.7872710230
3923, 0.2314496190, 0.7827971580
3924, 0.2691888210, 0.2820522490
3925, 0.5194854740, 0.7937685250
3926, 0.2529921530, 0.7826117280
3927, 0.3972928820, 0.2751485110
3928, 0.4716816540, 0.7527120710
3929, 0.3770192860, 0.2852175830
3930, 0.4552630480, 0.2300842700
3931, 0.7712297440, 0.7846827510
3932, 0.5009902120, 0.7785633210
3933, 0.2106672820, 0.7694580550
3934, 0.7379014490, 0.7970036270
3935, 0.4583196340, 0.7623275520
3936, 0.5162426230, 0.7800548670
3937, 0.4865975380, 0.1956412350
3938, 0.7240149970, 0.2098706220
3939, 0.6813868880, 0.2247036550
3940, 0.3177857700, 0.2724532780
3941, 0.3711561260, 0.7654020790
3942, 0.7713646890, 0.8002351520
3943, 0.7627180810, 0.2295051520
3944, 0.2981820700, 0.7912502880
3945, 0.2945563200, 0.2314227820
3946, 0.2452012900, 0.7287596460
3947, 0.4463779030, 0.2024429590
3948, 0.4228404460, 0.2183990480
3949, 0.2002936600, 0.3025345500
3950, 0.3629592660, 0.1947185100
3951, 0.3317848440, 0.2798163000
3952, 0.4140702490, 0.7710688710
3953, 0.2218534500, 0.2758848070
3954, 0.2466869500, 0.2757927180
3955, 0.3030209540, 0.7347090240
3956, 0.4492515330, 0.1593488310
3957, 0.1492643510, 0.3111525770
3958, 0.4062942270, 0.2269305440
3959, 0.7174769640, 0.8013321760
3960, 0.3854802850, 0.7698186040
3961, 0.2390009020, 0.2191844580
3962, 0.6134636400, 0.8035272960
3963, 0.2253467440, 0.2288315300
3964, 0.2282611430, 0.7509223820
3965, 0.7828953860, 0.2435429840
3966, 0.8007981180, 0.3222312030
3967, 0.2090060710, 0.6508889200
3968, 0.3181976380, 0.7330281730
3969, 0.4328613280, 0.2595804330
3970, 0.3408752380, 0.7666471000
3971, 0.2222835270, 0.2517367300
3972, 0.7544335130, 0.8053591250
3973, 0.6493182780, 0.2248174100
3974, 0.3021892310, 0.2729744610
3975, 0.4503521920, 0.2717144490
3976, 0.8115440010, 0.2229685340
3977, 0.2703881860, 0.8067075010
3978, 0.4961140160, 0.7564651970
3979, 0.7791159750, 0.2266646030
3980, 0.3499708180, 0.2204305080
3981, 0.3810856340, 0.2668518420
3982, 0.2728796600, 0.7268911600
3983, 0.4145080750, 0.2640642520
3984, 0.4825206700, 0.7713586690
3985, 0.2741813960, 0.7649481300
3986, 0.2384617030, 0.7675440910
3987, 0.3628040850, 0.2831161020
3988, 0.4284604490, 0.7690160270
3989, 0.2168928980, 0.2164208290
3990, 0.3915005620, 0.2425598060
3991, 0.2346462160, 0.2640550730
3992, 0.4329766630, 0.2312852140
3993, 0.3042736350, 0.7704326510
3994, 0.2503186170, 0.2111009510
3995, 0.2853338420, 0.2772288320
3996, 0.3320392670, 0.7335147260
3997, 0.3250920770, 0.7743801470
3998, 0.3377404210, 0.2388914230
3999, 0.3992253540, 0.7896811370
4000, 0.7078765630, 0.2147334670
4001, 0.1968111690, 0.7779980300
4002, 0.3997154830, 0.7718313340
4003, 0.4639139470, 0.7777766590
4004, 0.6698390250, 0.2304469200
4005, 0.2751562000, 0.2290621400
4006, 0.3015354570, 0.2545177040
4007, 0.4627965390, 0.1636805240
4008, 0.3481466470, 0.2825759350
4009, 0.4640348260, 0.2207975090
4010, 0.3917329010, 0.2574433680
4011, 0.3061995510, 0.7491234540
4012, 0.3499951360, 0.2695961000
4013, 0.2541309890, 0.7642599340
4014, 0.3785870670, 0.2272179280
4015, 0.3925833400, 0.7443088890
4016, 0.2622988520, 0.2646659310
4017, 0.3636630770, 0.2371396720
4018, 0.5153169630, 0.7503744960
4019, 0.3778327700, 0.1899674680
4020, 0.3388241530, 0.2626547810
4021, 0.3198181090, 0.7469214200
4022, 0.4715501960, 0.1861754060
4023, 0.2589917480, 0.2405769380
4024, 0.2693909410, 0.7419072990
4025, 0.4637796280, 0.1997387860
4026, 0.5032652020, 0.7449863550
4027, 0.3506101970, 0.2497492280
4028, 0.4666927750, 0.7959438560
4029, 0.4578932820, 0.8092203740
4030, 0.4636978510, 0.5054580570
4031, 0.4579464790, 0.5084722640
4032, 0.5040519830, 0.4986306730
4033, 0.9809666870, 0.9811728000
4034, 0.0197845232, 0.4798048440
4035, 0.9805421230, 0.0187398344
4036, 0.4750857950, 0.5121737720
4037, 0.5074757930, 0.5029789210
4038, 0.9896152020, 0.5166184310
4039, 0.5037373300, 0.5068405270
4040, 0.9692657590, 0.4312871990
4041, 0.9603652950, 0.2992398740
4042, 0.0382146351, 0.0815822482
4043, 0.4833434520, 0.4950873260
4044, 0.4793573620, 0.4941021800
4045, 0.4772807060, 0.4924007650
4046, 0.9908881780, 0.5470187070
4047, 0.4830461140, 0.5148249270
4048, 0.4919125140, 0.5063361530
4049, 0.5110418800, 0.5041311380
4050, 0.5041010980, 0.5111686590
4051, 0.4261040390, 0.4718825520
4052, 0.8255488870, 0.0376765579
4053, 0.5027218460, 0.4848774670
4054, 0.0385485813, 0.7621452810
4055, 0.4922668040, 0.4922917190
4056, 0.9927518960, 0.5294754510
4057, 0.9926077720, 0.5329641700
4058, 0.4875844120, 0.5063622000
4059, 0.4895011480, 0.5198544860
4060, 0.5107880830, 0.4839993420
4061, 0.4974972310, 0.4774129990
4062, 0.5006858710, 0.4736577270
4063, 0.5049020650, 0.5160130860
4064, 0.5005469320, 0.5178177360
4065, 0.4940645400, 0.5098984240
4066, 0.9583671090, 0.4952211980
4067, 0.4029122890, 0.5471244450
4068, 0.3914506440, 0.5451291200
4069, 0.4924411480, 0.5406215190
4070, 0.0554911196, 0.2093594520
4071, 0.9449528460, 0.4629052880
4072, 0.9315540790, 0.4146876630
4073, 0.9497489330, 0.4918323160
4074, 0.9923229810, 0.5401069520
4075, 0.4945465030, 0.5260777470
4076, 0.5154116750, 0.4796284440
4077, 0.4238684770, 0.5523437260
4078, 0.4882012310, 0.4913437070
4079, 0.0685213208, 0.1691796030
4080, 0.4765891730, 0.4855790730
4081, 0.9876943230, 0.5468602780
4082, 0.4974990490, 0.4720664320
4083, 0.5017079110, 0.5237341520
4084, 0.4965446590, 0.4674014450
4085, 0.0678198710, 0.1139264110
4086, 0.4157516360, 0.4509158130
4087, 0.0988516733, 0.0754828602
4088, 0.0758226737, 0.1545042250
4089, 0.0745072812, 0.1845889690
4090, 0.4365819690, 0.9469421510
4091, 0.6609927420, 0.0694796667
4092, 0.1035401000, 0.8961463570
4093, 0.1383380440, 0.9198850990
4094, 0.0688707232, 0.8447814580
4095, 0.9202264550, 0.2534241380
4096, 0.9262359740, 0.2027204780
4097, 0.3431228700, 0.9286952610
4098, 0.9265964630, 0.4603332280
4099, 0.9430183170, 0.4838589430
4100, 0.9164371490, 0.6266934870
4101, 0.9041121600, 0.7879138590
4102, 0.1628424970, 0.5761750340
4103, 0.9110681410, 0.3994502720
4104, 0.9093105790, 0.3843835000
4105, 0.3983272310, 0.5776732560
4106, 0.9418711660, 0.4896782930
4107, 0.0787918717, 0.1764783710
4108, 0.0993042812, 0.8824997540
4109, 0.9825112220, 0.5476173160
4110, 0.9909534450, 0.5325796010
4111, 0.9904227850, 0.5293911100
4112, 0.3986366390, 0.5618576410
4113, 0.6687105890, 0.0857738554
4114, 0.9805791970, 0.5444643500
4115, 0.4809340240, 0.4810315070
4116, 0.5224670770, 0.5133755210
4117, 0.0924858376, 0.1572511790
4118, 0.0862553641, 0.1685846300
4119, 0.5210735200, 0.4757360520
4120, 0.3715513650, 0.9300662880
4121, 0.9493892190, 0.5087355380
4122, 0.0895226970, 0.6631729010
4123, 0.1130494920, 0.8806029560
4124, 0.1067993120, 0.0840627849
4125, 0.3729446230, 0.6034994720
4126, 0.9153305890, 0.3155287500
4127, 0.3476671870, 0.9147239920
4128, 0.9105551240, 0.8498771790
4129, 0.9223669170, 0.4684265550
4130, 0.2787972690, 0.4062519970
4131, 0.5206651090, 0.5431851740
4132, 0.3855685890, 0.4284919200
4133, 0.9082817440, 0.2184097320
4134, 0.9060878160, 0.1684839870
4135, 0.1472690550, 0.5952075720
4136, 0.9799966220, 0.5414012070
4137, 0.9763629440, 0.5410960910
4138, 0.9883065820, 0.5319516060
4139, 0.5237234230, 0.4822092950
4140, 0.9770559070, 0.5458728080
4141, 0.1003403140, 0.8505356910
4142, 0.1164768110, 0.8525395390
4143, 0.1483031660, 0.0608061031
4144, 0.3743186590, 0.9164706470
4145, 0.3874376420, 0.9192925100
4146, 0.1386770310, 0.3949034210
4147, 0.1498358550, 0.3907884660
4148, 0.1587034610, 0.3833330270
4149, 0.7645013330, 0.9284608960
4150, 0.9372032280, 0.4862217010
4151, 0.5244574550, 0.0805102214
4152, 0.7565940620, 0.0914895758
4153, 0.2939215900, 0.0803658664
4154, 0.2601186630, 0.0722319484
4155, 0.9054527880, 0.1149933340
4156, 0.1379053000, 0.8879435060
4157, 0.9084564450, 0.6783869860
4158, 0.9686047430, 0.5513604280
4159, 0.0861475617, 0.1842684000
4160, 0.2651970680, 0.8799033160
4161, 0.5350503330, 0.1043547540
4162, 0.7097775340, 0.0947998092
4163, 0.4641104940, 0.1176559480
4164, 0.5277825590, 0.4723474980
4165, 0.5249135490, 0.5215727090
4166, 0.9615485070, 0.5213368540
4167, 0.9527445440, 0.5173453090
4168, 0.9119415280, 0.7415159940
4169, 0.5260198120, 0.5363070370
4170, 0.5329770450, 0.5403610470
4171, 0.3247635360, 0.3696582620
4172, 0.7455416920, 0.9032503960
4173, 0.3240889910, 0.8718488220
4174, 0.3515333830, 0.9031279680
4175, 0.3632490930, 0.9031054380
4176, 0.8688461780, 0.7908118960
4177, 0.3204065260, 0.6503373980
4178, 0.7982102040, 0.1355019960
4179, 0.3886071740, 0.4108897750
4180, 0.4041363300, 0.4107871060
4181, 0.4475219250, 0.4290291970
4182, 0.7983335850, 0.8968564870
4183, 0.1248883310, 0.3829240500
4184, 0.1482649740, 0.8734483120
4185, 0.2384984340, 0.8621989490
4186, 0.2520115670, 0.8648995760
4187, 0.1049804390, 0.1525042360
4188, 0.0964874029, 0.1776397680
4189, 0.1156537760, 0.1594937000
4190, 0.0954421908, 0.3234731550
4191, 0.1303275820, 0.8695003390
4192, 0.8902650480, 0.6668990250
4193, 0.1181165280, 0.2607264520
4194, 0.8905913230, 0.1863981340
4195, 0.9346349240, 0.5020007490
4196, 0.9734068510, 0.5477765200
4197, 0.5193276410, 0.5240461830
4198, 0.1454408760, 0.3822062910
4199, 0.3915489610, 0.9048033360
4200, 0.8765375020, 0.3272309600
4201, 0.8661113380, 0.3265139760
4202, 0.8519034980, 0.3269515630
4203, 0.4013512730, 0.5928701160
4204, 0.3730147180, 0.0848043710
4205, 0.1039585550, 0.1308105290
4206, 0.5291912560, 0.4796604510
4207, 0.2898943130, 0.8530400400
4208, 0.3939767780, 0.0856350958
4209, 0.8759981390, 0.7525262240
4210, 0.3536653520, 0.3990359310
4211, 0.5445054770, 0.1255302130
4212, 0.5994265080, 0.1378340570
4213, 0.5855714080, 0.1449306010
4214, 0.1133235470, 0.1771741060
4215, 0.1109645440, 0.7409334180
4216, 0.9457032680, 0.5221575500
4217, 0.3209454420, 0.8433505300
4218, 0.9625786540, 0.5331391100
4219, 0.1198991240, 0.6909127830
4220, 0.2220258560, 0.0840386599
4221, 0.2053271090, 0.0813659132
4222, 0.1140399280, 0.0970468298
4223, 0.9262548090, 0.5057100060
4224, 0.4092119630, 0.6040065880
4225, 0.2976963520, 0.6216963530
4226, 0.8643880490, 0.8112357850
4227, 0.7099233270, 0.1105039860
4228, 0.7579260470, 0.1345466670
4229, 0.3435706500, 0.6583200690
4230, 0.2156005050, 0.8283846970
4231, 0.2576081160, 0.8497807380
4232, 0.3363091950, 0.8687499170
4233, 0.3537750540, 0.8950030210
4234, 0.3619140390, 0.8923616410
4235, 0.3718972800, 0.8873161080
4236, 0.3376988170, 0.3687516450
4237, 0.8529430030, 0.3422509730
4238, 0.1129444910, 0.3698461060
4239, 0.1386168600, 0.3687226770
4240, 0.8577831390, 0.8787770270
4241, 0.7918196320, 0.8814185860
4242, 0.3767775890, 0.3934868870
4243, 0.3675021230, 0.3954514560
4244, 0.3074609640, 0.1188857560
4245, 0.2666898070, 0.1098528580
4246, 0.8612096310, 0.6220510010
4247, 0.8808406590, 0.6758317950
4248, 0.8574098940, 0.6601966020
4249, 0.8696261640, 0.1565484700
4250, 0.4411585030, 0.6287202240
4251, 0.1211624820, 0.8245253560
4252, 0.9241500500, 0.5532832150
4253, 0.9282683730, 0.5484769340
4254, 0.9182789330, 0.5560438630
4255, 0.8200055360, 0.2525898810
4256, 0.3978776040, 0.6363597510
4257, 0.5021802190, 0.6386498210
4258, 0.8917732240, 0.5896691080
4259, 0.8785886170, 0.5962687130
4260, 0.1059599670, 0.3544059690
4261, 0.4841298760, 0.4308373930
4262, 0.5322933790, 0.4807895120
4263, 0.1142343130, 0.3595578370
4264, 0.5056685210, 0.4200171530
4265, 0.5261404510, 0.1300570370
4266, 0.8755931260, 0.6121159200
4267, 0.1692900510, 0.3531838060
4268, 0.8672759530, 0.8401031490
4269, 0.8516799210, 0.8180618880
4270, 0.8696582320, 0.1038895770
4271, 0.8382249470, 0.3443953990
4272, 0.1800799520, 0.3476780950
4273, 0.4292278590, 0.6473757620
4274, 0.3573220070, 0.8843561410
4275, 0.9543898110, 0.5463519100
4276, 0.2055714130, 0.3283093270
4277, 0.6060713530, 0.1509379150
4278, 0.6859896180, 0.9135535360
4279, 0.9457515480, 0.5283439160
4280, 0.9410859350, 0.5292553310
4281, 0.3542579110, 0.3733743130
4282, 0.3486108780, 0.8823965190
4283, 0.3444242180, 0.8817698360
4284, 0.3437540230, 0.8769161110
4285, 0.9247286320, 0.5455454590
4286, 0.1666501020, 0.6370155220
4287, 0.1743784250, 0.0746361464
4288, 0.9080854650, 0.5531927940
4289, 0.8929947020, 0.5618550780
4290, 0.2014923540, 0.0977801457
4291, 0.1840050670, 0.0941948965
4292, 0.7129121420, 0.1221713350
4293, 0.7316745520, 0.1237339080
4294, 0.3524010780, 0.6738003490
4295, 0.4087328910, 0.6544708010
4296, 0.6564143300, 0.9006509780
4297, 0.4511342350, 0.3624466960
4298, 0.8136883970, 0.8557903770
4299, 0.8362869020, 0.8425203560
4300, 0.8437002300, 0.6234302520
4301, 0.8081731200, 0.1688588560
4302, 0.3242052200, 0.3241010010
4303, 0.1411833910, 0.6768257620
4304, 0.1349483280, 0.7086344960
4305, 0.8601663110, 0.6807797550
4306, 0.8072634340, 0.2722767290
4307, 0.3942497670, 0.8922745590
4308, 0.2894085940, 0.8371651170
4309, 0.3031630520, 0.8359540100
4310, 0.1580205410, 0.2636960150
4311, 0.8380627040, 0.6614221330
4312, 0.8852112890, 0.4962573050
4313, 0.5115036960, 0.1574695260
4314, 0.5489547250, 0.5365637540
4315, 0.5511645670, 0.5296843650
4316, 0.7934513690, 0.1784155960
4317, 0.7830131650, 0.1778562220
4318, 0.3777942360, 0.8678838010
4319, 0.5505980250, 0.4259136020
4320, 0.5350836520, 0.4782591760
4321, 0.6106235380, 0.1625334320
4322, 0.5372765060, 0.4813430610
4323, 0.3617171050, 0.3884946700
4324, 0.1181354220, 0.1122506410
4325, 0.8384001260, 0.1460633280
4326, 0.5919332500, 0.8867118950
4327, 0.1525922120, 0.0851771757
4328, 0.1462057380, 0.7487028840
4329, 0.3471670750, 0.8707146640
4330, 0.6901534200, 0.8975125550
4331, 0.9021540880, 0.5501679780
4332, 0.1230688390, 0.7276818160
4333, 0.3533238770, 0.8809120660
4334, 0.3534663020, 0.8753671650
4335, 0.3482994440, 0.8768756390
4336, 0.9220377210, 0.5432474610
4337, 0.3840797540, 0.1343206320
4338, 0.1342308070, 0.3184309900
4339, 0.7106043700, 0.1554158930
4340, 0.3027418850, 0.3243013320
4341, 0.5330645440, 0.3969909250
4342, 0.2838528450, 0.6311939950
4343, 0.5638962980, 0.4371338190
4344, 0.5486005540, 0.4854639470
4345, 0.8402020340, 0.8243736620
4346, 0.8321789500, 0.8127831820
4347, 0.8212630150, 0.8026497960
4348, 0.8256474730, 0.6274589300
4349, 0.8184419870, 0.6014637350
4350, 0.8243659730, 0.1695162800
4351, 0.8178884980, 0.1850757300
4352, 0.8072935340, 0.8424016240
4353, 0.8294535880, 0.8309248690
4354, 0.8064140080, 0.1920817350
4355, 0.3221101460, 0.3079769910
4356, 0.6575410370, 0.8793312310
4357, 0.4480629560, 0.6573026180
4358, 0.4281361100, 0.6699231270
4359, 0.8744674320, 0.4956378640
4360, 0.8566583400, 0.4645051060
4361, 0.3612048630, 0.6879945990
4362, 0.3007217050, 0.7178153400
4363, 0.7338367700, 0.1562211360
4364, 0.5102777480, 0.1721074880
4365, 0.1494981050, 0.7139226200
4366, 0.3013983070, 0.8259072900
4367, 0.3093723650, 0.8190828560
4368, 0.3721458320, 0.8545393940
4369, 0.7216153140, 0.8471754190
4370, 0.1435144990, 0.7307760120
4371, 0.1711729910, 0.2853749100
4372, 0.4880170820, 0.3788414300
4373, 0.3797423840, 0.1570435460
4374, 0.3308669030, 0.2008598000
4375, 0.8037050960, 0.3854741450
4376, 0.7956293230, 0.2246207000
4377, 0.5650946500, 0.5841385720
4378, 0.5563044550, 0.5918338300
4379, 0.3688414690, 0.8441383840
4380, 0.8981247540, 0.5090471510
4381, 0.8911886220, 0.5098378060
4382, 0.5336377020, 0.1846742630
4383, 0.7901758550, 0.8381961580
4384, 0.2918356660, 0.1804828490
4385, 0.1942980890, 0.1262858810
4386, 0.8245701190, 0.8204852940
4387, 0.9198502300, 0.5419721010
4388, 0.9202042220, 0.5392838720
4389, 0.9200526480, 0.5357277390
4390, 0.2934017780, 0.1691687410
4391, 0.4028800730, 0.8547601100
4392, 0.3775129910, 0.8354039190
4393, 0.2765857280, 0.6832726000
4394, 0.4032243190, 0.6637418270
4395, 0.2618927660, 0.1600036620
4396, 0.6789027450, 0.2122533920
4397, 0.7972882390, 0.3069143000
4398, 0.3287376460, 0.7988069650
4399, 0.3086993100, 0.8002554770
4400, 0.7036385540, 0.1927703470
4401, 0.5612691640, 0.4911720160
4402, 0.8804935220, 0.5577509400
4403, 0.8828933840, 0.5525901320
4404, 0.2076331230, 0.7544043660
4405, 0.2575362320, 0.6783525350
4406, 0.5602335330, 0.5449460740
4407, 0.7944971920, 0.3795096280
4408, 0.8740492460, 0.5036519770
4409, 0.8655487900, 0.4974837010
4410, 0.2404353770, 0.7825250630
4411, 0.2663513120, 0.7854602340
4412, 0.2554393110, 0.2879190740
4413, 0.2785472570, 0.7932797070
4414, 0.2910242380, 0.1980965290
4415, 0.3660267590, 0.6991131900
4416, 0.3433465960, 0.7290964720
4417, 0.3927255870, 0.7071734670
4418, 0.5513858200, 0.6805267930
4419, 0.2874329690, 0.7388941050
4420, 0.7108039260, 0.8352765440
4421, 0.7204594610, 0.8236540560
4422, 0.5065866710, 0.1899367270
4423, 0.7971276040, 0.5954632160
4424, 0.8153961900, 0.6444016700
4425, 0.6165379880, 0.1897555440
4426, 0.6275693180, 0.2037210320
4427, 0.3329564330, 0.2965765890
4428, 0.3733136060, 0.3026135560
4429, 0.4909028710, 0.6903524400
4430, 0.3682739140, 0.2116561530
4431, 0.5772876140, 0.5936310290
4432, 0.5467396380, 0.5969336630
4433, 0.5514311190, 0.3805580140
4434, 0.3739603460, 0.8147286770
4435, 0.5608974100, 0.5394049880
4436, 0.3945522610, 0.3344673810
4437, 0.9160665270, 0.5430696010
4438, 0.8922712210, 0.5139659640
4439, 0.8895873430, 0.5164417620
4440, 0.8880828020, 0.5200305580
4441, 0.5619428160, 0.5133741500
4442, 0.5662064550, 0.5173205140
4443, 0.8840933440, 0.5486447220
4444, 0.1765505370, 0.6754556300
4445, 0.2218163010, 0.7654257420
4446, 0.6253271700, 0.8848130110
4447, 0.8713158970, 0.5655159350
4448, 0.8674460650, 0.5605809690
4449, 0.8792635800, 0.5499008300
4450, 0.3178415600, 0.2855206430
4451, 0.5681998130, 0.4590844210
4452, 0.5716321470, 0.4671918150
4453, 0.6993838550, 0.2260604050
4454, 0.5689120290, 0.4775389730
4455, 0.3066593710, 0.7835164670
4456, 0.7777283790, 0.8115195040
4457, 0.5357850790, 0.7081080080
4458, 0.2356929030, 0.2409331950
4459, 0.2473016530, 0.2526381610
4460, 0.1640357970, 0.7182235120
4461, 0.1799868050, 0.7185563450
4462, 0.7926448580, 0.4123899040
4463, 0.3723653550, 0.7156586050
4464, 0.4332729580, 0.3183922170
4465, 0.4447754920, 0.3098240200
4466, 0.5702427630, 0.4926052390
4467, 0.5663619640, 0.5407626030
4468, 0.5700936910, 0.5325796010
4469, 0.9078295830, 0.5334242580
4470, 0.8957173230, 0.5287662150
4471, 0.7668883200, 0.3901326360
4472, 0.7421144250, 0.7811083790
4473, 0.7774518130, 0.3503687380
4474, 0.2537150680, 0.1722441020
4475, 0.3948524300, 0.1982791420
4476, 0.2271762940, 0.7743246560
4477, 0.2885505260, 0.7798259260
4478, 0.6907349820, 0.8336303230
4479, 0.7092498540, 0.8128088710
4480, 0.7243885990, 0.7895087000
4481, 0.5717233420, 0.2486322220
4482, 0.6090027690, 0.4090117510
4483, 0.5963356490, 0.6583434940
4484, 0.5878878830, 0.8403792380
4485, 0.6023198960, 0.8402014370
4486, 0.5517327190, 0.3639362160
4487, 0.5676179530, 0.3628796040
4488, 0.5963467960, 0.6378952860
4489, 0.7564730050, 0.2659343180
4490, 0.2973291580, 0.2168342770
4491, 0.3912397030, 0.2897103430
4492, 0.8329653140, 0.5548434260
4493, 0.3582544330, 0.7827565670
4494, 0.2446610930, 0.6909842490
4495, 0.6378861670, 0.2359152290
4496, 0.8602248430, 0.5116226670
4497, 0.5149186850, 0.7158073780
4498, 0.4751071330, 0.2978246210
4499, 0.3272541760, 0.2308553900
4500, 0.3117596210, 0.2363196310
4501, 0.8691985010, 0.5518394110
4502, 0.8971570130, 0.5339965820
4503, 0.4280698000, 0.3061245980
4504, 0.2227497250, 0.6979930400
4505, 0.2316126530, 0.6818611620
4506, 0.5700330730, 0.5134553910
4507, 0.5710036750, 0.5471706390
4508, 0.7915355560, 0.6288308500
4509, 0.8764374260, 0.5467771290
4510, 0.8790851240, 0.5440334080
4511, 0.3108713330, 0.7594354150
4512, 0.3223525290, 0.7585898640
4513, 0.7229526640, 0.2246682790
4514, 0.6118032930, 0.2025727780
4515, 0.6181387310, 0.1986100970
4516, 0.6688342090, 0.8504324560
4517, 0.6975145940, 0.2462425530
4518, 0.4440656300, 0.2198962270
4519, 0.2667852940, 0.2501874860
4520, 0.2791429460, 0.2465788570
4521, 0.5783864860, 0.4798198640
4522, 0.5774542690, 0.5310609940
4523, 0.6289466020, 0.8347921970
4524, 0.5428360700, 0.7298755650
4525, 0.6517329810, 0.2638758120
4526, 0.7673054340, 0.6152113080
4527, 0.7562441230, 0.7527662520
4528, 0.7568254470, 0.7391322850
4529, 0.7710636850, 0.6746709350
4530, 0.8932780030, 0.5359027980
4531, 0.4240615070, 0.7327479120
4532, 0.7567378880, 0.3513571020
4533, 0.4258792100, 0.7509049180
4534, 0.5762844680, 0.8228225710
4535, 0.5275502200, 0.8176214100
4536, 0.6008374090, 0.8286238910
4537, 0.8409360050, 0.4972740110
4538, 0.8196269870, 0.4897758960
4539, 0.3908371930, 0.2171258480
4540, 0.4567257170, 0.7183160190
4541, 0.4415174420, 0.7168736460
4542, 0.6286359430, 0.2444078920
4543, 0.5825913550, 0.3439640100
4544, 0.5266079900, 0.3400750760
4545, 0.4155894820, 0.7906815410
4546, 0.5111650230, 0.8342201710
4547, 0.6719594600, 0.8301725390
4548, 0.6898878220, 0.8123313190
4549, 0.7125574350, 0.7810381050
4550, 0.5717045660, 0.2767317590
4551, 0.2917464080, 0.2439728680
4552, 0.6182194950, 0.6393017170
4553, 0.4654092190, 0.2547222080
4554, 0.8407631520, 0.5506908890
4555, 0.6068595050, 0.4306601290
4556, 0.4474055470, 0.7825362680
4557, 0.7567660210, 0.5811714530
4558, 0.6197614070, 0.6591544150
4559, 0.7148275970, 0.7599462270
4560, 0.6038618680, 0.6101891990
4561, 0.4165075720, 0.2093764540
4562, 0.8712482450, 0.5450850130
4563, 0.8116123680, 0.4916943010
4564, 0.8769376870, 0.5416677000
4565, 0.5763455630, 0.5138886570
4566, 0.7595719700, 0.3670989570
4567, 0.5192027690, 0.3245971800
4568, 0.8814644810, 0.5289635660
4569, 0.5568721890, 0.7383800750
4570, 0.5491148230, 0.7514585260
4571, 0.3700297180, 0.7780733110
4572, 0.2574709950, 0.7321251030
4573, 0.7049126030, 0.2574802940
4574, 0.4404310290, 0.7333856230
4575, 0.7470540400, 0.2806108000
4576, 0.7296193240, 0.2782949510
4577, 0.6181898710, 0.2075563370
4578, 0.4288140540, 0.2760802810
4579, 0.7739610080, 0.7373352050
4580, 0.5801104310, 0.5380942820
4581, 0.3746492860, 0.2513245940
4582, 0.4070576130, 0.2103753830
4583, 0.5850024220, 0.5297857520
4584, 0.8784741160, 0.5398837330
4585, 0.7402642370, 0.7331877950
4586, 0.7321835160, 0.7524443860
4587, 0.7514408830, 0.7180384990
4588, 0.6531585450, 0.8426554200
4589, 0.6545262340, 0.8264067770
4590, 0.6718695160, 0.8111196160
4591, 0.6864889860, 0.7914626000
4592, 0.7028281090, 0.7705444690
4593, 0.4022158380, 0.2624379400
4594, 0.6402754780, 0.6396267410
4595, 0.4434688990, 0.7661486270
4596, 0.8460448380, 0.5441192390
4597, 0.7592828870, 0.6437186000
4598, 0.7600696680, 0.6234830020
4599, 0.4866327350, 0.2656136160
4600, 0.8325271610, 0.4997596740
4601, 0.5951897500, 0.8128353950
4602, 0.5124017000, 0.8192995190
4603, 0.6258740430, 0.5932813880
4604, 0.5789932010, 0.7350309490
4605, 0.6213326450, 0.6793999670
4606, 0.7946999670, 0.5601528290
4607, 0.5295729040, 0.3100283740
4608, 0.8761648540, 0.5387828350
4609, 0.6484271880, 0.8169419770
4610, 0.7093601820, 0.2712253330
4611, 0.5905660990, 0.4880325500
4612, 0.5942513940, 0.4934798180
4613, 0.4076171820, 0.2518681290
4614, 0.8566499350, 0.5351641770
4615, 0.5623508100, 0.7601693870
4616, 0.7418600920, 0.6475289460
4617, 0.6636547450, 0.8025873300
4618, 0.6739121680, 0.7812975650
4619, 0.6219100950, 0.2751151920
4620, 0.7262906430, 0.2972589430
4621, 0.7018381360, 0.7504730820
4622, 0.7087492940, 0.7389394040
4623, 0.8294611570, 0.5348776580
4624, 0.8258979320, 0.5052317980
4625, 0.8147271280, 0.5060778260
4626, 0.6465657350, 0.5965313910
4627, 0.8487304450, 0.5371273760
4628, 0.5454717280, 0.7862393260
4629, 0.8165252210, 0.5453203320
4630, 0.5965924260, 0.5122210380
4631, 0.7804669740, 0.4865902360
4632, 0.7351171970, 0.4250164930
4633, 0.5838946700, 0.7567519550
4634, 0.6183960440, 0.7097347380
4635, 0.5868482590, 0.7948856350
4636, 0.6393018960, 0.8048877720
4637, 0.6556117530, 0.6705055830
4638, 0.7088297010, 0.3080035750
4639, 0.5658748150, 0.7816612120
4640, 0.7564111950, 0.4779914620
4641, 0.8523910050, 0.5361886020
4642, 0.7485564350, 0.4516797660
4643, 0.6545542480, 0.6200050120
4644, 0.6689053770, 0.6259026530
4645, 0.8305560350, 0.5050379630
4646, 0.7234979270, 0.6193915010
4647, 0.6000421050, 0.5185116530
4648, 0.8073387740, 0.5016049150
4649, 0.7988790270, 0.4994477930
4650, 0.6897575860, 0.3045584860
4651, 0.6048834920, 0.7544787530
4652, 0.5960616470, 0.4839167890
4653, 0.6275185940, 0.7926833630
4654, 0.8041229840, 0.5445088150
4655, 0.8093719480, 0.5427293780
4656, 0.7144831420, 0.4258756040
4657, 0.6605424280, 0.7723117470
4658, 0.6687369350, 0.7589645390
4659, 0.7706394200, 0.4953013660
4660, 0.7404529450, 0.4761719410
4661, 0.7331777220, 0.4681200980
4662, 0.6706013080, 0.3670090140
4663, 0.7155196070, 0.6707348230
4664, 0.6404323580, 0.5707465410
4665, 0.7729087470, 0.5424088240
4666, 0.6544836160, 0.6919510360
4667, 0.6982811090, 0.6324719190
4668, 0.6664158700, 0.5974608060
4669, 0.8265761140, 0.5114277010
4670, 0.8103247880, 0.5128269200
4671, 0.6865316030, 0.3510686160
4672, 0.5031929020, 0.7957689760
4673, 0.4945059720, 0.7916458250
4674, 0.7947796580, 0.5029883380
4675, 0.6310798530, 0.7831263540
4676, 0.6363558770, 0.4629544620
4677, 0.5075098870, 0.7892969850
4678, 0.8062321540, 0.5132496360
4679, 0.6890261770, 0.6012364630
4680, 0.7860583070, 0.5355998280
4681, 0.7062248590, 0.6854583620
4682, 0.6880099770, 0.7107353210
4683, 0.8205103280, 0.5183047650
4684, 0.8036290410, 0.5394173860
4685, 0.6490934490, 0.7639327050
4686, 0.7415258290, 0.4976753000
4687, 0.6564700010, 0.5727789400
4688, 0.6688334350, 0.7228227260
4689, 0.6223781700, 0.7787585260
4690, 0.6350266930, 0.7510063650
4691, 0.8142181040, 0.5256052020
4692, 0.7843270300, 0.5320614580
4693, 0.6198465820, 0.5203617810
4694, 0.6474263670, 0.7264147400
4695, 0.6203483940, 0.5369234680
4696, 0.7401704790, 0.5285842420
4697, 0.6465068460, 0.5456494090
4698, 0.6448876260, 0.5385064480
4699, 0.8071412440, 0.5273162720
4700, 0.8026220800, 0.5282510520
4701, 0.7686394450, 0.5233921410
4702, 0.7862894540, 0.5287826060
4703, 0.8003482220, 0.5323520300
4704, 0.7386788130, 0.5213169460
4705, 0.7939569350, 0.5222544670
4706, 0.6248894330, 0.5224740510
4707, 0.6275453570, 0.5171681640
4708, 0.7233295440, 0.5206255320
4709, 0.6365016700, 0.5161520240
4710, 0.6290029290, 0.5256752970
4711, 0.6324636940, 0.5281729700
4712, 0.6366269590, 0.5259520410
4713, 0.7099894880, 0.5307403800
4714, 0.7070229050, 0.5158637170
4715, 0.6587799790, 0.4981162250
4716, 0.6449429990, 0.5146699550
4717, 0.6856117840, 0.5304290060
4718, 0.6711027620, 0.5409269930
4719, 0.6777647730, 0.5293464660
4720, 0.4979097250, 0.5000000000
4721, 0.4958298210, 0.5000000000
4722, 0.4937602280, 0.5000000000
4723, 0.4917008580, 0.5000000000
4724, 0.4896517100, 0.5000000000
4725, 0.4876127240, 0.5000000000
4726, 0.4855838420, 0.5000000000
4727, 0.4835622910, 0.5000000000
4728, 0.4814732670, 0.5000000000
4729, 0.4792397020, 0.5000000000
4730, 0.4767374990, 0.5000000000
4731, 0.4737042490, 0.5000000000
4732, 0.4699081780, 0.5000000000
4733, 0.4651494030, 0.5000000000
4734, 0.4588881130, 0.5000000000
4735, 0.4499965910, 0.5000000000
4736, 0.4393213990, 0.5000000000
4737, 0.4267466960, 0.5000000000
4738, 0.4113177660, 0.5000000000
4739, 0.3937459290, 0.5000000000
4740, 0.3749905230, 0.5000000000
4741, 0.3558882770, 0.5000000000
4742, 0.3364792470, 0.5000000000
4743, 0.3168702130, 0.5000000000
4744, 0.2970779840, 0.5000000000
4745, 0.2772181030, 0.5000000000
4746, 0.2573483590, 0.5000000000
4747, 0.2374887470, 0.5000000000
4748, 0.2176562850, 0.5000000000
4749, 0.1978976730, 0.5000000000
4750, 0.1782194670, 0.5000000000
4751, 0.1585648950, 0.5000000000
4752, 0.1389000710, 0.5000000000
4753, 0.1191706960, 0.5000000000
4754, 0.0993460715, 0.5000000000
4755, 0.0794787407, 0.5000000000
4756, 0.0596093237, 0.5000000000
4757, 0.0397395492, 0.5000000000
4758, 0.0198697746, 0.5000000000
4759, 0.0000000000, 0.5000000000
999999, 0.5000000000, 1.0000000000
*ELEMENT, TYPE=U1, ELSET=PHASE_QUADS
1, 630, 2012, 745, 25
2, 745, 2012, 2128, 98
3, 99, 746, 2127, 2124
4, 2102, 2097, 100, 747
5, 101, 748, 2074, 2076
6, 2076, 2099, 749, 101
7, 2121, 2125, 750, 102
8, 2126, 2129, 751, 103
9, 2053, 1985, 105, 753
10, 754, 105, 1985, 1945
11, 1957, 1998, 755, 106
12, 2077, 2103, 756, 107
13, 4759, 757, 4034, 4758
14, 757, 108, 2130, 4034
15, 629, 1946, 1987, 23
16, 1946, 629, 22, 1935
17, 2240, 2390, 152, 4042
18, 152, 2551, 2270, 4042
19, 2263, 2355, 2558, 198
20, 2333, 2665, 2493, 4070
21, 2574, 2325, 2656, 243
22, 2678, 2574, 243, 2862
23, 289, 2456, 2440, 2416
24, 2602, 2454, 2316, 2440
25, 334, 2208, 2370, 2483
26, 2276, 356, 2237, 2382
27, 4756, 2066, 2064, 4755
28, 2064, 2066, 2276, 355
29, 628, 1925, 1935, 22
30, 2185, 2345, 1921, 1927
31, 3002, 2957, 2706, 2911
32, 2999, 2967, 2741, 4205
33, 2809, 3063, 2963, 220
34, 243, 2978, 2968, 2862
35, 2862, 2968, 3075, 265
36, 3013, 2892, 4190, 2776
37, 3038, 2810, 288, 2975
38, 354, 2265, 2360, 2490
39, 4754, 2062, 2051, 4753
40, 2062, 4754, 4755, 2064
41, 1921, 21, 627, 1927
42, 2561, 149, 2716, 4143
43, 3098, 2925, 2974, 3554
44, 3486, 3333, 3276, 3501
45, 3333, 3449, 3214, 196
46, 3357, 3201, 3460, 241
47, 3313, 3487, 4310, 3555
48, 3293, 3279, 4338, 3401
49, 4260, 4263, 4238, 2941
50, 332, 2826, 2924, 3035
51, 354, 2490, 2336, 2260
52, 4752, 2017, 2006, 4751
53, 2006, 353, 2216, 2005
54, 20, 1993, 1942, 626
55, 1942, 1993, 2424, 2190
56, 2356, 2267, 125, 2506
57, 4291, 2993, 4287, 2730
58, 3713, 3546, 3317, 3452
59, 3782, 3627, 3733, 3618
60, 3688, 3785, 3577, 218
61, 3865, 263, 4371, 3792
62, 3533, 3388, 3646, 309
63, 331, 2918, 2773, 2622
64, 353, 2463, 2298, 2216
65, 740, 2009, 2004, 93
66, 4750, 2005, 2010, 4749
67, 19, 2034, 2019, 625
68, 2034, 2038, 2277, 125
69, 2381, 2277, 124, 2526
70, 2935, 3064, 2704, 147
71, 3505, 3452, 3338, 3175
72, 3606, 3762, 3702, 194
73, 3821, 3883, 261, 3676
74, 4276, 3680, 3613, 3436
75, 3352, 3227, 308, 3448
76, 2304, 351, 2228, 3067
77, 4748, 2022, 2054, 4747
78, 2022, 352, 3067, 2054
79, 623, 2037, 2045, 18
80, 18, 2045, 2038, 624
81, 2397, 2225, 123, 2532
82, 2935, 4245, 3084, 170
83, 169, 3495, 3175, 3084
84, 3712, 216, 3667, 4474
85, 4016, 4459, 4023, 4519
86, 3954, 4016, 3924, 4412
87, 3584, 3640, 283, 3326
88, 3320, 3442, 307, 3227
89, 329, 2922, 3116, 2856
90, 350, 2259, 2339, 2507
91, 4746, 2058, 2067, 4745
92, 4745, 2067, 2060, 4744
93, 622, 2008, 2025, 17
94, 2025, 2008, 2219, 123
95, 2398, 2219, 122, 2503
96, 3055, 2727, 3128, 4244
97, 3747, 3617, 3419, 3370
98, 3893, 3858, 3795, 3753
99, 3945, 4500, 4006, 4551
100, 3974, 3830, 260, 3995
101, 3666, 4302, 3574, 4340
102, 3478, 3266, 3326, 283
103, 328, 2909, 3008, 2737
104, 349, 2273, 2364, 2489
105, 4743, 2048, 2000, 4742
106, 2000, 2048, 2273, 349
107, 621, 1960, 1986, 16
108, 1960, 621, 15, 1951
109, 2504, 2205, 2354, 121
110, 3359, 3480, 3294, 3218
111, 4027, 4020, 237, 3998
112, 4008, 3862, 4427, 3951
113, 3604, 282, 3674, 3769
114, 4236, 3301, 4281, 305
115, 3082, 2995, 4210, 327
116, 348, 2285, 2393, 2508
117, 4741, 1978, 1937, 4740
118, 1937, 1978, 2285, 348
119, 1951, 15, 620, 1963
120, 1951, 1963, 2197, 2354
121, 2761, 2319, 2461, 143
122, 166, 3127, 2982, 2890
123, 3180, 3127, 166, 3292
124, 3717, 3548, 3765, 4475
125, 3983, 4613, 235, 3969
126, 3958, 235, 4613, 3990
127, 3630, 3746, 3526, 4436
128, 4281, 304, 4323, 3072
129, 4179, 2693, 2534, 4180
130, 348, 2508, 2343, 2431
131, 4739, 1916, 1885, 4738
132, 1885, 1916, 2431, 2156
133, 14, 1992, 1963, 620
134, 1992, 2015, 2214, 2418
135, 2749, 119, 2966, 2747
136, 2890, 3012, 3124, 166
137, 3568, 188, 3872, 3813
138, 4518, 3992, 3948, 3881
139, 3841, 257, 3829, 4578
140, 3163, 3407, 279, 3059
141, 2956, 2843, 303, 3060
142, 2433, 325, 2613, 2447
143, 346, 1158, 1020, 1003
144, 731, 805, 808, 732
145, 4735, 809, 804, 4734
146, 13, 2027, 2021, 618
147, 2021, 2027, 2966, 119
148, 2308, 2453, 2607, 2747
149, 2906, 164, 3159, 3017
150, 3522, 3692, 4007, 3465
151, 3937, 3763, 4422, 210
152, 3714, 233, 3786, 3794
153, 3869, 3800, 4498, 256
154, 2674, 301, 2789, 278
155, 1048, 4261, 1017, 1003
156, 721, 767, 765, 722
157, 770, 4722, 4723, 768
158, 616, 2041, 2046, 12
159, 12, 2046, 2042, 617
160, 2625, 2341, 2478, 140
161, 2763, 3070, 2988, 141
162, 3396, 4265, 163, 4211
163, 3890, 209, 3825, 210
164, 3914, 3857, 255, 3030
165, 4544, 2674, 278, 4567
166, 323, 2144, 1090, 4264
167, 345, 1047, 1034, 1014
168, 858, 827, 97, 4032
169, 1065, 1113, 1156, 982
170, 2244, 2329, 2414, 392
171, 2894, 415, 2884, 4273
172, 3458, 4361, 4294, 3500
173, 3876, 3968, 3955, 4362
174, 510, 3926, 4411, 3840
175, 3597, 3772, 3682, 532
176, 3328, 3252, 3450, 533
177, 2840, 3113, 2953, 580
178, 2366, 2268, 602, 2484
179, 2089, 2090, 2274, 602
180, 677, 1989, 2082, 50
181, 716, 1989, 677, 73
182, 715, 1947, 1956, 84
183, 2745, 4141, 2915, 559
184, 3431, 3596, 3434, 3319
185, 512, 3853, 3832, 3675
186, 465, 3870, 3816, 4504
187, 3224, 3336, 3344, 4225
188, 3111, 2849, 416, 3308
189, 4203, 4105, 2533, 2502
190, 848, 805, 4031, 843
191, 730, 729, 797, 4030
192, 775, 761, 814, 865
193, 615, 2031, 2039, 11
194, 117, 2223, 2031, 2024
195, 2373, 2223, 117, 2518
196, 3021, 2897, 162, 3232
197, 3321, 3484, 3337, 3232
198, 185, 3553, 3484, 3321
199, 232, 3651, 3774, 3614
200, 3360, 3197, 3174, 3274
201, 2816, 3091, 277, 2545
202, 4486, 2545, 2428, 4487
203, 321, 1405, 1896, 2171
204, 344, 1151, 1176, 1199
205, 1244, 1221, 1219, 1292
206, 2780, 2655, 4483, 434
207, 3171, 3088, 2984, 3085
208, 3469, 3385, 3461, 4604
209, 4633, 3603, 4604, 480
210, 525, 3672, 3582, 3447
211, 548, 3343, 3248, 3046
212, 571, 2944, 2732, 2650
213, 591, 2257, 2337, 2501
214, 2083, 2072, 63, 692
215, 2094, 2083, 692, 62
216, 2032, 2080, 691, 61
217, 1953, 2189, 2362, 2032
218, 2643, 2577, 572, 2718
219, 3068, 2949, 549, 3244
220, 3350, 3496, 3343, 3244
221, 3563, 4602, 4546, 526
222, 3665, 3759, 3662, 481
223, 3264, 4524, 3405, 3611
224, 3007, 3185, 4457, 3354
225, 2680, 2567, 412, 2792
226, 1084, 1107, 1063, 4131
227, 827, 858, 4039, 888
228, 1095, 1116, 1074, 1056
229, 614, 2020, 2024, 10
230, 2220, 2020, 2003, 116
231, 2220, 116, 2528, 2391
232, 3086, 3188, 4212, 3213
233, 162, 4213, 3321, 3232
234, 3644, 3488, 184, 3655
235, 231, 3664, 3580, 3457
236, 3306, 3229, 254, 4550
237, 2708, 276, 2900, 3033
238, 298, 2435, 2521, 2702
239, 1322, 1301, 1281, 1302
240, 1442, 1357, 1380, 1419
241, 2056, 4431, 2150, 2330
242, 4483, 2885, 4558, 2846
243, 4605, 2846, 4558, 433
244, 3481, 3503, 4651, 480
245, 3788, 3699, 3569, 3677
246, 3844, 4601, 3905, 3962
247, 3523, 3403, 3558, 3621
248, 2765, 3150, 3281, 2879
249, 590, 2271, 2350, 2477
250, 1997, 1943, 64, 693
251, 2271, 1997, 2072, 591
252, 613, 1991, 2003, 9
253, 2003, 1991, 2211, 116
254, 2520, 2211, 115, 2476
255, 3024, 161, 2905, 138
256, 3433, 3489, 3318, 3230
257, 3489, 183, 3654, 3560
258, 3912, 230, 3580, 3767
259, 3456, 3507, 253, 4619
260, 3122, 3157, 3043, 275
261, 2888, 2800, 4662, 2310
262, 2252, 1886, 2181, 2310
263, 342, 1490, 1505, 1535
264, 1537, 1516, 1560, 1561
265, 1655, 1575, 1597, 4664
266, 4643, 1750, 2154, 4644
267, 432, 4637, 2458, 2608
268, 2692, 4637, 2795, 433
269, 3365, 3462, 4690, 3503
270, 3819, 3576, 4685, 4657
271, 3802, 4523, 523, 3844
272, 3395, 3361, 4446, 546
273, 2765, 3106, 569, 2611
274, 589, 2284, 2389, 2479
275, 1932, 1928, 65, 694
276, 2284, 1932, 1943, 590
277, 8, 1994, 1991, 613
278, 1994, 2013, 2279, 115
279, 2375, 2279, 114, 2485
280, 2989, 3117, 2880, 2771
281, 183, 3353, 3451, 3600
282, 3695, 4400, 3848, 3764
283, 3939, 3900, 3843, 4004
284, 3518, 3559, 252, 3572
285, 274, 3161, 3009, 2946
286, 2566, 297, 2830, 296
287, 2247, 319, 2371, 2405
288, 1663, 1687, 1708, 1730
289, 1599, 1620, 1638, 1619
290, 1739, 1766, 1726, 1675
291, 2152, 1769, 1883, 385
292, 4667, 2597, 2444, 2303
293, 2881, 4682, 3108, 455
294, 3187, 3528, 3726, 3438
295, 4591, 3716, 500, 3820
296, 3678, 4547, 3771, 4590
297, 3286, 544, 3228, 3426
298, 3041, 568, 4296, 545
299, 2479, 2549, 2188, 589
300, 1928, 1934, 695, 65
301, 1928, 589, 2188, 1934
302, 7, 2033, 2013, 612
303, 2033, 2040, 2266, 114
304, 2348, 2266, 113, 2498
305, 2901, 3249, 4292, 4227
306, 4363, 3502, 4339, 3331
307, 181, 3564, 3502, 4363
308, 3725, 3776, 3895, 227
309, 4576, 251, 4610, 3540
310, 3245, 3183, 3110, 273
311, 296, 2872, 2774, 2694
312, 2441, 2687, 2438, 318
313, 2151, 1865, 1889, 4656
314, 1762, 1722, 1745, 1785
315, 1860, 1869, 1876, 1872
316, 1879, 384, 2122, 2250
317, 2666, 2560, 2291, 4616
318, 2868, 4663, 2882, 3010
319, 3593, 3392, 3453, 4585
320, 3847, 3721, 3793, 4472
321, 3179, 3192, 3373, 4369
322, 567, 2951, 3090, 2811
323, 2543, 2324, 588, 2582
324, 1944, 1996, 696, 66
325, 1944, 2347, 2207, 1996
326, 610, 2029, 2044, 6
327, 2029, 2016, 112, 2222
328, 2572, 3295, 2652, 2332
329, 158, 2936, 3042, 4228
330, 3355, 3719, 3517, 3425
331, 3882, 3822, 4489, 227
332, 3855, 3670, 4489, 3822
333, 272, 3464, 3530, 3390
334, 2436, 2584, 2698, 2580
335, 1591, 4670, 4678, 1631
336, 1748, 1715, 1701, 1763
337, 1858, 1899, 2242, 2147
338, 429, 2783, 2527, 2689
339, 2877, 2783, 429, 2948
340, 3377, 3136, 3454, 4579
341, 3834, 3831, 3931, 499
342, 3642, 3752, 3615, 3537
343, 543, 3291, 3468, 3211
344, 2960, 2752, 566, 4172
345, 587, 2492, 2331, 2234
346, 2073, 2091, 697, 67
347, 2073, 587, 2234, 2091
348, 609, 1999, 2016, 5
349, 4052, 2801, 1999, 1990
350, 3467, 2572, 2673, 3056
351, 3394, 3173, 3534, 3273
352, 3441, 3719, 3355, 4178
353, 3703, 203, 3779, 4354
354, 3521, 225, 4255, 3632
355, 3684, 4306, 3811, 226
356, 3623, 271, 3598, 3622
357, 3104, 3198, 2876, 294
358, 315, 2686, 2651, 2547
359, 2135, 2162, 1686, 339
360, 1446, 1467, 1425, 1399
361, 382, 1596, 1533, 1486
362, 2442, 2411, 2166, 1890
363, 428, 2689, 2684, 4311
364, 3203, 2948, 3065, 451
365, 3278, 3203, 451, 3387
366, 3641, 3720, 3810, 3520
367, 3751, 3624, 4383, 3615
368, 542, 3315, 3243, 4241
369, 2933, 4241, 4182, 565
370, 2987, 2300, 2785, 585
371, 69, 698, 2093, 2096
372, 698, 68, 2095, 2093
373, 4, 1995, 1990, 608
374, 1995, 111, 4052, 1990
375, 2469, 2619, 2313, 2570
376, 3011, 2883, 4270, 3154
377, 3542, 3444, 3371, 4249
378, 3016, 3235, 3304, 178
379, 3363, 225, 3521, 3420
380, 3422, 3592, 3322, 3251
381, 3711, 3310, 3367, 3466
382, 2819, 2817, 292, 2691
383, 2691, 2529, 2547, 293
384, 1895, 2134, 2158, 2175
385, 4312, 1266, 4359, 1294
386, 1486, 1447, 1468, 382
387, 1468, 1424, 4259, 2139
388, 450, 3118, 2952, 2954
389, 3186, 3277, 3387, 451
390, 3413, 3638, 3364, 4176
391, 3499, 3334, 541, 3694
392, 3165, 3049, 3608, 3265
393, 2295, 2764, 2904, 2615
394, 2075, 2014, 70, 700
395, 3, 2026, 2011, 607
396, 2011, 2026, 2419, 2213
397, 2351, 2264, 110, 2510
398, 2867, 2889, 2728, 131
399, 3101, 2934, 2973, 3132
400, 3016, 178, 2895, 4194
401, 201, 2938, 3057, 3204
402, 3054, 2990, 247, 3251
403, 2908, 3130, 3109, 2977
404, 2690, 292, 2817, 2929
405, 2288, 314, 2404, 2531
406, 1359, 1296, 1339, 1363
407, 1051, 1019, 1036, 4195
408, 380, 1220, 1173, 1149
409, 2452, 1982, 2138, 2164
410, 2630, 2719, 2552, 2812
411, 2719, 4157, 2845, 4192
412, 2748, 4168, 3096, 3240
413, 2740, 3123, 3040, 2930
414, 3275, 3153, 2985, 518
415, 3058, 2964, 2838, 540
416, 2947, 2794, 3020, 2903
417, 2439, 2314, 2210, 2415
418, 1962, 1939, 71, 701
419, 2210, 1962, 2014, 2415
420, 605, 2035, 2043, 2
421, 2, 2043, 2036, 606
422, 2685, 2510, 2379, 2317
423, 2564, 154, 2766, 2681
424, 2550, 2281, 176, 2513
425, 2402, 2287, 199, 2511
426, 2380, 2204, 222, 2495
427, 2637, 2571, 246, 2990
428, 2669, 2841, 2569, 2311
429, 2675, 2369, 2500, 291
430, 2535, 2407, 2395, 4072
431, 2394, 2100, 1983, 313
432, 932, 957, 906, 904
433, 1041, 1064, 1055, 1028
434, 2335, 2409, 2164, 1887
435, 2530, 2309, 2630, 2812
436, 2353, 2272, 448, 2497
437, 2387, 2200, 471, 2525
438, 2403, 2193, 494, 2481
439, 517, 2828, 2573, 2559
440, 2292, 2668, 2559, 516
441, 2803, 2628, 561, 2471
442, 2191, 2423, 2539, 2368
443, 1939, 1941, 702, 71
444, 604, 4035, 2030, 1
445, 1915, 1908, 2172, 109
446, 1903, 2170, 2169, 1904
447, 2170, 1903, 1905, 2173
448, 2281, 1930, 1950, 176
449, 2287, 1970, 1981, 199
450, 2204, 1980, 1975, 222
451, 1933, 1920, 4041, 245
452, 1914, 2429, 2180, 1918
453, 2429, 1914, 1919, 2280
454, 2283, 1949, 1973, 312
455, 1157, 1906, 1902, 961
456, 810, 961, 663, 662
457, 833, 834, 791, 788
458, 793, 796, 659, 658
459, 758, 648, 647, 759
460, 841, 802, 807, 846
461, 909, 911, 1893, 2131
462, 2201, 1966, 1967, 425
463, 2200, 1964, 1948, 471
464, 1948, 1936, 2193, 471
465, 2344, 1922, 1924, 2183
466, 1929, 1940, 2426, 2186
467, 2203, 1974, 1971, 583
468, 631, 4033, 1971, 26
469, 4033, 631, 49, 703
470, 1912, 1953, 690, 689
471, 1907, 2174, 2178, 1912
472, 2813, 573, 2821, 2866
473, 3312, 3215, 3097, 3168
474, 3519, 3512, 3629, 3849
475, 3920, 3928, 3898, 3657
476, 3491, 3557, 459, 4497
477, 3323, 4429, 3143, 459
478, 4257, 2609, 2696, 2548
479, 2249, 2133, 2176, 2383
480, 1112, 1179, 1091, 367
481, 1909, 1907, 60, 688
482, 2386, 2174, 2282, 4090
483, 2541, 574, 2659, 4090
484, 2927, 3100, 3290, 550
485, 3482, 3168, 3290, 3417
486, 3710, 3818, 3650, 3549
487, 4595, 4556, 3891, 3988
488, 3515, 3631, 3619, 3435
489, 3332, 437, 3247, 3515
490, 4250, 2798, 414, 2865
491, 2244, 2142, 391, 2329
492, 1954, 1913, 59, 687
493, 2286, 1954, 2050, 596
494, 2396, 2286, 596, 2523
495, 3015, 551, 2886, 2714
496, 3783, 3633, 4434, 3823
497, 484, 3952, 4002, 3880
498, 3851, 461, 3729, 4531
499, 4273, 438, 4295, 2894
500, 2081, 2050, 58, 686
501, 2278, 2081, 2092, 597
502, 2522, 2278, 597, 2512
503, 4235, 4234, 4274, 3234
504, 3494, 3316, 3341, 530
505, 3570, 3708, 3789, 3707
506, 3754, 3941, 3856, 3909
507, 4463, 3599, 4415, 462
508, 3369, 3458, 439, 3287
509, 2086, 2087, 685, 56
510, 2367, 2235, 598, 2496
511, 3023, 553, 3137, 2893
512, 530, 4217, 3498, 3700
513, 4366, 4309, 4308, 3565
514, 4455, 3993, 3997, 3837
515, 3838, 463, 3799, 4416
516, 56, 684, 2084, 2086
517, 2085, 2084, 684, 55
518, 2342, 2258, 599, 2494
519, 3061, 554, 2942, 2721
520, 3429, 531, 3309, 4231
521, 3671, 3682, 510, 3840
522, 4411, 3985, 4477, 4413
523, 2057, 2079, 683, 54
524, 2057, 2002, 2209, 600
525, 2654, 2327, 2462, 579
526, 3071, 555, 2961, 2861
527, 532, 3335, 3432, 3597
528, 1955, 2002, 682, 681
529, 2421, 2198, 1955, 1959
530, 580, 2815, 2576, 2588
531, 3053, 2981, 557, 3252
532, 3300, 3450, 3252, 557
533, 1959, 1955, 681, 53
534, 2464, 2994, 2320, 2555
535, 3044, 4156, 3113, 2840
536, 52, 2047, 1988, 680
537, 2078, 679, 51, 2089
538, 2268, 2366, 2555, 2422
539, 1956, 1947, 2196, 603
540, 83, 1984, 1947, 715
541, 3383, 3378, 4251, 535
542, 3430, 3311, 3493, 3801
543, 3787, 3594, 4460, 4461
544, 3209, 3508, 3609, 3327
545, 3224, 2928, 417, 3336
546, 2392, 2194, 370, 2505
547, 1917, 1900, 2168, 370
548, 369, 1021, 963, 4077
549, 2028, 2212, 2425, 1984
550, 82, 2098, 2028, 714
551, 3080, 2970, 514, 3253
552, 2863, 2971, 3074, 514
553, 3342, 4370, 3202, 4332
554, 3740, 3635, 3910, 3756
555, 3233, 3455, 3967, 3351
556, 2959, 418, 3077, 2739
557, 2365, 2218, 371, 2491
558, 370, 2194, 1938, 1917
559, 734, 1900, 1917, 88
560, 2098, 2120, 3428, 560
561, 2114, 712, 711, 2119
562, 2679, 2575, 492, 2863
563, 2979, 2971, 2863, 492
564, 3299, 3416, 3200, 4303
565, 3529, 444, 3408, 4286
566, 2939, 419, 3062, 2725
567, 2644, 2338, 2488, 395
568, 2218, 2001, 1979, 371
569, 735, 1938, 1979, 89
570, 2114, 3176, 537, 2104
571, 2105, 80, 710, 2113
572, 2575, 2326, 2658, 492
573, 4219, 3073, 2713, 3052
574, 3299, 4303, 3374, 444
575, 2770, 3231, 2896, 398
576, 2633, 2305, 2472, 396
577, 2230, 2061, 2049, 372
578, 736, 2001, 2049, 90
579, 709, 2112, 2115, 79
580, 470, 2255, 2340, 2499
581, 2707, 3093, 2932, 446
582, 421, 3155, 2991, 2896
583, 2623, 2297, 2768, 3386
584, 2023, 2055, 2998, 374
585, 737, 2061, 2068, 91
586, 79, 2115, 2113, 710
587, 2106, 78, 708, 2118
588, 447, 2261, 2358, 2509
589, 2937, 2734, 2869, 422
590, 2857, 2334, 2467, 4102
591, 2004, 2009, 2215, 375
592, 92, 2055, 2023, 739
593, 2106, 470, 2238, 2112
594, 2107, 77, 707, 2111
595, 424, 2269, 2376, 2516
596, 2361, 2227, 376, 2487
597, 2004, 375, 2217, 2007
598, 2009, 740, 739, 2023
599, 2107, 447, 2255, 2118
600, 2108, 76, 706, 2117
601, 401, 2275, 2388, 2524
602, 2052, 742, 94, 2018
603, 741, 2007, 2018, 94
604, 2261, 2111, 2108, 424
605, 2110, 705, 74, 2116
606, 2069, 2065, 2231, 378
607, 742, 2052, 2063, 95
608, 2109, 2110, 2275, 401
609, 704, 2071, 2116, 74
610, 743, 2065, 2069, 96
611, 744, 2071, 704, 85
612, 2237, 2103, 2077, 334
613, 2208, 1998, 1957, 2352
614, 2199, 1945, 1985, 2416
615, 244, 2807, 2129, 2126
616, 2121, 221, 2239, 2125
617, 2076, 198, 2236, 2099
618, 2076, 2074, 2263, 198
619, 2102, 2124, 4042, 2270
620, 129, 2240, 2127, 2128
621, 1904, 1908, 675, 47
622, 2446, 2685, 2317, 130
623, 2570, 2419, 2264, 2351
624, 111, 2213, 2313, 2757
625, 2673, 2572, 112, 2801
626, 113, 2222, 2332, 2498
627, 114, 2266, 2348, 2485
628, 115, 2279, 2375, 2476
629, 2401, 116, 2211, 2520
630, 117, 2220, 2391, 2518
631, 2223, 2373, 2478, 118
632, 2568, 2417, 2226, 2341
633, 2308, 2747, 2966, 2221
634, 2299, 120, 2418, 2214
635, 2197, 2319, 121, 2354
636, 2377, 122, 2205, 2504
637, 123, 2219, 2398, 2532
638, 124, 2225, 2397, 2526
639, 125, 2277, 2381, 2506
640, 2267, 2356, 2563, 2424
641, 2185, 2294, 127, 2345
642, 2390, 2240, 129, 2202
643, 674, 673, 1905, 1903
644, 2681, 2301, 153, 2564
645, 2835, 2728, 2902, 2469
646, 3011, 3144, 2762, 2883
647, 3173, 3284, 134, 3467
648, 4152, 2758, 2936, 3162
649, 136, 2629, 2738, 4162
650, 137, 2604, 2771, 4113
651, 138, 2592, 2744, 3024
652, 2726, 3022, 2827, 2594
653, 2711, 3036, 2848, 2647
654, 2699, 2763, 141, 2453
655, 3216, 142, 2607, 2796
656, 2610, 2799, 143, 2461
657, 144, 4204, 2788, 2912
658, 145, 2634, 2723, 2913
659, 2727, 146, 4153, 2591
660, 2717, 147, 4154, 2593
661, 4220, 2847, 2662, 2704
662, 2716, 4327, 2974, 2844
663, 2833, 151, 4087, 4124
664, 2378, 2551, 152, 2517
665, 1930, 1911, 46, 672
666, 3273, 3285, 156, 3394
667, 4178, 3355, 3222, 157
668, 4228, 3042, 3222, 3425
669, 159, 4292, 3249, 3331
670, 3117, 3241, 160, 2880
671, 3230, 161, 3024, 3223
672, 4211, 3232, 3337, 3396
673, 3226, 3261, 3270, 164
674, 3159, 3465, 3506, 4163
675, 166, 3124, 3178, 3292
676, 3359, 3218, 167, 4337
677, 170, 3084, 3175, 3338
678, 3064, 3193, 171, 2920
679, 3718, 3210, 172, 3554
680, 174, 2874, 2741, 2612
681, 2355, 2263, 175, 2480
682, 1970, 1950, 45, 671
683, 176, 2287, 2402, 2513
684, 3016, 4194, 3121, 3221
685, 3235, 3348, 3485, 3304
686, 179, 4350, 3696, 3709
687, 181, 3588, 3626, 3652
688, 3705, 3502, 3564, 3734
689, 3489, 3560, 184, 3318
690, 185, 3362, 3556, 3643
691, 3722, 3484, 3553, 3731
692, 3625, 4364, 4313, 3531
693, 188, 4007, 3692, 4022
694, 3568, 189, 3415, 3956
695, 3548, 3717, 3587, 3409
696, 3888, 3737, 3730, 3950
697, 3617, 191, 3753, 3620
698, 3505, 4395, 4474, 193
699, 3606, 194, 3713, 193
700, 3733, 3524, 195, 3647
701, 2809, 4159, 4188, 3063
702, 198, 2544, 2333, 2236
703, 1975, 1980, 670, 43
704, 199, 2204, 2380, 2511
705, 2712, 3057, 2938, 4133
706, 3204, 3363, 3420, 3303
707, 3521, 3748, 3723, 3420
708, 3979, 3965, 3882, 3943
709, 228, 3776, 3725, 3540
710, 229, 3843, 3766, 3559
711, 3889, 3973, 4495, 3912
712, 3814, 3664, 208, 3874
713, 3774, 3806, 3673, 3614
714, 3714, 3825, 3651, 3516
715, 3786, 4553, 3886, 3794
716, 3813, 3881, 212, 3653
717, 4475, 213, 4019, 3717
718, 3888, 3980, 214, 4374
719, 4490, 3858, 4500, 3945
720, 3812, 3877, 3994, 216
721, 3902, 3915, 3989, 217
722, 3627, 3688, 218, 3579
723, 3201, 219, 3349, 3460
724, 2751, 220, 2963, 3081
725, 2325, 4070, 2493, 2656
726, 1933, 1952, 669, 42
727, 2637, 4095, 2346, 2571
728, 2990, 3054, 2775, 2637
729, 3310, 3422, 3251, 247
730, 4306, 3589, 248, 3668
731, 3649, 3339, 230, 4542
732, 3457, 3580, 230, 3339
733, 232, 3439, 3360, 3476
734, 3274, 3219, 3777, 3561
735, 3786, 4599, 3869, 4553
736, 3975, 3841, 4578, 3969
737, 4491, 3836, 4428, 3929
738, 3940, 237, 4020, 3951
739, 3821, 262, 3953, 3883
740, 241, 3796, 3727, 4310
741, 242, 3357, 3487, 4193
742, 244, 2574, 2678, 2807
743, 1918, 1920, 668, 667
744, 2455, 2669, 2311, 267
745, 4126, 2908, 2977, 246
746, 4201, 4202, 3367, 3238
747, 3466, 3550, 3897, 3711
748, 3622, 3530, 250, 3809
749, 3382, 3183, 3245, 4638
750, 4638, 4650, 3325, 251
751, 3400, 3258, 3572, 3161
752, 2900, 254, 3229, 253
753, 3174, 3091, 2931, 4607
754, 3030, 3219, 4607, 4567
755, 279, 3446, 3340, 3246
756, 3163, 3414, 3272, 4464
757, 3917, 3628, 3836, 4491
758, 3674, 3808, 4427, 3862
759, 4340, 3574, 3478, 283
760, 3584, 284, 3757, 3640
761, 3680, 3821, 3676, 3613
762, 3792, 3907, 262, 3949
763, 3957, 3443, 263, 3573
764, 3145, 3075, 3149, 3379
765, 2293, 2755, 2616, 2456
766, 1919, 1914, 41, 666
767, 2855, 2369, 2675, 3131
768, 2929, 3003, 3005, 3131
769, 2976, 2817, 2819, 3047
770, 3398, 3104, 3167, 4473
771, 4532, 3492, 4473, 3212
772, 273, 3110, 2872, 2871
773, 2671, 2830, 297, 4662
774, 3532, 2800, 2888, 2983
775, 299, 2521, 2435, 2171
776, 300, 2695, 2545, 4486
777, 2956, 3414, 3163, 3059
778, 3146, 3288, 3060, 2907
779, 3169, 3301, 3604, 281
780, 3478, 3574, 3445, 3266
781, 3584, 3326, 3250, 3442
782, 3352, 285, 4276, 3436
783, 287, 3182, 4263, 4260
784, 4190, 2975, 288, 2616
785, 2440, 2316, 2199, 2416
786, 1949, 1931, 40, 665
787, 2407, 2283, 312, 2395
788, 4104, 4103, 2531, 2690
789, 2547, 2529, 2413, 315
790, 2586, 2465, 316, 4462
791, 4471, 2873, 2733, 2580
792, 2441, 2694, 2980, 2687
793, 2566, 2371, 2252, 297
794, 2181, 1886, 320, 2262
795, 1405, 322, 2143, 1896
796, 301, 2374, 2251, 4372
797, 1884, 2160, 1888, 1052
798, 2447, 302, 2328, 2433
799, 304, 2907, 2693, 4242
800, 2767, 4243, 4242, 326
801, 2736, 3008, 3158, 3082
802, 2731, 306, 2909, 4130
803, 3045, 307, 2922, 2715
804, 2918, 3646, 3027, 2773
805, 2924, 310, 4183, 3035
806, 2784, 311, 2870, 2754
807, 2208, 2352, 2482, 2370
808, 1902, 1977, 664, 38
809, 1906, 2137, 2248, 4040
810, 1363, 1339, 1295, 337
811, 2134, 1556, 338, 2177
812, 2243, 2289, 2162, 2135
813, 1898, 1856, 2246, 2322
814, 1687, 1729, 1882, 1708
815, 1505, 1490, 1514, 1581
816, 1361, 1426, 4555, 1403
817, 1202, 1176, 1154, 4319
818, 1110, 1066, 4264, 1090
819, 1092, 1071, 4261, 1048
820, 2161, 4181, 2132, 2165
821, 2343, 2412, 2165, 4086
822, 2393, 2285, 349, 2489
823, 2364, 2273, 350, 2507
824, 2475, 2648, 2339, 351
825, 2790, 2777, 330, 2715
826, 2622, 2298, 2463, 331
827, 2336, 2490, 2638, 2834
828, 2360, 2265, 355, 2515
829, 355, 2276, 2382, 2515
830, 901, 872, 875, 927
831, 1050, 1087, 1036, 4121
832, 1425, 1381, 1355, 1399
833, 1600, 1574, 1617, 1680
834, 1786, 1818, 1829, 4640
835, 1674, 1661, 1684, 1697
836, 1501, 1525, 1506, 1482
837, 1345, 1328, 1305, 1319
838, 777, 824, 894, 886
839, 1030, 981, 1046, 1041
840, 1198, 1240, 4254, 1173
841, 1398, 4448, 1429, 4501
842, 1533, 1576, 1555, 1513
843, 1673, 4606, 1703, 1710
844, 384, 1853, 1828, 4557
845, 1781, 1739, 1759, 1774
846, 1622, 1597, 1583, 1635
847, 1392, 1400, 1379, 366
848, 1112, 367, 1063, 1107
849, 1219, 1221, 1167, 1241
850, 2142, 2244, 2145, 1181
851, 368, 1180, 2142, 1181
852, 370, 2168, 4068, 2505
853, 371, 2194, 2392, 2491
854, 372, 2218, 2365, 2488
855, 373, 2230, 2338, 2472
856, 2305, 2787, 2998, 2229
857, 375, 2215, 2297, 2467
858, 376, 2217, 2334, 2487
859, 377, 2227, 2361, 2514
860, 2275, 378, 2231, 2388
861, 35, 911, 849, 643
862, 2131, 2335, 379, 909
863, 2138, 1336, 1220, 380
864, 2149, 382, 1468, 2139
865, 4423, 1890, 2166, 1899
866, 2546, 408, 2557, 4679
867, 1727, 4626, 1897, 1683
868, 388, 1511, 2150, 4431
869, 2357, 2254, 2136, 412
870, 2136, 4432, 4378, 2056
871, 2688, 4203, 4224, 2806
872, 4105, 4203, 2688, 393
873, 3051, 2832, 2750, 2955
874, 2722, 3076, 2825, 394
875, 396, 2644, 2739, 2939
876, 397, 2633, 2725, 3172
877, 2623, 2770, 398, 4102
878, 2857, 399, 2487, 2334
879, 2361, 2756, 400, 2514
880, 2376, 2269, 401, 2524
881, 34, 1958, 1893, 642
882, 2530, 2409, 402, 2420
883, 2408, 404, 2159, 403
884, 4348, 4300, 2430, 405
885, 4508, 2451, 2527, 2406
886, 2291, 4646, 2307, 2253
887, 2303, 2444, 409, 4644
888, 2312, 2363, 4594, 410
889, 2359, 2554, 4488, 411
890, 2680, 435, 4418, 2921
891, 2792, 2780, 435, 2680
892, 2290, 2383, 2176, 2245
893, 3111, 3308, 4229, 3195
894, 3189, 416, 3000, 3142
895, 419, 3077, 3209, 3327
896, 420, 3062, 3233, 3351
897, 420, 3351, 3391, 3260
898, 3408, 3155, 421, 4286
899, 423, 2824, 2937, 2707
900, 2358, 2261, 424, 2516
901, 33, 1967, 1966, 640
902, 2473, 2353, 2645, 426
903, 2954, 2742, 2943, 450
904, 428, 4311, 2837, 3255
905, 2689, 428, 2781, 429
906, 2877, 3129, 4529, 2783
907, 2875, 4663, 431, 2746
908, 432, 2608, 2697, 2881
909, 2958, 3095, 2846, 4605
910, 3185, 4418, 3088, 3368
911, 3099, 4273, 2865, 4357
912, 3567, 3497, 4177, 440
913, 3497, 3567, 3689, 441
914, 3609, 3552, 4393, 4405
915, 443, 3967, 3455, 3607
916, 3701, 444, 3529, 3863
917, 446, 2932, 2713, 4122
918, 2340, 2255, 447, 2509
919, 638, 1964, 1968, 32
920, 448, 2200, 2387, 2497
921, 3277, 3186, 3177, 3296
922, 3203, 3278, 452, 3078
923, 454, 4682, 2986, 3269
924, 3187, 4688, 3108, 4682
925, 456, 3092, 3181, 4694
926, 3283, 457, 3141, 4634
927, 3611, 3405, 481, 4018
928, 458, 3368, 3385, 3469
929, 3247, 3048, 3475, 460
930, 3435, 3619, 3345, 3205
931, 464, 3982, 3921, 3781
932, 4572, 3921, 3982, 4024
933, 3816, 3870, 3906, 466
934, 3685, 4461, 4460, 467
935, 469, 2962, 2735, 2658
936, 470, 2499, 2326, 2238
937, 637, 1936, 1948, 31
938, 471, 2193, 2403, 2525
939, 3404, 3520, 475, 3289
940, 4528, 3377, 4579, 3585
941, 4592, 4559, 3791, 4549
942, 4658, 3438, 477, 3562
943, 4690, 3576, 479, 3503
944, 3662, 3759, 3850, 3936
945, 4570, 3665, 481, 3405
946, 3575, 3471, 3657, 3898
947, 3729, 3619, 3631, 4541
948, 3754, 3661, 4015, 485
949, 4410, 3894, 3835, 3923
950, 3923, 3835, 511, 4476
951, 3693, 489, 3871, 3750
952, 3311, 3356, 4328, 3493
953, 2575, 2679, 4054, 493
954, 636, 1923, 1926, 30
955, 2620, 2481, 2372, 2573
956, 3153, 2778, 2828, 2985
957, 3275, 4226, 3375, 3153
958, 3624, 3728, 3636, 4352
959, 3959, 4480, 3934, 3846
960, 4591, 3878, 3770, 4618
961, 3962, 3918, 3802, 3844
962, 4546, 3704, 3496, 3350
963, 3824, 3672, 504, 4628
964, 4677, 4672, 4673, 3932
965, 3911, 3960, 4002, 3999
966, 3856, 4493, 3899, 3970
967, 508, 4398, 3837, 3997
968, 3601, 533, 3450, 534
969, 3683, 3679, 4230, 533
970, 3430, 3509, 3459, 513
971, 514, 3074, 3148, 3253
972, 2970, 3080, 515, 2808
973, 1924, 635, 634, 1929
974, 2486, 2668, 2292, 538
975, 4268, 518, 3058, 3330
976, 3346, 3536, 3315, 542
977, 3346, 3424, 3537, 520
978, 3681, 4420, 4369, 3373
979, 3426, 3228, 545, 3412
980, 3329, 3558, 3403, 547
981, 3350, 3244, 549, 3215
982, 3447, 524, 3329, 3248
983, 526, 3512, 3519, 3563
984, 527, 3482, 3549, 3650
985, 4391, 528, 3571, 3543
986, 3570, 529, 3494, 530
987, 4367, 4366, 3565, 3775
988, 531, 3429, 3605, 3660
989, 557, 4184, 3184, 3300
990, 4191, 4184, 4156, 558
991, 3148, 3378, 3381, 3253
992, 2302, 3428, 537, 2769
993, 28, 1940, 1929, 634
994, 2947, 540, 2838, 3066
995, 3019, 3225, 2903, 2772
996, 3192, 3090, 544, 3373
997, 3217, 2917, 3025, 3361
998, 2718, 572, 2949, 3068
999, 3046, 547, 2926, 2732
1000, 549, 2866, 3097, 3215
1001, 3100, 551, 3417, 3290
1002, 552, 4318, 3427, 3551
1003, 4235, 3234, 4318, 552
1004, 3237, 3307, 4173, 3220
1005, 3207, 3309, 3061, 4160
1006, 3239, 4185, 3071, 556
1007, 2729, 581, 2705, 2624
1008, 559, 2915, 4108, 2804
1009, 632, 1974, 1976, 27
1010, 2203, 2368, 2556, 2427
1011, 2615, 2851, 2457, 2295
1012, 2764, 2295, 2899, 585
1013, 2627, 2300, 2468, 2653
1014, 2331, 4149, 2653, 2468
1015, 2324, 2543, 2660, 2492
1016, 2350, 2271, 591, 2501
1017, 2650, 2337, 2474, 571
1018, 572, 2683, 2813, 2949
1019, 2927, 3094, 2839, 3100
1020, 574, 2639, 2714, 2886
1021, 4120, 575, 2753, 2385
1022, 2710, 576, 2642, 2782
1023, 577, 2649, 2721, 2942
1024, 578, 2654, 2861, 2961
1025, 579, 2621, 2797, 2945
1026, 2196, 2425, 2538, 2384
1027, 2189, 2318, 593, 2362
1028, 2174, 2386, 594, 2178
1029, 595, 2286, 2396, 2541
1030, 2385, 596, 2278, 2522
1031, 597, 2235, 2367, 2512
1032, 598, 2258, 2342, 2496
1033, 599, 2233, 2327, 2494
1034, 600, 2209, 2296, 2462
1035, 2565, 2421, 2206, 2320
1036, 24, 676, 4035, 604
1037, 1, 2030, 2035, 605
1038, 606, 2036, 2026, 3
1039, 607, 2011, 1995, 4
1040, 608, 1990, 1999, 609
1041, 5, 2016, 2029, 610
1042, 611, 2040, 2033, 7
1043, 612, 2013, 1994, 8
1044, 9, 2003, 2020, 614
1045, 10, 2024, 2031, 615
1046, 11, 2039, 2041, 616
1047, 617, 2042, 2027, 13
1048, 618, 2021, 2015, 619
1049, 619, 2015, 1992, 14
1050, 16, 1986, 2008, 622
1051, 17, 2025, 2037, 623
1052, 624, 2038, 2034, 19
1053, 625, 2019, 1993, 20
1054, 626, 1942, 1927, 627
1055, 21, 1921, 1925, 628
1056, 23, 1987, 2012, 630
1057, 26, 1971, 1974, 632
1058, 633, 1961, 1940, 28
1059, 635, 1924, 1922, 29
1060, 29, 1922, 1923, 636
1061, 30, 1926, 1936, 637
1062, 31, 1948, 1964, 638
1063, 32, 1968, 1969, 639
1064, 640, 1966, 1972, 641
1065, 642, 1893, 911, 35
1066, 643, 849, 807, 644
1067, 644, 807, 802, 645
1068, 646, 799, 786, 36
1069, 36, 786, 759, 647
1070, 649, 648, 758, 760
1071, 650, 649, 760, 764
1072, 651, 650, 764, 779
1073, 779, 782, 652, 651
1074, 782, 785, 653, 652
1075, 785, 787, 654, 653
1076, 787, 788, 655, 654
1077, 788, 791, 656, 655
1078, 791, 792, 657, 656
1079, 792, 793, 658, 657
1080, 37, 660, 800, 803
1081, 661, 37, 803, 806
1082, 806, 810, 662, 661
1083, 1973, 1949, 665, 39
1084, 1931, 1919, 666, 40
1085, 667, 41, 1914, 1918
1086, 1920, 1933, 42, 668
1087, 1952, 1975, 43, 669
1088, 1980, 1981, 44, 670
1089, 1950, 1930, 672, 45
1090, 1911, 1905, 673, 46
1091, 1903, 1904, 47, 674
1092, 1908, 1915, 48, 675
1093, 50, 2082, 2090, 678
1094, 679, 2078, 2047, 52
1095, 680, 1988, 1959, 53
1096, 2002, 2057, 54, 682
1097, 2079, 2085, 55, 683
1098, 2087, 2092, 57, 685
1099, 2050, 1954, 687, 58
1100, 1913, 1909, 688, 59
1101, 689, 60, 1907, 1912
1102, 1953, 2032, 61, 690
1103, 2080, 2094, 62, 691
1104, 2072, 1997, 693, 63
1105, 1943, 1932, 694, 64
1106, 1934, 1944, 66, 695
1107, 1996, 2073, 67, 696
1108, 2091, 2095, 68, 697
1109, 2088, 2075, 700, 699
1110, 2014, 1962, 701, 70
1111, 1941, 1965, 72, 702
1112, 705, 2110, 2109, 75
1113, 75, 2109, 2117, 706
1114, 77, 2107, 2118, 708
1115, 78, 2106, 2112, 709
1116, 80, 2105, 2119, 711
1117, 712, 2114, 2104, 81
1118, 81, 2104, 2120, 713
1119, 714, 2028, 1984, 83
1120, 84, 1956, 1989, 716
1121, 772, 4721, 4722, 770
1122, 720, 769, 767, 721
1123, 768, 4723, 4724, 766
1124, 766, 4724, 4725, 763
1125, 769, 720, 719, 771
1126, 763, 4725, 4726, 762
1127, 724, 723, 761, 775
1128, 776, 4727, 4728, 781
1129, 781, 4728, 4729, 784
1130, 725, 724, 775, 780
1131, 784, 4729, 4730, 790
1132, 776, 4043, 820, 762
1133, 780, 783, 726, 725
1134, 4727, 776, 762, 4726
1135, 783, 789, 727, 726
1136, 729, 728, 794, 797
1137, 4732, 798, 795, 4731
1138, 4731, 795, 790, 4730
1139, 4733, 801, 798, 4732
1140, 732, 808, 986, 733
1141, 804, 847, 844, 801
1142, 4737, 960, 850, 4736
1143, 4736, 850, 809, 4735
1144, 4738, 1885, 960, 4737
1145, 2155, 1900, 734, 87
1146, 4740, 1937, 1916, 4739
1147, 88, 1917, 1938, 735
1148, 4742, 2000, 1978, 4741
1149, 89, 1979, 2001, 736
1150, 4744, 2060, 2048, 4743
1151, 90, 2049, 2061, 737
1152, 4747, 2054, 2058, 4746
1153, 738, 2059, 2055, 92
1154, 4749, 2010, 2022, 4748
1155, 2005, 4750, 4751, 2006
1156, 93, 2004, 2007, 741
1157, 4753, 2051, 2017, 4752
1158, 95, 2063, 2065, 743
1159, 4757, 2070, 2066, 4756
1160, 96, 2069, 2071, 744
1161, 2127, 746, 98, 2128
1162, 2124, 2102, 747, 99
1163, 2097, 2074, 748, 100
1164, 2099, 2121, 102, 749
1165, 2125, 2126, 103, 750
1166, 2123, 2101, 752, 104
1167, 2101, 2053, 753, 752
1168, 1945, 1957, 106, 754
1169, 1998, 2077, 107, 755
1170, 356, 2130, 2103, 2237
1171, 758, 811, 812, 760
1172, 799, 646, 645, 802
1173, 759, 4074, 811, 758
1174, 761, 723, 722, 765
1175, 828, 780, 775, 865
1176, 815, 763, 762, 820
1177, 771, 719, 718, 773
1178, 814, 761, 765, 4058
1179, 763, 815, 816, 766
1180, 760, 812, 813, 764
1181, 773, 718, 717, 778
1182, 767, 818, 4058, 765
1183, 778, 717, 97, 827
1184, 767, 769, 4048, 818
1185, 766, 816, 817, 768
1186, 771, 821, 4048, 769
1187, 4721, 772, 774, 4720
1188, 819, 770, 768, 817
1189, 825, 773, 778, 864
1190, 822, 772, 770, 819
1191, 4720, 774, 777, 97
1192, 784, 4044, 830, 781
1193, 894, 824, 857, 917
1194, 812, 852, 4057, 813
1195, 826, 779, 764, 813
1196, 728, 727, 789, 794
1197, 782, 829, 831, 785
1198, 837, 786, 799, 4046
1199, 785, 831, 832, 787
1200, 787, 832, 833, 788
1201, 830, 868, 820, 4043
1202, 875, 872, 839, 836
1203, 792, 791, 834, 4038
1204, 660, 659, 796, 800
1205, 801, 4733, 4734, 804
1206, 793, 792, 4038, 836
1207, 797, 794, 838, 843
1208, 4031, 4030, 797, 843
1209, 790, 4045, 4044, 784
1210, 800, 796, 839, 842
1211, 4031, 805, 731, 86
1212, 798, 840, 835, 795
1213, 4081, 4046, 841, 900
1214, 803, 800, 842, 845
1215, 801, 844, 840, 798
1216, 848, 880, 910, 883
1217, 845, 851, 806, 803
1218, 902, 881, 846, 878
1219, 986, 808, 883, 1021
1220, 809, 935, 847, 804
1221, 961, 810, 884, 1157
1222, 852, 812, 811, 890
1223, 779, 826, 829, 782
1224, 869, 4047, 926, 874
1225, 815, 853, 4078, 816
1226, 816, 4078, 855, 817
1227, 821, 771, 773, 825
1228, 4048, 867, 893, 818
1229, 772, 822, 823, 774
1230, 795, 835, 4045, 790
1231, 4044, 4045, 870, 830
1232, 865, 814, 4058, 866
1233, 4055, 856, 823, 822
1234, 774, 823, 824, 777
1235, 4032, 886, 912, 885
1236, 778, 827, 888, 864
1237, 825, 864, 889, 821
1238, 4037, 915, 4039, 858
1239, 4032, 97, 777, 886
1240, 889, 864, 888, 914
1241, 828, 865, 4047, 869
1242, 826, 854, 4056, 829
1243, 820, 868, 853, 815
1244, 4056, 859, 831, 829
1245, 831, 859, 860, 832
1246, 4036, 789, 783, 869
1247, 832, 860, 861, 833
1248, 834, 833, 861, 862
1249, 796, 793, 836, 839
1250, 868, 830, 870, 899
1251, 834, 862, 863, 4038
1252, 802, 841, 4046, 799
1253, 871, 837, 4046, 4081
1254, 838, 874, 908, 843
1255, 877, 882, 845, 842
1256, 868, 899, 891, 853
1257, 872, 877, 842, 839
1258, 848, 843, 908, 880
1259, 847, 879, 873, 844
1260, 849, 878, 846, 807
1261, 881, 900, 841, 846
1262, 935, 809, 850, 1178
1263, 808, 805, 848, 883
1264, 878, 849, 911, 909
1265, 847, 935, 907, 879
1266, 882, 933, 851, 845
1267, 810, 806, 851, 884
1268, 854, 826, 813, 4057
1269, 4110, 4057, 852, 887
1270, 856, 4055, 855, 895
1271, 823, 856, 857, 824
1272, 920, 886, 894, 4053
1273, 4032, 885, 4037, 858
1274, 939, 885, 912, 965
1275, 4110, 898, 854, 4057
1276, 913, 924, 860, 4111
1277, 836, 4038, 863, 875
1278, 922, 927, 875, 863
1279, 865, 866, 892, 4047
1280, 867, 4048, 821, 4065
1281, 4065, 889, 914, 928
1282, 840, 876, 4080, 835
1283, 4036, 869, 874, 838
1284, 4115, 899, 870, 4080
1285, 4138, 887, 916, 944
1286, 930, 932, 904, 901
1287, 844, 873, 876, 840
1288, 4036, 838, 794, 789
1289, 877, 872, 901, 904
1290, 379, 981, 934, 909
1291, 346, 956, 879, 907
1292, 910, 880, 368, 1181
1293, 4109, 923, 4140, 4114
1294, 933, 882, 906, 4066
1295, 851, 933, 958, 884
1296, 986, 1021, 2410, 2155
1297, 1157, 884, 958, 335
1298, 965, 912, 937, 987
1299, 894, 917, 936, 4053
1300, 4111, 860, 859, 4056
1301, 922, 863, 862, 942
1302, 887, 852, 890, 916
1303, 978, 970, 4075, 4083
1304, 892, 866, 893, 896
1305, 4074, 837, 871, 921
1306, 897, 857, 856, 895
1307, 818, 893, 866, 4058
1308, 4059, 926, 4047, 892
1309, 896, 928, 4059, 892
1310, 964, 920, 4053, 971
1311, 899, 4115, 919, 891
1312, 945, 897, 919, 943
1313, 917, 857, 897, 945
1314, 4111, 898, 4138, 913
1315, 4111, 4056, 854, 898
1316, 903, 876, 873, 905
1317, 895, 891, 919, 897
1318, 944, 967, 973, 942
1319, 4081, 900, 4109, 871
1320, 962, 984, 908, 874
1321, 862, 861, 924, 942
1322, 942, 924, 913, 944
1323, 905, 873, 879, 956
1324, 934, 902, 878, 909
1325, 931, 923, 881, 902
1326, 925, 943, 919, 4115
1327, 877, 904, 906, 882
1328, 929, 905, 956, 979
1329, 4066, 906, 957, 1002
1330, 907, 935, 1178, 959
1331, 880, 908, 984, 368
1332, 963, 910, 1181, 2145
1333, 938, 4049, 966, 990
1334, 4050, 4039, 915, 938
1335, 4059, 928, 949, 4075
1336, 4049, 4037, 885, 939
1337, 4074, 921, 890, 811
1338, 918, 871, 4109, 4114
1339, 971, 4053, 936, 989
1340, 900, 881, 923, 4109
1341, 946, 948, 967, 944
1342, 921, 871, 918, 946
1343, 4065, 928, 896, 867
1344, 926, 4059, 4075, 940
1345, 920, 964, 4060, 937
1346, 912, 886, 920, 937
1347, 922, 942, 973, 941
1348, 4115, 903, 929, 925
1349, 927, 922, 941, 951
1350, 954, 925, 929, 979
1351, 926, 940, 962, 874
1352, 930, 901, 927, 951
1353, 4064, 949, 928, 914
1354, 947, 943, 925, 954
1355, 955, 930, 951, 977
1356, 902, 934, 953, 931
1357, 4140, 4137, 4136, 4114
1358, 957, 932, 980, 1018
1359, 985, 958, 933, 983
1360, 934, 981, 1030, 953
1361, 1178, 850, 960, 4051
1362, 988, 939, 965, 1005
1363, 950, 4063, 968, 996
1364, 4050, 914, 888, 4039
1365, 1005, 965, 987, 1025
1366, 970, 4069, 940, 4075
1367, 948, 4137, 993, 967
1368, 969, 941, 973, 994
1369, 943, 947, 975, 945
1370, 946, 944, 916, 921
1371, 918, 4136, 948, 946
1372, 936, 917, 945, 4061
1373, 923, 931, 4158, 4196
1374, 997, 1013, 1011, 4218
1375, 950, 4083, 4064, 4063
1376, 968, 4063, 4050, 938
1377, 969, 977, 951, 941
1378, 976, 4084, 947, 954
1379, 1002, 957, 1018, 4121
1380, 932, 930, 955, 980
1381, 956, 346, 1003, 979
1382, 4073, 4106, 4099, 983
1383, 2132, 1158, 959, 347
1384, 346, 907, 959, 1158
1385, 1885, 2156, 4051, 960
1386, 38, 663, 961, 1902
1387, 1001, 1065, 982, 4069
1388, 883, 910, 963, 1021
1389, 989, 936, 4061, 4062
1390, 1006, 966, 988, 1024
1391, 4049, 938, 915, 4037
1392, 967, 993, 994, 973
1393, 990, 1012, 968, 938
1394, 1011, 1013, 974, 991
1395, 1025, 987, 1007, 1037
1396, 931, 953, 992, 4158
1397, 991, 974, 952, 972
1398, 974, 993, 4137, 952
1399, 1014, 976, 999, 345
1400, 999, 976, 954, 979
1401, 1008, 989, 4062, 998
1402, 1000, 980, 955, 4166
1403, 1032, 978, 1015, 1043
1404, 1044, 970, 978, 1032
1405, 1017, 999, 979, 1003
1406, 4166, 955, 977, 1016
1407, 1002, 1019, 4073, 4066
1408, 992, 1010, 1004, 972
1409, 1067, 1046, 981, 379
1410, 962, 940, 4069, 982
1411, 983, 4099, 1089, 985
1412, 983, 933, 4066, 4073
1413, 984, 962, 982, 1156
1414, 985, 1089, 1114, 4071
1415, 335, 958, 985, 4071
1416, 995, 964, 971, 989
1417, 990, 966, 1006, 1027
1418, 939, 988, 966, 4049
1419, 4084, 998, 4062, 4082
1420, 1009, 972, 1004, 1022
1421, 1000, 4166, 1016, 1136
1422, 1010, 992, 953, 1030
1423, 994, 993, 974, 1013
1424, 1031, 998, 1014, 1034
1425, 995, 1023, 4060, 964
1426, 1015, 950, 996, 1043
1427, 977, 969, 997, 1016
1428, 969, 994, 1013, 997
1429, 1040, 1008, 998, 1031
1430, 970, 1044, 1001, 4069
1431, 950, 1015, 978, 4083
1432, 1035, 4167, 1000, 1136
1433, 1065, 1001, 367, 1091
1434, 1018, 980, 1000, 4167
1435, 1002, 4121, 1036, 1019
1436, 4060, 1007, 987, 937
1437, 1024, 988, 1005, 1038
1438, 1023, 995, 1008, 1040
1439, 4076, 1007, 4060, 1023
1440, 1026, 1011, 991, 1009
1441, 1010, 1030, 1041, 1028
1442, 4275, 1004, 1010, 1028
1443, 1027, 1042, 1012, 990
1444, 976, 1014, 998, 4084
1445, 996, 1012, 1042, 1043
1446, 1011, 1026, 1029, 4218
1447, 345, 999, 1017, 1033
1448, 4195, 1086, 1088, 1051
1449, 1052, 1048, 1003, 1020
1450, 2410, 1021, 369, 4067
1451, 733, 986, 2155, 87
1452, 1039, 1026, 1009, 1022
1453, 1038, 1005, 1025, 1076
1454, 1056, 1074, 1024, 1038
1455, 1074, 1059, 1006, 1024
1456, 1025, 1037, 1057, 1076
1457, 4218, 1045, 1016, 997
1458, 1027, 1006, 1059, 4116
1459, 1045, 4218, 1029, 1073
1460, 1023, 1040, 1054, 4076
1461, 1044, 1032, 4131, 1063
1462, 4131, 1032, 1061, 4169
1463, 1033, 1066, 1047, 345
1464, 1058, 1031, 1049, 1077
1465, 4167, 1050, 4121, 1018
1466, 1068, 1099, 1106, 4223
1467, 4076, 1075, 1037, 1007
1468, 1098, 1093, 1053, 1072
1469, 4275, 357, 1022, 1004
1470, 1039, 1022, 357, 1053
1471, 1049, 1031, 1034, 1062
1472, 1058, 1054, 1040, 1031
1473, 1064, 1041, 1046, 1083
1474, 1060, 4116, 1079, 4165
1475, 1029, 1026, 1039, 1073
1476, 357, 4275, 1072, 1053
1477, 1042, 1060, 4197, 1043
1478, 367, 1001, 1044, 1063
1479, 1072, 1055, 1081, 1098
1480, 1136, 1016, 1045, 1104
1481, 1149, 1067, 1887, 380
1482, 4261, 1071, 1033, 1017
1483, 1066, 1033, 1071, 4264
1484, 1062, 1034, 1047, 1085
1485, 1104, 1070, 1035, 1136
1486, 4195, 1068, 4223, 1086
1487, 4223, 1106, 1130, 1086
1488, 1884, 1052, 1020, 4181
1489, 1052, 1888, 1092, 1048
1490, 1055, 1072, 4275, 1028
1491, 4076, 1054, 4119, 1075
1492, 1115, 1093, 1098, 1127
1493, 1122, 1140, 1168, 1148
1494, 1057, 1037, 1075, 4139
1495, 1076, 1057, 1120, 1119
1496, 1054, 1058, 1078, 4119
1497, 1096, 1059, 1074, 1116
1498, 1079, 4116, 1059, 1096
1499, 1080, 1061, 4197, 4165
1500, 1061, 1032, 1043, 4197
1501, 1085, 1047, 1066, 1110
1502, 1077, 1049, 1082, 1094
1503, 1155, 1091, 1179, 390
1504, 1083, 1046, 1067, 1149
1505, 1123, 1087, 1100, 1139
1506, 1113, 1065, 1091, 1155
1507, 1135, 1154, 1110, 1090
1508, 1887, 1067, 379, 2335
1509, 1128, 1083, 1149, 1173
1510, 1036, 1087, 1068, 4195
1511, 1130, 1106, 1144, 1172
1512, 1109, 1114, 1089, 1069
1513, 4150, 4106, 1051, 1088
1514, 4279, 4216, 1035, 1070
1515, 1053, 1093, 1073, 1039
1516, 1055, 1064, 1097, 1081
1517, 1104, 1045, 1073, 1093
1518, 1076, 1119, 1056, 1038
1519, 1078, 1058, 1077, 1094
1520, 1120, 4139, 1101, 4206
1521, 1120, 1141, 1145, 1119
1522, 1082, 1049, 1062, 1103
1523, 1101, 4119, 1078, 4164
1524, 1122, 1079, 1096, 1140
1525, 4116, 1060, 1042, 1027
1526, 1080, 4165, 1102, 1108
1527, 4170, 4169, 1108, 1150
1528, 1164, 4280, 1138, 1117
1529, 1103, 1062, 1085, 1131
1530, 1126, 1082, 1103, 1151
1531, 1097, 1064, 1111, 1118
1532, 1061, 1080, 1108, 4169
1533, 1152, 1196, 1132, 1125
1534, 1131, 1085, 1110, 1154
1535, 1088, 1086, 1105, 1134
1536, 1109, 1134, 1133, 4129
1537, 4216, 1100, 1087, 1050
1538, 1089, 4099, 4150, 1069
1539, 1090, 2144, 4341, 1135
1540, 323, 1071, 1092, 2256
1541, 1075, 4119, 1101, 4139
1542, 1171, 1145, 1163, 1192
1543, 1119, 1137, 1095, 1056
1544, 1140, 1096, 1116, 1159
1545, 1111, 1064, 1083, 1128
1546, 1139, 1100, 4280, 1164
1547, 1081, 1097, 1117, 1138
1548, 1099, 1068, 1087, 1123
1549, 1115, 1127, 4279, 1070
1550, 1164, 1117, 1147, 1187
1551, 1104, 1093, 1115, 1070
1552, 1172, 1197, 1146, 1130
1553, 1106, 1099, 1124, 1144
1554, 1084, 1125, 1132, 1107
1555, 1129, 1112, 1107, 1273
1556, 1150, 1108, 1102, 1170
1557, 1088, 1134, 1109, 1069
1558, 4098, 2100, 4071, 1114
1559, 1117, 1097, 1118, 1147
1560, 1179, 1112, 1129, 390
1561, 2141, 1113, 1155, 2133
1562, 1180, 1156, 1113, 2141
1563, 4072, 2394, 313, 2399
1564, 1137, 1159, 1116, 1095
1565, 4253, 1111, 1128, 4252
1566, 1160, 1143, 1169, 1191
1567, 4164, 1121, 4206, 1101
1568, 1141, 1120, 4206, 4262
1569, 4206, 1121, 4320, 4262
1570, 4262, 4320, 4322, 1141
1571, 1142, 1094, 1082, 1126
1572, 1079, 1122, 1102, 4165
1573, 1143, 1123, 1139, 1169
1574, 1099, 1123, 1143, 1124
1575, 1166, 1188, 1144, 1124
1576, 1177, 4170, 1150, 1182
1577, 1102, 1122, 1148, 1170
1578, 1273, 1107, 1132, 1245
1579, 1125, 1084, 4170, 1177
1580, 1142, 1161, 1121, 4164
1581, 4280, 4279, 1127, 1138
1582, 1138, 1127, 1098, 1081
1583, 4254, 4252, 1128, 1173
1584, 1105, 1086, 1130, 1146
1585, 1176, 1151, 1131, 1154
1586, 1152, 1125, 1177, 1186
1587, 1243, 1175, 1224, 1271
1588, 2100, 4098, 336, 1983
1589, 1153, 1105, 1146, 1174
1590, 1133, 1134, 1175, 1243
1591, 1135, 322, 4319, 1154
1592, 1194, 1159, 1137, 1171
1593, 1169, 1139, 1164, 1187
1594, 1191, 1204, 1226, 1252
1595, 1147, 1118, 1162, 1189
1596, 1140, 1159, 1185, 1168
1597, 1165, 1201, 1161, 1142
1598, 1160, 1166, 1124, 1143
1599, 1183, 1206, 1166, 1160
1600, 1145, 1171, 1137, 1119
1601, 4253, 1162, 1118, 1111
1602, 344, 1165, 1126, 1151
1603, 1245, 1132, 1196, 1272
1604, 1200, 1153, 1174, 1223
1605, 1134, 1105, 1153, 1175
1606, 1199, 1176, 1202, 1225
1607, 2133, 1155, 390, 2176
1608, 984, 1156, 1180, 368
1609, 1906, 1157, 335, 2137
1610, 1884, 4181, 2161, 324
1611, 1190, 4285, 4253, 4252
1612, 4336, 1249, 1205, 4285
1613, 1163, 1145, 1141, 4322
1614, 1207, 1227, 1213, 1185
1615, 1165, 344, 1222, 1201
1616, 1183, 1209, 1228, 1206
1617, 1167, 1195, 4406, 1241
1618, 1193, 1170, 1148, 1168
1619, 1259, 1198, 1246, 1282
1620, 1215, 1190, 4252, 4254
1621, 1186, 1177, 1182, 4314
1622, 1194, 1171, 1192, 1218
1623, 1188, 1214, 1172, 1144
1624, 1198, 1173, 1220, 1246
1625, 1263, 4380, 1237, 1287
1626, 1175, 1153, 1200, 1224
1627, 1270, 1271, 1224, 1294
1628, 1182, 1150, 1170, 1212
1629, 347, 959, 1178, 4051
1630, 390, 1129, 1203, 2146
1631, 1188, 1166, 1206, 1230
1632, 1161, 1201, 1208, 1184
1633, 1208, 1233, 1210, 1184
1634, 1194, 1207, 1185, 1159
1635, 1211, 1195, 1186, 4314
1636, 1152, 1186, 1195, 1167
1637, 4285, 1205, 1162, 4253
1638, 1187, 1189, 1226, 1204
1639, 1229, 4336, 4285, 1190
1640, 1160, 1191, 1209, 1183
1641, 1204, 1191, 1169, 1187
1642, 1210, 1163, 4322, 1184
1643, 1218, 1234, 1255, 1238
1644, 1236, 1193, 1213, 1264
1645, 1212, 1170, 1193, 1236
1646, 4406, 1195, 1211, 4435
1647, 1196, 1152, 1167, 1221
1648, 1214, 1237, 1197, 1172
1649, 1174, 1146, 1197, 1216
1650, 1215, 4254, 1240, 1260
1651, 1217, 1199, 1225, 1232
1652, 1223, 1174, 1216, 4380
1653, 1224, 1200, 4312, 1294
1654, 1222, 344, 1199, 1217
1655, 322, 1405, 1247, 4319
1656, 1267, 1332, 1361, 1313
1657, 1203, 389, 2254, 2146
1658, 1205, 1226, 1189, 1162
1659, 4389, 4388, 1275, 1251
1660, 1277, 1228, 1251, 1299
1661, 1206, 1228, 1253, 1230
1662, 1192, 4344, 1234, 1218
1663, 1239, 4315, 1212, 1236
1664, 1231, 1222, 1217, 1232
1665, 1251, 1228, 1209, 4389
1666, 1233, 1257, 4344, 1210
1667, 1163, 1210, 4344, 1192
1668, 4314, 1182, 1212, 4315
1669, 1218, 1238, 1207, 1194
1670, 1213, 1193, 1168, 1185
1671, 1230, 1256, 1214, 1188
1672, 1235, 1211, 4314, 4315
1673, 1250, 1229, 1190, 1215
1674, 1238, 1255, 1281, 1254
1675, 1246, 1220, 1336, 1316
1676, 4289, 1282, 1246, 1316
1677, 1244, 1272, 1196, 1221
1678, 1231, 1208, 1201, 1222
1679, 1296, 1243, 1271, 1339
1680, 4343, 1202, 4319, 1247
1681, 1264, 1227, 1254, 1280
1682, 4387, 4336, 1229, 1276
1683, 1253, 1278, 1256, 1230
1684, 1258, 1284, 1257, 1233
1685, 1231, 1232, 1268, 1258
1686, 1232, 1225, 1248, 1265
1687, 1258, 1233, 1208, 1231
1688, 1238, 1254, 1227, 1207
1689, 4381, 4380, 1263, 4438
1690, 1216, 1197, 1237, 4380
1691, 1283, 1239, 1236, 1264
1692, 1235, 4315, 1239, 1261
1693, 1300, 4469, 1277, 1318
1694, 4288, 1259, 4331, 1279
1695, 1211, 1235, 1262, 4435
1696, 1269, 1311, 1219, 1241
1697, 1325, 1288, 4439, 4440
1698, 1337, 1294, 4359, 1334
1699, 1266, 4312, 1242, 1291
1700, 1243, 1296, 336, 1133
1701, 1338, 1244, 1292, 1357
1702, 1273, 389, 1203, 1129
1703, 4331, 1259, 1282, 1326
1704, 1247, 1332, 1267, 4343
1705, 4343, 1248, 1225, 1202
1706, 1267, 1289, 1248, 4343
1707, 4387, 358, 1275, 4388
1708, 1226, 1205, 1249, 1252
1709, 1250, 1215, 1260, 1298
1710, 1229, 1250, 1274, 1276
1711, 4288, 1279, 1260, 1240
1712, 1209, 1191, 1252, 4389
1713, 1283, 4441, 4442, 1304
1714, 1257, 1285, 1234, 4344
1715, 1254, 1281, 1301, 1280
1716, 1256, 1278, 1303, 1287
1717, 1237, 1214, 1256, 1287
1718, 1284, 1293, 4454, 1314
1719, 1258, 1268, 1293, 1284
1720, 1318, 1277, 1299, 1306
1721, 1240, 1198, 1259, 4288
1722, 1274, 1250, 1298, 4437
1723, 1286, 1262, 1235, 1261
1724, 1290, 1269, 1241, 4406
1725, 1307, 1263, 1287, 1324
1726, 1291, 1242, 4381, 1288
1727, 1331, 1291, 1310, 1352
1728, 1267, 1313, 1375, 1289
1729, 1268, 1232, 1265, 4451
1730, 1292, 1219, 1311, 1333
1731, 1271, 1270, 1295, 1339
1732, 1360, 1272, 4377, 4378
1733, 358, 1276, 1274, 4437
1734, 4388, 4389, 1252, 1249
1735, 1275, 358, 4437, 1297
1736, 1253, 1228, 1277, 4469
1737, 1299, 1251, 1275, 1297
1738, 4469, 1320, 1278, 1253
1739, 1306, 1298, 1260, 1279
1740, 4521, 1335, 1378, 1421
1741, 1301, 1323, 4441, 1280
1742, 1285, 1257, 1284, 1314
1743, 1302, 1281, 1255, 4401
1744, 1320, 1344, 1303, 1278
1745, 1261, 1239, 1283, 1304
1746, 1283, 1264, 1280, 4441
1747, 4451, 1265, 1248, 1289
1748, 1285, 4401, 1255, 1234
1749, 1307, 4439, 4438, 1263
1750, 1310, 1291, 1288, 1325
1751, 4452, 4451, 1309, 1354
1752, 1262, 1286, 4468, 1308
1753, 1353, 4507, 1329, 1368
1754, 1331, 1377, 1317, 4408
1755, 1357, 1292, 1333, 1380
1756, 1309, 4451, 1289, 1375
1757, 1367, 1397, 1343, 4466
1758, 1315, 1326, 1282, 4289
1759, 4408, 1266, 1291, 1331
1760, 1362, 1382, 1337, 1381
1761, 1270, 1294, 1337, 1382
1762, 1321, 1318, 1306, 1279
1763, 1279, 4331, 1312, 1321
1764, 4521, 1388, 1367, 1351
1765, 4452, 1335, 4454, 1293
1766, 4442, 4441, 1323, 4506
1767, 1304, 1305, 1286, 1261
1768, 1324, 1287, 1303, 4470
1769, 1286, 1305, 1328, 4468
1770, 1308, 4468, 1346, 1329
1771, 1354, 1309, 1375, 1387
1772, 1385, 1349, 1366, 4568
1773, 1269, 1290, 4507, 1311
1774, 1353, 1333, 1311, 4507
1775, 1365, 1312, 1341, 1386
1776, 1375, 1313, 343, 1387
1777, 1314, 1327, 4401, 1285
1778, 1330, 4289, 1316, 1358
1779, 1317, 4359, 1266, 4408
1780, 1306, 1299, 1297, 1298
1781, 1345, 1319, 1364, 1383
1782, 1319, 1305, 1304, 4442
1783, 1340, 1300, 1318, 1321
1784, 1302, 4466, 1343, 1322
1785, 1327, 1314, 4454, 1351
1786, 1301, 1322, 1347, 1323
1787, 1326, 1315, 1342, 1341
1788, 4440, 1348, 1366, 1325
1789, 1312, 4331, 1326, 1341
1790, 4401, 1327, 4466, 1302
1791, 4468, 1328, 4522, 1346
1792, 4467, 1329, 4507, 1290
1793, 1342, 1315, 1356, 1373
1794, 1315, 4289, 1330, 1356
1795, 1352, 1310, 1349, 1371
1796, 1332, 1247, 1405, 321
1797, 1361, 1332, 321, 1426
1798, 1333, 1353, 1379, 1380
1799, 1381, 1337, 1334, 4409
1800, 1354, 1378, 1335, 4452
1801, 1397, 1417, 1374, 1343
1802, 1336, 2138, 1982, 4258
1803, 1316, 1336, 4258, 381
1804, 1295, 1270, 1382, 4360
1805, 4431, 4377, 1338, 388
1806, 1272, 1244, 1338, 4377
1807, 1910, 1359, 1363, 2175
1808, 1300, 1340, 1344, 1320
1809, 1348, 1324, 4470, 1370
1810, 1373, 1407, 1372, 1342
1811, 1347, 1322, 1343, 1374
1812, 1344, 4502, 4470, 1303
1813, 1364, 4506, 1350, 4565
1814, 1328, 1345, 1369, 4522
1815, 1368, 1329, 1346, 4580
1816, 1347, 1350, 4506, 1323
1817, 1325, 1366, 1349, 1310
1818, 1350, 1347, 1374, 1390
1819, 4506, 1364, 1319, 4442
1820, 1327, 1351, 1367, 4466
1821, 1317, 1377, 1355, 4409
1822, 366, 1379, 1353, 1368
1823, 1354, 1387, 1396, 1378
1824, 1402, 1362, 1381, 1425
1825, 1330, 1358, 1376, 4402
1826, 1373, 1356, 4403, 4443
1827, 388, 1338, 1357, 1442
1828, 1401, 1358, 381, 1424
1829, 1415, 4448, 4447, 1401
1830, 1983, 1359, 1910, 313
1831, 336, 1296, 1359, 1983
1832, 4378, 4377, 4431, 2056
1833, 1245, 1360, 389, 1273
1834, 1404, 1362, 1402, 1531
1835, 4360, 1895, 337, 1295
1836, 1383, 1364, 4565, 1408
1837, 1383, 1432, 1369, 1345
1838, 1340, 1321, 1312, 1365
1839, 1372, 1389, 1370, 4530
1840, 1371, 1349, 1385, 1411
1841, 4522, 1384, 4580, 1346
1842, 4522, 1369, 4583, 1384
1843, 4502, 1365, 1386, 4530
1844, 1341, 1342, 1372, 1386
1845, 1494, 1473, 1515, 1493
1846, 1377, 1352, 1394, 4496
1847, 1407, 1427, 1389, 1372
1848, 1416, 1440, 1396, 1395
1849, 1391, 4449, 4403, 4402
1850, 1394, 1352, 1371, 1413
1851, 1418, 1441, 1400, 1392
1852, 1419, 1462, 1463, 1442
1853, 1355, 1377, 4496, 1399
1854, 1448, 4600, 1492, 1509
1855, 1556, 4360, 1404, 1578
1856, 1404, 4360, 1382, 1362
1857, 1387, 343, 1395, 1396
1858, 1390, 1408, 4565, 1350
1859, 1368, 4580, 1393, 366
1860, 1410, 1427, 1449, 1431
1861, 1410, 1431, 1385, 4568
1862, 1420, 343, 1313, 1403
1863, 1422, 1433, 1417, 1397
1864, 1422, 1397, 1367, 1388
1865, 1474, 1348, 1370, 1389
1866, 4568, 1474, 1389, 1410
1867, 1436, 1452, 1408, 1390
1868, 1406, 4509, 4449, 1391
1869, 1398, 1391, 4402, 1376
1870, 1409, 1407, 1373, 4443
1871, 1414, 1393, 1384, 4583
1872, 1413, 1371, 1411, 1434
1873, 1439, 1394, 1413, 1455
1874, 1432, 1408, 1452, 1435
1875, 1421, 1378, 1396, 1440
1876, 4447, 1376, 1358, 1401
1877, 4448, 1415, 1456, 1429
1878, 1423, 4496, 1394, 1439
1879, 1459, 1485, 1441, 1418
1880, 1380, 1379, 1400, 1419
1881, 1415, 1401, 1447, 1443
1882, 1531, 1448, 1509, 1550
1883, 1448, 1531, 1402, 4537
1884, 1445, 1420, 1403, 4555
1885, 1409, 4510, 1428, 1407
1886, 1391, 1398, 4501, 1406
1887, 1385, 1431, 1450, 1411
1888, 1390, 1374, 1417, 1436
1889, 1393, 1414, 1430, 1437
1890, 1409, 4449, 4509, 4510
1891, 1481, 1443, 1466, 1502
1892, 1412, 4583, 1369, 1432
1893, 1437, 1392, 366, 1393
1894, 1455, 1413, 1434, 1475
1895, 1456, 1415, 1443, 1481
1896, 4501, 1429, 1471, 1451
1897, 1420, 1444, 1395, 343
1898, 1440, 1416, 1461, 1484
1899, 1436, 1417, 1433, 1460
1900, 4611, 1438, 1458, 4652
1901, 1419, 1400, 1441, 1462
1902, 388, 1442, 1463, 1511
1903, 1420, 1445, 1465, 1444
1904, 1388, 4521, 1421, 1438
1905, 1458, 1438, 1421, 1440
1906, 1399, 4496, 1423, 1446
1907, 1491, 1526, 1467, 1446
1908, 4482, 1426, 321, 2171
1909, 4555, 2140, 1514, 1445
1910, 1406, 4501, 1451, 4562
1911, 1435, 1476, 1412, 1432
1912, 1453, 1457, 1430, 1414
1913, 1434, 1411, 1450, 1473
1914, 1435, 1452, 1500, 1476
1915, 1412, 1453, 1414, 4583
1916, 4612, 4611, 4652, 1482
1917, 1454, 1418, 1392, 1437
1918, 1422, 1388, 1438, 4611
1919, 1446, 1423, 1464, 1491
1920, 1444, 1461, 1416, 1395
1921, 1489, 4612, 1482, 1506
1922, 1459, 1418, 1454, 1477
1923, 1462, 1512, 1488, 1463
1924, 1447, 1401, 1424, 1468
1925, 1584, 1558, 4627, 1559
1926, 1445, 1514, 1490, 1465
1927, 1464, 1423, 1439, 1483
1928, 4600, 1448, 4537, 1508
1929, 1447, 1486, 1466, 1443
1930, 1428, 1449, 1427, 1407
1931, 1469, 1470, 359, 4562
1932, 1493, 1451, 1471, 1494
1933, 4562, 1451, 1493, 1469
1934, 1471, 1429, 1456, 1495
1935, 1454, 1437, 1430, 1457
1936, 1498, 1455, 1475, 4614
1937, 1515, 1472, 1469, 1493
1938, 1500, 1452, 1480, 4630
1939, 1478, 1477, 1454, 1457
1940, 1462, 1441, 1485, 1512
1941, 1477, 1478, 1497, 1517
1942, 1436, 1460, 1480, 1452
1943, 1487, 1444, 1465, 1510
1944, 1501, 1482, 4652, 1484
1945, 1460, 1433, 4612, 1489
1946, 1458, 1440, 1484, 4652
1947, 1511, 1463, 1488, 387
1948, 1483, 1439, 1455, 1498
1949, 1510, 1465, 1490, 342
1950, 1494, 1524, 4614, 1475
1951, 4645, 4600, 1508, 1540
1952, 1470, 4608, 4564, 359
1953, 1475, 1434, 1473, 1494
1954, 1348, 1474, 4568, 1366
1955, 1495, 1521, 1536, 1524
1956, 1479, 1478, 1457, 1453
1957, 1453, 1412, 1476, 1479
1958, 1485, 1459, 1503, 1520
1959, 1499, 1497, 1478, 1479
1960, 1496, 1480, 1460, 1489
1961, 1516, 1497, 1499, 1518
1962, 1464, 1507, 1541, 1491
1963, 1487, 1504, 1461, 1444
1964, 1484, 1461, 1504, 1501
1965, 1503, 1459, 1477, 1517
1966, 1512, 1548, 1575, 1488
1967, 1486, 1533, 1513, 1466
1968, 1502, 1466, 1513, 1532
1969, 320, 1886, 1601, 1581
1970, 1507, 1464, 1483, 1522
1971, 1508, 1467, 1526, 1540
1972, 1547, 1527, 4624, 4669
1973, 1527, 1530, 1492, 4624
1974, 1494, 1471, 1495, 1524
1975, 1495, 1456, 1481, 1521
1976, 1521, 1481, 1502, 1542
1977, 4647, 1479, 1476, 1500
1978, 4630, 1523, 4647, 1500
1979, 1521, 1542, 4596, 1536
1980, 1501, 1504, 1528, 1525
1981, 4630, 1480, 1496, 1523
1982, 1572, 1544, 1598, 1608
1983, 1504, 1487, 1534, 1528
1984, 1523, 1551, 1518, 4647
1985, 1522, 1564, 1558, 1507
1986, 1543, 1503, 1517, 1537
1987, 1534, 1487, 1510, 1529
1988, 1505, 1581, 1553, 1535
1989, 1535, 1554, 4676, 342
1990, 1489, 1506, 1519, 1496
1991, 1483, 1498, 1564, 1522
1992, 1541, 1565, 1526, 1491
1993, 1527, 1547, 1570, 4625
1994, 4669, 4624, 4645, 1540
1995, 1550, 1549, 1573, 1578
1996, 1549, 1550, 1509, 4538
1997, 1528, 1534, 1552, 1545
1998, 1901, 1511, 387, 4603
1999, 2150, 1511, 1901, 4560
2000, 1512, 1485, 1520, 1548
2001, 4492, 1532, 1513, 1555
2002, 320, 1581, 1514, 2140
2003, 1515, 1473, 1450, 1472
2004, 1537, 1517, 1497, 1516
2005, 4647, 1518, 1499, 1479
2006, 1520, 1503, 1543, 1566
2007, 1518, 1551, 1539, 1516
2008, 1506, 1525, 1544, 1519
2009, 1548, 1520, 1566, 1583
2010, 1523, 1496, 1519, 1551
2011, 4641, 4614, 1524, 1536
2012, 1571, 1572, 1608, 1587
2013, 1507, 1538, 1569, 1541
2014, 1546, 1530, 1527, 4625
2015, 1510, 342, 4676, 1529
2016, 1552, 1534, 1529, 1579
2017, 1599, 1554, 1580, 1620
2018, 1546, 4648, 1595, 4563
2019, 1509, 1492, 1530, 4538
2020, 1531, 1550, 1578, 1404
2021, 1576, 1533, 1596, 1621
2022, 4676, 1554, 1579, 1529
2023, 1564, 4641, 4627, 1558
2024, 1560, 1516, 1539, 4693
2025, 1607, 1585, 1569, 1538
2026, 1544, 1525, 1568, 1598
2027, 1547, 4669, 1567, 4683
2028, 1502, 1532, 4554, 1542
2029, 1562, 1602, 1563, 4554
2030, 1543, 1537, 1561, 4695
2031, 365, 1566, 1543, 4695
2032, 1532, 4492, 1562, 4554
2033, 1545, 1568, 1525, 1528
2034, 1612, 1608, 1598, 1568
2035, 1617, 1633, 1658, 1680
2036, 1549, 1574, 1600, 1573
2037, 1565, 1589, 1540, 1526
2038, 1547, 4683, 1590, 1570
2039, 1548, 1583, 1597, 1575
2040, 1578, 1573, 338, 1556
2041, 1519, 1544, 1572, 1551
2042, 1577, 1552, 1579, 1593
2043, 1601, 1707, 1553, 1581
2044, 1580, 1553, 1707, 341
2045, 1580, 1554, 1535, 1553
2046, 1588, 1555, 1576, 1616
2047, 1557, 4492, 1555, 1588
2048, 1556, 2134, 1895, 4360
2049, 1603, 1557, 1588, 1628
2050, 1557, 1582, 1562, 4492
2051, 1538, 1507, 1558, 1584
2052, 1542, 4554, 1563, 4596
2053, 1538, 1584, 1605, 1607
2054, 1560, 4693, 4706, 1615
2055, 1561, 1560, 1615, 1594
2056, 1586, 1605, 1584, 1559
2057, 1559, 4596, 1563, 1586
2058, 1564, 1498, 4614, 4641
2059, 1589, 1565, 1585, 1609
2060, 365, 1611, 1583, 1566
2061, 1603, 1623, 1582, 1557
2062, 1551, 1572, 1571, 1539
2063, 1577, 1592, 1545, 1552
2064, 1541, 1569, 1585, 1565
2065, 1570, 1590, 1610, 4670
2066, 1591, 4625, 1570, 4670
2067, 1539, 1571, 1587, 4693
2068, 1574, 1549, 4538, 4563
2069, 1618, 1686, 1573, 1600
2070, 1617, 1574, 4563, 1595
2071, 387, 1488, 1575, 1655
2072, 1677, 1659, 1621, 1596
2073, 1608, 1612, 1637, 1627
2074, 1593, 1579, 1554, 1599
2075, 1628, 1588, 1616, 1651
2076, 1582, 360, 1602, 1562
2077, 365, 1594, 1632, 1611
2078, 1653, 1656, 1636, 1622
2079, 1644, 4623, 1664, 1665
2080, 1641, 1642, 1625, 360
2081, 1587, 4707, 4706, 4693
2082, 1629, 1604, 1609, 1644
2083, 1604, 1629, 1645, 1606
2084, 1589, 1567, 4669, 1540
2085, 1606, 4691, 1590, 4683
2086, 1546, 4625, 1591, 4648
2087, 4648, 1613, 4649, 1595
2088, 1568, 1545, 1592, 1612
2089, 1614, 1577, 1593, 1640
2090, 1619, 1640, 1593, 1599
2091, 1614, 1630, 1592, 1577
2092, 4710, 1594, 1615, 4706
2093, 1594, 365, 4695, 1561
2094, 1633, 1617, 1595, 4649
2095, 4349, 1677, 1596, 382
2096, 1616, 1576, 1621, 1639
2097, 1636, 4664, 1597, 1622
2098, 1620, 1580, 341, 1634
2099, 1661, 1652, 1619, 1638
2100, 1707, 1601, 1729, 1687
2101, 1586, 1625, 1642, 1605
2102, 1585, 1607, 1624, 1609
2103, 1604, 1606, 4683, 1567
2104, 1604, 1567, 1589, 1609
2105, 1624, 1642, 1641, 4623
2106, 4710, 4706, 4707, 1648
2107, 1646, 1610, 1626, 1690
2108, 4678, 4670, 1610, 1646
2109, 1647, 1668, 1693, 1672
2110, 1654, 1672, 1699, 1681
2111, 1650, 1660, 1637, 1630
2112, 1587, 1608, 1627, 4707
2113, 1658, 4631, 1705, 1680
2114, 339, 1686, 1618, 1747
2115, 1634, 1662, 1638, 1620
2116, 1614, 1640, 1682, 1657
2117, 1639, 1621, 1659, 1678
2118, 1635, 1583, 1611, 1649
2119, 1670, 1700, 1656, 1653
2120, 360, 1582, 1623, 1641
2121, 1624, 1607, 1605, 1642
2122, 1625, 1586, 1563, 1602
2123, 1665, 1645, 1629, 1644
2124, 1626, 4691, 1667, 4699
2125, 1626, 1610, 1590, 4691
2126, 1630, 1637, 1612, 1592
2127, 4716, 1676, 1702, 1669
2128, 1651, 1616, 1639, 1673
2129, 1644, 1609, 1624, 4623
2130, 1623, 1603, 1643, 1664
2131, 1646, 1668, 1631, 4678
2132, 1591, 1631, 1613, 4648
2133, 4674, 1654, 1633, 4649
2134, 1633, 1654, 1681, 1658
2135, 1634, 341, 1663, 1685
2136, 1661, 1674, 1751, 1652
2137, 1649, 1611, 1632, 1695
2138, 4697, 1635, 1649, 4698
2139, 1636, 4687, 1683, 4664
2140, 1640, 1619, 1652, 1682
2141, 1697, 1723, 1751, 1674
2142, 1643, 1603, 1628, 4629
2143, 1664, 4623, 1641, 1623
2144, 1664, 1643, 1671, 1665
2145, 1671, 1688, 1689, 1666
2146, 1647, 1613, 1631, 1668
2147, 1647, 1672, 1654, 4674
2148, 1648, 4712, 4711, 4710
2149, 1627, 1637, 1660, 4709
2150, 4712, 1669, 1692, 1695
2151, 1630, 1614, 1657, 1650
2152, 1649, 1695, 1692, 4698
2153, 1679, 1676, 1650, 1657
2154, 1653, 1622, 1635, 4697
2155, 1700, 1739, 1675, 1656
2156, 1725, 1705, 4631, 1746
2157, 1680, 1705, 1618, 1600
2158, 1659, 383, 1701, 1678
2159, 1673, 1639, 1678, 4606
2160, 4709, 1669, 4712, 1648
2161, 1684, 1661, 1662, 1706
2162, 1722, 1684, 1706, 1745
2163, 1687, 1663, 341, 1707
2164, 1685, 1663, 1730, 1728
2165, 1671, 1643, 4629, 1688
2166, 1667, 4691, 1666, 1689
2167, 1709, 1667, 1689, 1716
2168, 4698, 1711, 1694, 4697
2169, 4629, 1628, 1651, 1691
2170, 1691, 1651, 1673, 1710
2171, 1676, 4716, 1660, 1650
2172, 1660, 4716, 1669, 4709
2173, 1653, 4697, 1694, 1670
2174, 1670, 1712, 1719, 1700
2175, 1645, 1665, 1671, 1666
2176, 1714, 1672, 1693, 1733
2177, 1699, 1718, 1743, 1724
2178, 4629, 1691, 4655, 1688
2179, 1751, 4715, 1682, 1652
2180, 4687, 1696, 1727, 1683
2181, 1636, 1656, 1675, 4687
2182, 1692, 1720, 1711, 4698
2183, 383, 1659, 1677, 4423
2184, 1678, 1701, 1715, 4606
2185, 1657, 1682, 4715, 1679
2186, 1679, 1717, 1698, 1676
2187, 1681, 1699, 1724, 1704
2188, 4664, 1683, 1897, 1655
2189, 1685, 1706, 1662, 1634
2190, 1728, 1745, 1706, 1685
2191, 2135, 339, 1898, 2243
2192, 338, 1573, 1686, 2162
2193, 1882, 1729, 319, 2247
2194, 4655, 1691, 1710, 4654
2195, 1709, 4700, 4699, 1667
2196, 4700, 1731, 1713, 1690
2197, 1668, 1646, 1690, 1713
2198, 1716, 4684, 1736, 1709
2199, 1702, 1720, 1692, 1669
2200, 1713, 4705, 1693, 1668
2201, 4710, 4711, 1632, 1594
2202, 1727, 1696, 386, 4668
2203, 1744, 1697, 1684, 1722
2204, 1760, 1717, 1723, 1697
2205, 1698, 1721, 1702, 1676
2206, 1714, 1718, 1699, 1672
2207, 1739, 1700, 1719, 1759
2208, 1814, 1810, 1783, 1796
2209, 1710, 1703, 1732, 4654
2210, 1740, 4606, 1715, 1757
2211, 1705, 1725, 1747, 1618
2212, 1658, 1681, 1704, 4631
2213, 1746, 4659, 1765, 1786
2214, 319, 1729, 1601, 1886
2215, 1730, 1708, 1889, 1865
2216, 1789, 1772, 1770, 1805
2217, 1719, 1712, 1754, 364
2218, 1712, 1670, 1694, 1742
2219, 1779, 1740, 1757, 1791
2220, 1718, 1714, 1738, 1761
2221, 1757, 1715, 1748, 1783
2222, 1703, 4606, 1740, 1755
2223, 1716, 1689, 1688, 4655
2224, 1773, 1735, 1721, 1756
2225, 1720, 1702, 1721, 1735
2226, 1737, 1698, 1717, 1760
2227, 1737, 1756, 1721, 1698
2228, 1744, 1741, 1760, 1697
2229, 4715, 1723, 1717, 1679
2230, 1741, 1778, 1737, 1760
2231, 1804, 1815, 1785, 1768
2232, 1704, 4659, 1746, 4631
2233, 1696, 1726, 1749, 386
2234, 1696, 4687, 1675, 1726
2235, 4626, 1892, 4603, 1897
2236, 1804, 1841, 1831, 1815
2237, 1771, 1755, 1740, 1779
2238, 1772, 1734, 1752, 1770
2239, 1753, 1775, 1731, 4700
2240, 1758, 1738, 1714, 1733
2241, 4684, 1716, 4655, 4654
2242, 4654, 1732, 1752, 4684
2243, 1734, 1772, 4703, 1736
2244, 4703, 4700, 1709, 1736
2245, 1743, 1718, 1761, 1784
2246, 1794, 1825, 1859, 1766
2247, 1792, 1758, 4702, 4692
2248, 361, 1832, 1755, 1771
2249, 1773, 1790, 1754, 1735
2250, 1735, 1742, 1711, 1720
2251, 1768, 1785, 1745, 1728
2252, 1762, 1782, 1744, 1722
2253, 1787, 1768, 1728, 1730
2254, 1844, 1841, 1842, 4686
2255, 4640, 1725, 1746, 1786
2256, 1765, 4659, 1743, 1784
2257, 1767, 1856, 1747, 1725
2258, 1701, 383, 1858, 1763
2259, 1769, 4679, 386, 1749
2260, 2157, 1892, 4626, 1750
2261, 1732, 1832, 1770, 1752
2262, 1753, 1789, 1806, 1775
2263, 1713, 1731, 1775, 4705
2264, 1732, 1703, 1755, 1832
2265, 1808, 1777, 1792, 1807
2266, 4705, 1776, 1733, 1693
2267, 361, 4680, 1819, 1805
2268, 1790, 4718, 364, 1754
2269, 1777, 1780, 1738, 1758
2270, 1744, 1782, 1764, 1741
2271, 4557, 1763, 1858, 2147
2272, 1796, 1783, 1748, 1763
2273, 1774, 1809, 1800, 1781
2274, 1799, 1764, 1795, 4719
2275, 1840, 1826, 1831, 1867
2276, 4640, 1788, 1767, 1725
2277, 1781, 1794, 1766, 1739
2278, 1749, 1726, 1766, 1859
2279, 340, 1856, 1767, 4642
2280, 4661, 4660, 1854, 1803
2281, 1791, 4665, 1820, 1779
2282, 4703, 1772, 1789, 1753
2283, 1756, 1778, 1799, 1773
2284, 1794, 1781, 1800, 1817
2285, 1774, 1759, 364, 4718
2286, 1789, 1805, 1819, 1806
2287, 1807, 1792, 4692, 4680
2288, 1733, 1776, 4702, 1758
2289, 1783, 1810, 1791, 1757
2290, 1784, 1761, 1798, 1816
2291, 1761, 1738, 1780, 4701
2292, 1762, 1785, 1815, 1801
2293, 1795, 1764, 1782, 1797
2294, 1799, 1778, 1741, 1764
2295, 1798, 1761, 4701, 1811
2296, 1867, 1863, 4708, 1840
2297, 1803, 1804, 1768, 1787
2298, 1802, 1765, 1784, 1816
2299, 4661, 1803, 1787, 1855
2300, 1788, 1857, 4642, 1767
2301, 1805, 1770, 1832, 361
2302, 4718, 1790, 1809, 1774
2303, 1773, 1799, 4719, 1790
2304, 1820, 1807, 1771, 1779
2305, 4702, 1776, 1806, 1819
2306, 1793, 1780, 1777, 1808
2307, 1837, 1817, 1839, 1849
2308, 1859, 1825, 1847, 1883
2309, 1824, 1814, 1838, 1850
2310, 1813, 1782, 1762, 1801
2311, 1809, 1833, 1823, 1800
2312, 1793, 1811, 4701, 1780
2313, 1817, 1800, 1823, 1839
2314, 1826, 1801, 1815, 1831
2315, 1786, 1765, 1802, 1818
2316, 4686, 1842, 1829, 1818
2317, 4680, 361, 1771, 1807
2318, 1775, 1806, 1776, 4705
2319, 4692, 4702, 1819, 4680
2320, 1808, 1807, 1820, 4665
2321, 1797, 1812, 4717, 1795
2322, 1811, 1793, 1821, 1836
2323, 4665, 1821, 1793, 1808
2324, 1816, 1798, 1827, 1843
2325, 1813, 1822, 1797, 1782
2326, 1834, 1839, 1823, 1812
2327, 1813, 4714, 1835, 1822
2328, 4717, 1833, 4719, 1795
2329, 1796, 1763, 4557, 1828
2330, 1828, 1838, 1814, 1796
2331, 1802, 1830, 4686, 1818
2332, 1827, 1798, 1811, 1836
2333, 1827, 1836, 362, 1851
2334, 1817, 1837, 1825, 1794
2335, 1830, 1802, 1816, 1843
2336, 4665, 1791, 1810, 1821
2337, 1824, 1821, 1810, 1814
2338, 1812, 1823, 1833, 4717
2339, 1812, 1797, 1822, 1834
2340, 1883, 1847, 1878, 385
2341, 1848, 1826, 1840, 4708
2342, 1843, 1866, 1852, 1830
2343, 1838, 1828, 1853, 1862
2344, 1829, 1842, 1854, 4660
2345, 4640, 1829, 4660, 1788
2346, 1867, 1844, 1852, 1863
2347, 1841, 1804, 1803, 1854
2348, 4719, 1833, 1809, 1790
2349, 1822, 1835, 4713, 1845
2350, 1846, 1849, 1839, 1834
2351, 1848, 1861, 4713, 1835
2352, 1836, 1821, 1824, 362
2353, 1843, 1827, 1851, 1866
2354, 363, 1868, 1869, 1860
2355, 1837, 1849, 1860, 1872
2356, 1846, 1834, 1822, 1845
2357, 1852, 1866, 4704, 1863
2358, 1875, 1874, 1880, 1871
2359, 1830, 1852, 1844, 4686
2360, 1831, 1841, 1844, 1867
2361, 1846, 1845, 4713, 363
2362, 1849, 1846, 363, 1860
2363, 1847, 1825, 1837, 1872
2364, 1848, 1835, 4714, 1826
2365, 1868, 1861, 1871, 1880
2366, 362, 1824, 1850, 1864
2367, 1853, 384, 1879, 1873
2368, 1878, 1847, 1872, 1876
2369, 1857, 1788, 4660, 4661
2370, 1865, 1855, 1787, 1730
2371, 1855, 1865, 2151, 1894
2372, 1747, 1856, 1898, 339
2373, 1894, 4642, 1857, 1855
2374, 1899, 1858, 383, 4423
2375, 4598, 2253, 2242, 4526
2376, 1769, 1749, 1859, 1883
2377, 1848, 4708, 1871, 1861
2378, 4713, 1861, 1868, 363
2379, 1850, 1838, 1862, 1870
2380, 1873, 1878, 1876, 1877
2381, 1851, 362, 1864, 4696
2382, 1874, 1875, 4696, 1864
2383, 1877, 1876, 1869, 1881
2384, 1864, 1850, 1870, 1874
2385, 1875, 1863, 4704, 4696
2386, 1878, 1873, 1879, 385
2387, 1866, 1851, 4696, 4704
2388, 1853, 1873, 1877, 1862
2389, 1869, 1868, 1880, 1881
2390, 1877, 1881, 1870, 1862
2391, 1863, 1875, 1871, 4708
2392, 2147, 2122, 384, 4557
2393, 1881, 1880, 1874, 1870
2394, 4679, 1769, 2152, 2546
2395, 4181, 1020, 1158, 2132
2396, 2262, 320, 2140, 4482
2397, 2160, 1884, 324, 2328
2398, 2256, 1092, 1888, 2321
2399, 4656, 1889, 1882, 2247
2400, 1899, 2166, 2411, 406
2401, 2557, 2303, 4644, 2154
2402, 4668, 1891, 2154, 1750
2403, 4603, 1892, 2148, 1901
2404, 1958, 34, 641, 1972
2405, 1958, 402, 2131, 1893
2406, 2400, 4632, 2151, 4656
2407, 4642, 1894, 2182, 340
2408, 1363, 337, 1895, 2175
2409, 1896, 2143, 4433, 2153
2410, 387, 1655, 1897, 4603
2411, 2410, 2168, 1900, 2155
2412, 1426, 4482, 2140, 4555
2413, 1977, 1973, 39, 664
2414, 1908, 1904, 2169, 2172
2415, 4071, 2100, 2137, 335
2416, 1906, 4040, 1977, 1902
2417, 1915, 109, 2030, 4035
2418, 2282, 1909, 1913, 595
2419, 314, 2288, 1910, 2175
2420, 1911, 2432, 2173, 1905
2421, 2189, 1953, 1912, 2178
2422, 1909, 2282, 2174, 1907
2423, 1915, 4035, 676, 48
2424, 2280, 1919, 1931, 290
2425, 1933, 245, 2192, 1952
2426, 2345, 2187, 1925, 1921
2427, 2344, 2184, 1923, 1922
2428, 1926, 1923, 2184, 494
2429, 2186, 2183, 1924, 1929
2430, 1925, 2187, 2349, 1935
2431, 1936, 1926, 494, 2193
2432, 2190, 2185, 1927, 1942
2433, 2432, 1911, 1930, 2281
2434, 589, 1928, 1932, 2284
2435, 2347, 1944, 1934, 2188
2436, 1937, 348, 2431, 1916
2437, 1979, 1938, 2194, 371
2438, 2423, 2191, 1941, 1939
2439, 1961, 633, 27, 1976
2440, 1961, 2195, 2426, 1940
2441, 583, 1965, 1941, 2191
2442, 1945, 2199, 2352, 1957
2443, 2349, 2202, 1946, 1935
2444, 1987, 1946, 2202, 129
2445, 2425, 2196, 1947, 1984
2446, 1931, 1949, 2283, 290
2447, 1975, 1952, 2192, 222
2448, 2032, 2362, 2232, 2080
2449, 595, 1913, 1954, 2286
2450, 1955, 2198, 2209, 2002
2451, 1989, 1956, 603, 2082
2452, 1959, 1988, 2206, 2421
2453, 2354, 2205, 1960, 1951
2454, 1986, 1960, 2205, 122
2455, 2427, 2195, 1961, 1976
2456, 1962, 2210, 2423, 1939
2457, 2418, 2197, 1963, 1992
2458, 1968, 1964, 2200, 448
2459, 1965, 583, 1971, 4033
2460, 703, 72, 1965, 4033
2461, 1967, 33, 639, 1969
2462, 1972, 1966, 2201, 2420
2463, 1967, 1969, 2272, 425
2464, 1968, 448, 2272, 1969
2465, 671, 44, 1981, 1970
2466, 176, 1950, 1970, 2287
2467, 1958, 1972, 2420, 402
2468, 1976, 1974, 2203, 2427
2469, 1973, 1977, 4040, 312
2470, 2285, 1978, 2000, 349
2471, 1981, 1980, 2204, 199
2472, 404, 4266, 2167, 2159
2473, 1982, 2167, 4259, 4258
2474, 2394, 2248, 2137, 2100
2475, 1986, 122, 2219, 2008
2476, 1987, 129, 2128, 2012
2477, 2422, 2206, 1988, 2047
2478, 2211, 1991, 1994, 115
2479, 1993, 2019, 2267, 2424
2480, 1995, 2011, 2213, 111
2481, 587, 2073, 1996, 2207
2482, 590, 1943, 1997, 2271
2483, 2077, 1998, 2208, 334
2484, 2016, 1999, 2801, 112
2485, 2049, 2001, 2218, 372
2486, 2057, 600, 2233, 2079
2487, 2010, 2005, 2216, 2997
2488, 2006, 2017, 2260, 353
2489, 2018, 2007, 2217, 376
2490, 2215, 2009, 2023, 374
2491, 2022, 2010, 2997, 352
2492, 114, 2279, 2013, 2033
2493, 2015, 2021, 119, 2214
2494, 2260, 2017, 2051, 354
2495, 2018, 376, 2227, 2052
2496, 125, 2267, 2019, 2034
2497, 2024, 2020, 2220, 117
2498, 2054, 3067, 2228, 2058
2499, 2297, 2215, 374, 2768
2500, 2025, 123, 2225, 2037
2501, 2026, 2036, 2264, 2419
2502, 2027, 2042, 2221, 2966
2503, 2098, 82, 713, 2120
2504, 6, 2044, 2040, 611
2505, 2035, 2030, 109, 2224
2506, 2039, 2031, 2223, 118
2507, 2043, 2035, 2224, 110
2508, 2264, 2036, 2043, 110
2509, 2045, 2037, 2225, 124
2510, 2277, 2038, 2045, 124
2511, 2041, 2039, 118, 2226
2512, 2266, 2040, 2044, 113
2513, 2046, 2041, 2226, 2417
2514, 2417, 2221, 2042, 2046
2515, 2044, 2029, 2222, 113
2516, 2047, 2078, 2268, 2422
2517, 2273, 2048, 2060, 350
2518, 2051, 2062, 2265, 354
2519, 2063, 2052, 2227, 377
2520, 2053, 289, 2416, 1985
2521, 2059, 738, 91, 2068
2522, 2055, 2059, 2229, 2998
2523, 2136, 2056, 2179, 412
2524, 2060, 2067, 2259, 350
2525, 2229, 2059, 2068, 373
2526, 2068, 2061, 2230, 373
2527, 355, 2265, 2062, 2064
2528, 2063, 377, 2231, 2065
2529, 2070, 4757, 4758, 4034
2530, 2276, 2066, 2070, 356
2531, 2228, 2259, 2067, 2058
2532, 2069, 378, 2116, 2071
2533, 2116, 378, 2275, 2110
2534, 2263, 2074, 2097, 175
2535, 2075, 584, 2415, 2014
2536, 2089, 51, 678, 2090
2537, 602, 2268, 2078, 2089
2538, 2258, 2084, 2085, 599
2539, 2257, 2083, 2094, 592
2540, 686, 57, 2092, 2081
2541, 596, 2050, 2081, 2278
2542, 591, 2072, 2083, 2257
2543, 2086, 2084, 2258, 598
2544, 2085, 2079, 2233, 599
2545, 2086, 598, 2235, 2087
2546, 2092, 2087, 2235, 597
2547, 699, 69, 2096, 2088
2548, 2075, 2088, 2899, 584
2549, 2090, 2082, 603, 2274
2550, 585, 2096, 2093, 2987
2551, 592, 2094, 2080, 2232
2552, 586, 2095, 2091, 2234
2553, 2093, 2095, 586, 2987
2554, 2096, 585, 2899, 2088
2555, 2121, 2099, 2236, 221
2556, 4098, 1114, 1109, 4129
2557, 2053, 2101, 2898, 289
2558, 175, 2097, 2102, 2270
2559, 2130, 356, 2070, 4034
2560, 108, 756, 2103, 2130
2561, 2104, 537, 3428, 2120
2562, 4054, 2808, 2105, 2113
2563, 2106, 2118, 2255, 470
2564, 2111, 707, 76, 2108
2565, 2107, 2111, 2261, 447
2566, 2108, 2117, 2269, 424
2567, 2117, 2109, 401, 2269
2568, 2115, 2112, 2238, 493
2569, 4054, 2113, 2115, 493
2570, 2114, 2119, 515, 3176
2571, 2119, 2105, 2808, 515
2572, 2253, 2122, 2147, 2242
2573, 2250, 2307, 2546, 2152
2574, 104, 751, 2129, 2123
2575, 2123, 266, 2898, 2101
2576, 2126, 2125, 2239, 244
2577, 2124, 2127, 2240, 4042
2578, 2123, 2129, 2807, 266
2579, 382, 2149, 2163, 4349
2580, 2165, 2132, 347, 4086
2581, 391, 2141, 2133, 2249
2582, 2177, 338, 2162, 2289
2583, 2134, 2177, 2323, 2158
2584, 2243, 316, 2465, 2289
2585, 2254, 389, 4432, 2136
2586, 2164, 2138, 380, 1887
2587, 1982, 2452, 2159, 2167
2588, 4266, 404, 4246, 2139
2589, 2141, 391, 2142, 1180
2590, 4341, 2241, 4433, 2143
2591, 2241, 300, 4486, 4433
2592, 2241, 4341, 2144, 2374
2593, 2434, 2667, 369, 4077
2594, 4077, 963, 2145, 2434
2595, 2245, 2176, 390, 2146
2596, 1892, 2157, 2312, 2148
2597, 2148, 2312, 410, 2315
2598, 2430, 4300, 4246, 2519
2599, 4348, 2163, 2149, 4300
2600, 2150, 4560, 2359, 2330
2601, 317, 2584, 2182, 4632
2602, 2250, 2152, 385, 1879
2603, 2557, 2154, 1891, 4679
2604, 299, 2171, 1896, 2153
2605, 4051, 2156, 4086, 347
2606, 2157, 4643, 2363, 2312
2607, 2413, 2158, 2323, 315
2608, 314, 2175, 2158, 2413
2609, 2256, 2321, 4372, 2251
2610, 2433, 2328, 324, 2161
2611, 1890, 4349, 2163, 2442
2612, 2164, 2409, 4100, 2452
2613, 2335, 2131, 402, 2409
2614, 2161, 2165, 325, 2433
2615, 2343, 4086, 2156, 2431
2616, 4259, 2167, 4266, 2139
2617, 4068, 4067, 4112, 2505
2618, 2172, 2169, 2317, 2379
2619, 130, 2317, 2169, 2170
2620, 2170, 2173, 2301, 130
2621, 2171, 2435, 2262, 4482
2622, 153, 2301, 2173, 2432
2623, 4257, 2290, 413, 2567
2624, 2323, 2177, 2686, 315
2625, 2178, 594, 2318, 2189
2626, 411, 2540, 2179, 2330
2627, 267, 2311, 2180, 2429
2628, 4041, 2180, 2311, 2569
2629, 2310, 2181, 298, 2888
2630, 1920, 1918, 2180, 4041
2631, 340, 2182, 2584, 2246
2632, 2182, 1894, 2151, 4632
2633, 2183, 2186, 538, 2292
2634, 516, 2344, 2183, 2292
2635, 516, 2372, 2184, 2344
2636, 2294, 2185, 2190, 126
2637, 2443, 2187, 2345, 127
2638, 2349, 2187, 128, 2537
2639, 2347, 2188, 2549, 588
2640, 2368, 2203, 583, 2191
2641, 2346, 2192, 245, 2571
2642, 2628, 2426, 2195, 561
2643, 2384, 2274, 603, 2196
2644, 2197, 2418, 120, 2319
2645, 2209, 2198, 601, 2296
2646, 2309, 2201, 425, 2473
2647, 2420, 2201, 2309, 2530
2648, 2537, 2470, 2587, 2390
2649, 2504, 2466, 2858, 2377
2650, 588, 2324, 2207, 2347
2651, 2454, 2850, 2482, 2316
2652, 4091, 2520, 2476, 137
2653, 2098, 560, 2212, 2028
2654, 2570, 2313, 2213, 2419
2655, 2997, 2216, 2298, 2777
2656, 2334, 2217, 375, 2467
2657, 2528, 116, 2401, 2592
2658, 2568, 2308, 2221, 2417
2659, 2332, 2222, 112, 2572
2660, 109, 2172, 2379, 2224
2661, 2341, 2226, 118, 2478
2662, 2259, 2228, 351, 2339
2663, 2305, 2229, 373, 2472
2664, 2338, 2230, 372, 2488
2665, 377, 2514, 2388, 2231
2666, 2306, 2232, 2362, 593
2667, 2327, 2233, 600, 2462
2668, 584, 2899, 2295, 2457
2669, 289, 2898, 2293, 2456
2670, 2300, 2987, 586, 2468
2671, 334, 2483, 2382, 2237
2672, 560, 3428, 2302, 2460
2673, 2325, 2239, 221, 4070
2674, 4341, 2143, 322, 1135
2675, 2400, 4656, 2247, 318
2676, 2242, 1899, 406, 4526
2677, 2406, 4598, 4526, 406
2678, 391, 2249, 2682, 2329
2679, 2145, 2244, 392, 2434
2680, 2146, 2254, 2357, 2245
2681, 413, 2290, 2245, 2357
2682, 2246, 2584, 2436, 2322
2683, 2395, 2248, 2394, 4072
2684, 312, 4040, 2248, 2395
2685, 2459, 2682, 2249, 2383
2686, 2122, 2253, 2307, 2250
2687, 323, 2256, 2251, 2144
2688, 2562, 2374, 301, 2674
2689, 319, 1886, 2252, 2371
2690, 407, 2291, 2253, 4598
2691, 2357, 412, 2567, 413
2692, 302, 2321, 2160, 2328
2693, 2337, 2257, 592, 2474
2694, 298, 2181, 2262, 2435
2695, 2522, 2512, 4097, 2779
2696, 2369, 2280, 290, 2500
2697, 267, 2429, 2280, 2369
2698, 2432, 2281, 2550, 153
2699, 2598, 2389, 2477, 569
2700, 313, 1910, 2288, 2399
2701, 2686, 2177, 2289, 2465
2702, 2548, 2383, 2290, 4257
2703, 4616, 2448, 2882, 2666
2704, 2293, 2898, 266, 2969
2705, 126, 2561, 4143, 2294
2706, 2844, 2443, 127, 2605
2707, 584, 2457, 2439, 2415
2708, 2296, 601, 2576, 2621
2709, 2462, 2296, 2621, 579
2710, 2297, 2623, 4102, 2467
2711, 2777, 2298, 2622, 330
2712, 142, 2891, 2747, 2607
2713, 2610, 2461, 2299, 2749
2714, 2764, 585, 2785, 564
2715, 2302, 2769, 4094, 2617
2716, 2875, 2746, 2444, 2597
2717, 2777, 2790, 352, 2997
2718, 2641, 2475, 351, 2304
2719, 2787, 2768, 374, 2998
2720, 2474, 2306, 2643, 571
2721, 592, 2232, 2306, 2474
2722, 2560, 408, 4646, 2291
2723, 298, 2702, 2983, 2888
2724, 2252, 2310, 4662, 297
2725, 2757, 2313, 2619, 2916
2726, 2600, 2449, 2314, 2439
2727, 2423, 2210, 2314, 2539
2728, 1901, 2148, 2315, 4560
2729, 2554, 2359, 4560, 2315
2730, 288, 2602, 2440, 2456
2731, 2352, 2199, 2316, 2482
2732, 2852, 2460, 2302, 2617
2733, 2318, 594, 2445, 2670
2734, 2461, 2319, 120, 2299
2735, 121, 2614, 2466, 2504
2736, 2555, 2320, 2206, 2422
2737, 2588, 2565, 2320, 2994
2738, 128, 2187, 2443, 2585
2739, 2470, 128, 2585, 4087
2740, 3483, 2789, 301, 4372
2741, 2322, 316, 2243, 1898
2742, 587, 2207, 2324, 2492
2743, 244, 2239, 2325, 2574
2744, 493, 2238, 2326, 2575
2745, 2494, 2327, 2654, 578
2746, 2437, 2414, 2329, 2682
2747, 2798, 2459, 2590, 414
2748, 586, 2234, 2331, 2468
2749, 2498, 2332, 2652, 135
2750, 2333, 2544, 4089, 2665
2751, 221, 2236, 2333, 4070
2752, 353, 2260, 2336, 2463
2753, 2501, 2337, 2650, 570
2754, 2472, 2338, 2644, 396
2755, 2507, 2339, 2648, 328
2756, 2340, 2509, 2657, 2822
2757, 2699, 2568, 2341, 2625
2758, 2860, 2342, 2494, 578
2759, 2649, 2496, 2342, 2860
2760, 2343, 2508, 4132, 2412
2761, 222, 2192, 2346, 2495
2762, 2569, 2571, 245, 4041
2763, 2629, 2348, 2498, 135
2764, 2611, 2350, 2501, 570
2765, 2477, 2350, 2611, 569
2766, 2351, 2510, 2632, 2835
2767, 2645, 2353, 2497, 449
2768, 425, 2272, 2353, 2473
2769, 2355, 2480, 2612, 2578
2770, 4088, 197, 4079, 2558
2771, 2640, 2356, 2506, 148
2772, 2563, 2579, 2561, 126
2773, 2358, 2516, 2661, 2823
2774, 2315, 410, 4552, 2554
2775, 2676, 2360, 2515, 333
2776, 2490, 2360, 2676, 2826
2777, 409, 2444, 2458, 2553
2778, 2363, 409, 2553, 4594
2779, 2737, 2364, 2507, 328
2780, 2618, 2489, 2364, 2737
2781, 394, 2825, 2365, 2491
2782, 2366, 2484, 2624, 2705
2783, 2555, 2366, 2705, 2464
2784, 2367, 2496, 2782, 2642
2785, 2512, 2367, 2642, 4097
2786, 2449, 2589, 2539, 2314
2787, 2556, 2589, 2471, 561
2788, 2407, 2500, 290, 2283
2789, 2370, 2482, 2850, 2784
2790, 2405, 2371, 2566, 296
2791, 494, 2184, 2372, 2481
2792, 516, 2559, 2573, 2372
2793, 2373, 2518, 2647, 2848
2794, 300, 2241, 2374, 2562
2795, 2476, 2375, 2604, 137
2796, 2677, 2376, 2524, 400
2797, 2516, 2376, 2677, 2824
2798, 2377, 2634, 2503, 122
2799, 2378, 2517, 2636, 2836
2800, 2224, 2379, 2510, 110
2801, 2380, 2495, 2793, 2646
2802, 2511, 2380, 2646, 4096
2803, 2381, 2526, 2662, 2847
2804, 2515, 2382, 2483, 333
2805, 2590, 2459, 2383, 2548
2806, 2581, 2538, 2450, 2601
2807, 2581, 2484, 2384, 2538
2808, 2385, 2522, 2779, 4120
2809, 2385, 2753, 2523, 596
2810, 3094, 2864, 2659, 2839
2811, 2599, 2387, 2525, 472
2812, 2497, 2387, 2599, 449
2813, 2524, 2388, 2514, 400
2814, 2202, 2349, 2537, 2390
2815, 2583, 2550, 2513, 177
2816, 2391, 2528, 2594, 2827
2817, 2603, 2392, 2505, 393
2818, 2392, 2603, 2832, 2491
2819, 2393, 2489, 2743, 2631
2820, 2508, 2393, 2631, 4132
2821, 2854, 2549, 2479, 568
2822, 2535, 4072, 2399, 4103
2823, 2396, 2523, 2753, 2639
2824, 2541, 2396, 2639, 574
2825, 2397, 2532, 2593, 4154
2826, 2398, 2503, 2591, 4153
2827, 2535, 291, 2500, 2407
2828, 2533, 2667, 2434, 392
2829, 2405, 2441, 318, 2247
2830, 2853, 2401, 2520, 4091
2831, 2402, 2511, 4096, 2859
2832, 2596, 2513, 2402, 2859
2833, 2595, 2403, 2481, 495
2834, 2525, 2403, 2595, 472
2835, 314, 2413, 2529, 2404
2836, 2404, 292, 2690, 2531
2837, 2406, 406, 2411, 4508
2838, 2527, 2635, 4597, 2406
2839, 2408, 403, 2552, 2626
2840, 2451, 4508, 2411, 2442
2841, 325, 2165, 2412, 4180
2842, 2450, 2212, 560, 2460
2843, 2606, 2414, 2437, 2700
2844, 601, 2198, 2421, 2565
2845, 126, 2190, 2424, 2563
2846, 2450, 2538, 2425, 2212
2847, 538, 2186, 2426, 2628
2848, 561, 2195, 2427, 2556
2849, 2521, 299, 2542, 2663
2850, 299, 2153, 4487, 2542
2851, 2430, 2519, 2664, 2536
2852, 2613, 2534, 2818, 303
2853, 2698, 2584, 317, 2972
2854, 316, 2322, 2436, 4462
2855, 2437, 2798, 4250, 2700
2856, 2806, 4224, 2606, 415
2857, 2438, 317, 4632, 2400
2858, 2450, 2460, 2852, 2601
2859, 2439, 2457, 2851, 2600
2860, 2405, 296, 2694, 2441
2861, 2694, 2774, 295, 2980
2862, 2442, 2163, 4348, 2451
2863, 2605, 127, 2294, 4143
2864, 2585, 2443, 2844, 150
2865, 2608, 2458, 2444, 2746
2866, 2386, 2864, 2445, 594
2867, 2670, 2683, 572, 2577
2868, 2446, 130, 2301, 2681
2869, 2510, 2685, 131, 2632
2870, 303, 2843, 2447, 2613
2871, 4597, 407, 4598, 2406
2872, 2560, 2666, 2875, 2597
2873, 562, 2471, 2589, 2449
2874, 2581, 582, 2624, 2484
2875, 2536, 2684, 405, 2430
2876, 2689, 2527, 2451, 4424
2877, 403, 2159, 2452, 4100
2878, 2607, 2453, 141, 2796
2879, 2453, 2308, 2568, 2699
2880, 267, 2369, 2855, 2455
2881, 2794, 562, 2814, 3020
2882, 2692, 2553, 2458, 4637
2883, 2682, 2459, 2798, 2437
2884, 2804, 4108, 4092, 582
2885, 2319, 2761, 2614, 121
2886, 2634, 2377, 2858, 2723
2887, 132, 2619, 2469, 2902
2888, 2517, 2587, 151, 2636
2889, 2471, 562, 2794, 2803
2890, 2473, 426, 2630, 2309
2891, 329, 2856, 2475, 2641
2892, 2604, 2375, 2485, 136
2893, 2592, 2401, 2853, 2744
2894, 2389, 2284, 590, 2477
2895, 2479, 2389, 2598, 568
2896, 2549, 2854, 2582, 588
2897, 2551, 2480, 175, 2270
2898, 2485, 2348, 2629, 136
2899, 2559, 2668, 4128, 517
2900, 2756, 2361, 2487, 399
2901, 2638, 2490, 2826, 332
2902, 4149, 566, 2752, 2653
2903, 2656, 2493, 220, 2751
2904, 2499, 469, 2658, 2326
2905, 392, 2414, 2502, 2533
2906, 145, 2591, 2503, 2634
2907, 2356, 2640, 2579, 2563
2908, 2823, 2657, 2509, 2358
2909, 4120, 2779, 2703, 4144
2910, 2661, 2516, 2824, 423
2911, 2517, 152, 2390, 2587
2912, 2647, 2518, 139, 2711
2913, 404, 2408, 2519, 4246
2914, 2663, 2701, 2702, 2521
2915, 4154, 2662, 2526, 2397
2916, 2635, 2527, 2783, 4529
2917, 138, 2594, 2528, 2592
2918, 292, 2404, 2529, 2691
2919, 2812, 2552, 403, 4100
2920, 2409, 2530, 2812, 4100
2921, 2399, 2288, 2531, 4103
2922, 4153, 2593, 2532, 2398
2923, 325, 4180, 2534, 2613
2924, 412, 2179, 2540, 2792
2925, 2540, 411, 4488, 2655
2926, 2839, 2659, 574, 2886
2927, 2663, 2542, 4543, 2701
2928, 2543, 567, 2811, 2660
2929, 2544, 198, 2558, 4079
2930, 3112, 276, 277, 3091
2931, 2303, 2557, 408, 4667
2932, 2651, 2686, 2465, 2586
2933, 2696, 3006, 2590, 2548
2934, 2484, 602, 2274, 2384
2935, 2550, 2583, 2564, 153
2936, 4085, 2378, 2836, 174
2937, 2626, 2552, 2719, 4192
2938, 2672, 4552, 410, 4594
2939, 2672, 4594, 2553, 2692
2940, 2672, 4558, 2885, 4552
2941, 2589, 2556, 2368, 2539
2942, 386, 4679, 1891, 4668
2943, 2558, 2355, 2578, 4088
2944, 2697, 2608, 2746, 431
2945, 2307, 4646, 408, 2546
2946, 4143, 2716, 2844, 2605
2947, 2565, 2588, 2576, 601
2948, 2791, 2609, 4257, 2567
2949, 246, 2571, 2569, 2841
2950, 2318, 2670, 2577, 593
2951, 2351, 2835, 2469, 2570
2952, 2652, 3295, 2758, 4152
2953, 2828, 2778, 2620, 2573
2954, 2815, 2797, 2621, 2576
2955, 2306, 593, 2577, 2643
2956, 2612, 2741, 2967, 2578
2957, 4079, 4107, 4089, 2544
2958, 2640, 2730, 4287, 2579
2959, 149, 2561, 2579, 4287
2960, 4462, 2733, 2805, 2586
2961, 4462, 2436, 2580, 2733
2962, 2829, 2582, 2854, 4278
2963, 567, 2543, 2582, 2829
2964, 154, 2564, 2583, 2820
2965, 2687, 2972, 317, 2438
2966, 4124, 4087, 2585, 150
2967, 4222, 150, 2925, 3479
2968, 2733, 2873, 4407, 4375
2969, 2587, 2470, 4087, 151
2970, 4093, 2588, 2994, 2464
2971, 2727, 2591, 145, 3128
2972, 2593, 4153, 146, 2717
2973, 2914, 2744, 2853, 4113
2974, 2662, 4154, 147, 2704
2975, 2726, 2594, 138, 2905
2976, 2596, 2859, 2724, 4134
2977, 2560, 2597, 4667, 408
2978, 2599, 472, 4168, 2748
2979, 562, 2449, 2600, 2814
2980, 582, 2581, 2601, 2804
2981, 4125, 2603, 393, 2688
2982, 2832, 2603, 4125, 2750
2983, 3135, 2696, 2609, 436
2984, 2799, 2610, 2891, 3156
2985, 174, 2612, 2480, 4085
2986, 2788, 2614, 2761, 4208
2987, 4204, 2466, 2614, 2788
2988, 2851, 2615, 563, 3020
2989, 2616, 2755, 2776, 4190
2990, 2628, 2803, 2486, 538
2991, 2736, 2618, 2737, 3008
2992, 2618, 327, 2743, 2489
2993, 2619, 132, 2762, 2916
2994, 495, 2481, 2620, 4101
2995, 2624, 582, 4092, 2729
2996, 2625, 4151, 2763, 2699
2997, 2664, 2626, 427, 4248
2998, 2519, 2408, 2626, 2664
2999, 2720, 2627, 565, 4182
3000, 333, 2784, 2754, 2676
3001, 333, 2483, 2370, 2784
3002, 2719, 2630, 426, 4157
3003, 2631, 2743, 2767, 326
3004, 4132, 2631, 326, 4179
3005, 2632, 131, 2728, 2835
3006, 2725, 2633, 396, 2939
3007, 2768, 2787, 397, 3386
3008, 430, 2448, 2635, 4529
3009, 2448, 4616, 4597, 2635
3010, 2706, 2636, 151, 2833
3011, 2836, 2636, 2706, 2957
3012, 223, 4095, 2637, 2775
3013, 2638, 332, 2759, 2834
3014, 4145, 2639, 2753, 575
3015, 2760, 399, 2857, 4135
3016, 2640, 148, 4221, 2730
3017, 2790, 2715, 2641, 2304
3018, 4097, 2642, 576, 4127
3019, 395, 2959, 2739, 2644
3020, 2645, 449, 2943, 2742
3021, 2646, 2793, 2712, 4133
3022, 200, 4096, 2646, 4133
3023, 4130, 2856, 3116, 2731
3024, 2721, 2649, 2860, 3115
3025, 2649, 577, 2782, 2496
3026, 2547, 2651, 2842, 293
3027, 565, 2627, 2653, 2752
3028, 2861, 2654, 579, 2945
3029, 2655, 4488, 2885, 4483
3030, 2780, 434, 2984, 435
3031, 2822, 4122, 2713, 3073
3032, 4122, 2822, 2657, 2823
3033, 400, 2756, 2734, 2677
3034, 2864, 3094, 2709, 2445
3035, 4090, 2659, 2864, 2386
3036, 2492, 2660, 4172, 566
3037, 2661, 423, 2707, 446
3038, 2536, 4248, 2837, 4311
3039, 2665, 4089, 4159, 2809
3040, 220, 2493, 2665, 2809
3041, 4543, 2428, 277, 276
3042, 2882, 2448, 430, 3010
3043, 369, 2667, 4112, 4067
3044, 2668, 2486, 539, 4128
3045, 2838, 2964, 4128, 539
3046, 268, 2831, 2455, 2855
3047, 2669, 2455, 2831, 4126
3048, 2670, 2445, 2709, 2683
3049, 2871, 4671, 2946, 273
3050, 2871, 2830, 2671, 4671
3051, 2950, 133, 3056, 2673
3052, 2695, 4544, 2816, 2545
3053, 4104, 2802, 2675, 291
3054, 2826, 2676, 2754, 2924
3055, 2862, 265, 2969, 2678
3056, 2678, 2969, 266, 2807
3057, 2970, 2679, 2863, 514
3058, 2679, 2970, 2808, 4054
3059, 2680, 2921, 2791, 2567
3060, 2681, 2766, 2867, 2446
3061, 573, 2813, 2683, 2709
3062, 4424, 405, 2684, 2689
3063, 131, 2685, 2446, 2867
3064, 3107, 4471, 2972, 295
3065, 2849, 2750, 4125, 2878
3066, 2802, 4104, 2690, 2929
3067, 2881, 455, 4666, 432
3068, 2672, 2692, 433, 4558
3069, 2693, 2907, 2818, 2534
3070, 2695, 2562, 2674, 4544
3071, 3006, 2865, 414, 2590
3072, 2881, 2697, 2986, 4682
3073, 415, 2606, 2700, 2884
3074, 2701, 2708, 275, 2702
3075, 2893, 3125, 576, 2710
3076, 4175, 2887, 4144, 2703
3077, 3064, 2920, 4220, 2704
3078, 2464, 2705, 581, 4093
3079, 2707, 2937, 422, 3093
3080, 2823, 2661, 446, 4122
3081, 2708, 3033, 3122, 275
3082, 3120, 577, 2942, 3220
3083, 2710, 3120, 3023, 2893
3084, 2711, 139, 2897, 3021
3085, 3021, 3208, 3036, 2711
3086, 3052, 2713, 2932, 445
3087, 4199, 4145, 4144, 2887
3088, 3015, 2714, 4199, 4307
3089, 329, 2641, 2715, 2922
3090, 2717, 146, 2940, 4245
3091, 4245, 2935, 147, 2717
3092, 571, 2643, 2718, 2944
3093, 2645, 2742, 4157, 426
3094, 3165, 2720, 4182, 3049
3095, 564, 2785, 2720, 3165
3096, 578, 2961, 3115, 2860
3097, 2928, 2722, 394, 3051
3098, 418, 2959, 3050, 4225
3099, 2992, 144, 2912, 167
3100, 2723, 2992, 3029, 2913
3101, 3121, 200, 4133, 2938
3102, 3172, 2725, 3062, 420
3103, 3022, 2897, 139, 2827
3104, 3128, 145, 2913, 3133
3105, 2727, 3055, 2940, 146
3106, 4155, 2766, 154, 2820
3107, 3001, 2902, 2728, 2889
3108, 3114, 2729, 4092, 2910
3109, 4327, 2993, 3554, 2974
3110, 3031, 3250, 2731, 3116
3111, 570, 2650, 2732, 2926
3112, 4375, 4407, 294, 2876
3113, 2734, 2937, 2824, 2677
3114, 2735, 3079, 4215, 2979
3115, 492, 2658, 2735, 2979
3116, 327, 2618, 2736, 3082
3117, 3026, 3162, 2936, 158
3118, 2738, 3162, 3026, 2901
3119, 2939, 2739, 3077, 419
3120, 472, 2595, 2740, 4168
3121, 2923, 3123, 495, 4101
3122, 2765, 2611, 570, 3150
3123, 4187, 4117, 2967, 2999
3124, 4247, 2952, 4305, 427
3125, 2767, 2743, 327, 4210
3126, 3223, 2914, 2880, 160
3127, 558, 4123, 3032, 4191
3128, 2745, 559, 2617, 4094
3129, 2749, 2747, 2891, 2610
3130, 449, 2599, 2748, 2943
3131, 2930, 3096, 4168, 2740
3132, 2299, 2214, 119, 2749
3133, 2878, 4125, 2688, 2806
3134, 2928, 3051, 2955, 417
3135, 2978, 2751, 3081, 242
3136, 243, 2656, 2751, 2978
3137, 2752, 2960, 2933, 565
3138, 2924, 2754, 2870, 310
3139, 2755, 265, 3145, 2776
3140, 422, 2869, 2760, 3034
3141, 133, 2950, 2757, 2916
3142, 2758, 3164, 3042, 2936
3143, 2918, 331, 3028, 3697
3144, 2834, 2759, 3028, 331
3145, 398, 2896, 2991, 4135
3146, 2756, 399, 2869, 2734
3147, 4208, 2761, 143, 2982
3148, 2883, 2762, 132, 4270
3149, 2916, 2762, 3144, 133
3150, 2763, 4151, 2919, 3070
3151, 141, 2988, 2906, 2796
3152, 2615, 2904, 2772, 563
3153, 2889, 2867, 2766, 4155
3154, 3305, 3080, 3253, 3490
3155, 3172, 3014, 3386, 397
3156, 3231, 2770, 3014, 3260
3157, 2629, 135, 3162, 2738
3158, 2595, 495, 3123, 2740
3159, 330, 2622, 2773, 3166
3160, 3087, 3206, 295, 2774
3161, 2990, 246, 2977, 247
3162, 2892, 3013, 3242, 3279
3163, 2778, 3037, 4101, 2620
3164, 2964, 2985, 517, 4128
3165, 2779, 4097, 4127, 2703
3166, 2540, 2655, 2780, 2792
3167, 3255, 3065, 2781, 428
3168, 2782, 577, 3120, 2710
3169, 2948, 429, 2781, 3065
3170, 2941, 2870, 311, 2810
3171, 2785, 2300, 2627, 2720
3172, 2786, 3025, 2917, 4296
3173, 568, 2598, 2786, 4296
3174, 2787, 2305, 2633, 397
3175, 2890, 2982, 143, 2799
3176, 2788, 4208, 2982, 2912
3177, 2789, 3483, 3246, 3340
3178, 352, 2790, 2304, 3067
3179, 436, 2609, 2791, 3103
3180, 4095, 2793, 2495, 2346
3181, 223, 2712, 2793, 4095
3182, 3066, 2803, 2794, 2947
3183, 3194, 3092, 456, 4634
3184, 2996, 2795, 4666, 3092
3185, 3017, 3216, 2796, 2906
3186, 580, 2953, 2981, 2815
3187, 2981, 3053, 2797, 2815
3188, 4163, 3216, 3017, 3159
3189, 3012, 2890, 2799, 3156
3190, 2801, 4052, 2950, 2673
3191, 2802, 2929, 3131, 2675
3192, 539, 2486, 2803, 3066
3193, 2804, 2601, 2852, 559
3194, 4123, 4108, 2915, 3032
3195, 2842, 4375, 2876, 293
3196, 2651, 2586, 2805, 2842
3197, 2806, 415, 2894, 4256
3198, 4214, 3063, 4188, 2965
3199, 2960, 4172, 3126, 543
3200, 4172, 2660, 2811, 3126
3201, 2949, 2813, 2866, 549
3202, 2931, 2816, 4544, 4567
3203, 3003, 2929, 2817, 2976
3204, 4134, 2973, 177, 2596
3205, 2821, 573, 2927, 550
3206, 2822, 469, 2499, 2340
3207, 2825, 395, 2488, 2365
3208, 2827, 139, 2518, 2391
3209, 4278, 3041, 4330, 2829
3210, 2830, 2871, 2872, 296
3211, 268, 2908, 4126, 2831
3212, 394, 2491, 2832, 3051
3213, 2771, 2604, 136, 2989
3214, 4124, 150, 4222, 2833
3215, 2834, 331, 2463, 2336
3216, 174, 2836, 2957, 2874
3217, 2551, 2378, 4085, 2480
3218, 4305, 2952, 3118, 3039
3219, 3039, 3255, 2837, 4305
3220, 2840, 580, 2588, 4093
3221, 3114, 3044, 581, 2729
3222, 2841, 2669, 4126, 246
3223, 3246, 4297, 3059, 279
3224, 302, 2447, 2843, 4297
3225, 4192, 4247, 427, 2626
3226, 4605, 2996, 3194, 2958
3227, 2847, 148, 2506, 2381
3228, 2848, 140, 2478, 2373
3229, 2849, 3111, 2955, 2750
3230, 2786, 2598, 569, 3106
3231, 2810, 2454, 2602, 288
3232, 2454, 2810, 311, 2850
3233, 4113, 2853, 4091, 137
3234, 4278, 2854, 568, 3041
3235, 2820, 2583, 177, 2973
3236, 2648, 2475, 2856, 4130
3237, 2760, 4135, 2991, 3034
3238, 144, 2858, 2466, 4204
3239, 2723, 2858, 144, 2992
3240, 2724, 200, 3121, 4194
3241, 2969, 265, 2755, 2293
3242, 438, 4273, 3099, 4358
3243, 550, 3097, 2866, 2821
3244, 2868, 3170, 3105, 4681
3245, 3105, 2986, 2697, 4681
3246, 273, 2946, 3009, 3245
3247, 2872, 3110, 3087, 2774
3248, 3107, 3083, 2873, 4471
3249, 4407, 2873, 3083, 294
3250, 2999, 4205, 173, 3276
3251, 3072, 2995, 305, 4281
3252, 3078, 2877, 2948, 3203
3253, 416, 2849, 2878, 3000
3254, 2879, 3139, 3106, 2765
3255, 3223, 3024, 2744, 2914
3256, 2771, 2880, 2914, 4113
3257, 4666, 455, 3181, 3092
3258, 2666, 2882, 4663, 2875
3259, 4270, 132, 2902, 3001
3260, 3011, 3154, 3285, 3273
3261, 4552, 2885, 4488, 2554
3262, 2934, 3089, 4155, 2820
3263, 3156, 2891, 142, 3257
3264, 4260, 3038, 2975, 287
3265, 2975, 4190, 2892, 287
3266, 3125, 2893, 3137, 3018
3267, 4256, 3102, 3142, 3000
3268, 3000, 2878, 2806, 4256
3269, 4134, 2895, 3132, 2973
3270, 3208, 3021, 3232, 4211
3271, 2901, 4227, 4162, 2738
3272, 540, 2947, 2903, 3225
3273, 563, 2772, 2903, 3020
3274, 2904, 2764, 564, 3160
3275, 3022, 2726, 3086, 3213
3276, 2818, 2907, 3060, 303
3277, 2909, 306, 3196, 3008
3278, 4130, 2909, 328, 2648
3279, 3044, 3114, 558, 4156
3280, 2925, 150, 2844, 2974
3281, 4205, 3282, 3002, 173
3282, 3228, 4330, 3041, 545
3283, 4296, 2917, 4356, 545
3284, 3027, 3646, 3388, 3263
3285, 140, 2848, 3036, 2919
3286, 2988, 3070, 3261, 3226
3287, 4221, 4220, 2920, 4290
3288, 2993, 4291, 3718, 3554
3289, 435, 2984, 3088, 4418
3290, 3103, 2791, 2921, 3007
3291, 307, 3031, 3116, 2922
3292, 3123, 2923, 3138, 3040
3293, 4146, 3035, 4183, 3236
3294, 4324, 3479, 3098, 173
3295, 547, 3403, 4326, 2926
3296, 3094, 2927, 573, 2709
3297, 2928, 3224, 3050, 2722
3298, 3096, 2930, 473, 3240
3299, 3174, 4607, 3219, 3274
3300, 4241, 3243, 3049, 4182
3301, 3089, 3001, 2889, 4155
3302, 3064, 2935, 170, 3193
3303, 2938, 201, 3221, 3121
3304, 3233, 3062, 419, 3327
3305, 2940, 169, 3084, 4245
3306, 310, 2870, 2941, 4238
3307, 3220, 2942, 554, 3237
3308, 2944, 548, 3046, 2732
3309, 3057, 3119, 224, 3204
3310, 2945, 556, 3071, 2861
3311, 2946, 2800, 3532, 274
3312, 111, 2757, 2950, 4052
3313, 544, 3090, 2951, 3228
3314, 2951, 567, 2829, 4330
3315, 2981, 2953, 4184, 557
3316, 2742, 2954, 2845, 4157
3317, 2706, 2833, 4222, 2911
3318, 2958, 3194, 4634, 3141
3319, 3141, 3085, 3095, 2958
3320, 395, 2825, 3076, 2959
3321, 3077, 418, 4342, 3209
3322, 4160, 3115, 2961, 555
3323, 469, 2822, 3073, 2962
3324, 518, 2985, 2964, 3058
3325, 4188, 4118, 4117, 2965
3326, 2967, 4117, 4088, 2578
3327, 4205, 2741, 2874, 3282
3328, 2968, 4193, 3149, 3075
3329, 2971, 491, 3147, 3074
3330, 295, 2972, 2687, 2980
3331, 3132, 2895, 178, 4249
3332, 3151, 2976, 3047, 4237
3333, 269, 3003, 2976, 3151
3334, 2968, 2978, 242, 4193
3335, 3079, 2735, 2962, 468
3336, 491, 2971, 2979, 4215
3337, 3135, 436, 4429, 3048
3338, 2983, 2702, 275, 3043
3339, 3085, 2984, 434, 3095
3340, 3037, 2778, 3153, 3375
3341, 4681, 431, 4663, 2868
3342, 454, 3528, 3187, 4682
3343, 2906, 2988, 3226, 164
3344, 3034, 2991, 3155, 3372
3345, 3218, 3029, 2992, 167
3346, 4291, 4290, 3069, 3718
3347, 305, 2995, 3082, 3158
3348, 433, 2795, 2996, 4605
3349, 3002, 3282, 2874, 2957
3350, 4187, 2999, 3276, 4189
3351, 3308, 416, 3189, 3500
3352, 155, 4270, 3001, 3089
3353, 4324, 173, 3002, 2911
3354, 3109, 3130, 269, 4200
3355, 3130, 3005, 3003, 269
3356, 3004, 293, 2876, 3198
3357, 3130, 2908, 268, 3005
3358, 3131, 3005, 268, 2855
3359, 3006, 2696, 3135, 437
3360, 3099, 4357, 437, 3332
3361, 3264, 4497, 3354, 4457
3362, 3143, 3103, 3007, 3354
3363, 3158, 3008, 3196, 4171
3364, 252, 4650, 3161, 3572
3365, 3129, 3376, 430, 4529
3366, 3105, 3170, 3269, 2986
3367, 546, 2879, 3281, 3259
3368, 3144, 3011, 3273, 3534
3369, 3257, 3124, 3012, 3156
3370, 3242, 3013, 3379, 3612
3371, 3386, 3014, 2770, 2623
3372, 420, 3260, 3014, 3172
3373, 167, 2912, 2982, 3127
3374, 3125, 3018, 4233, 4174
3375, 4334, 4333, 4282, 4335
3376, 2772, 2904, 3160, 3019
3377, 3265, 3402, 3019, 3160
3378, 3036, 3208, 4161, 2919
3379, 3086, 2726, 2905, 3188
3380, 2897, 3022, 3213, 162
3381, 3023, 3120, 3220, 4173
3382, 3025, 2786, 3106, 3139
3383, 3267, 3217, 3361, 3389
3384, 4293, 3249, 2901, 3026
3385, 3027, 3263, 3166, 2773
3386, 3035, 4146, 2759, 332
3387, 2913, 3029, 168, 3133
3388, 255, 3777, 3219, 3030
3389, 3031, 307, 3442, 3250
3390, 536, 3383, 4141, 2745
3391, 3032, 4142, 3254, 4191
3392, 4147, 4146, 3236, 4198
3393, 3037, 496, 2923, 4101
3394, 2941, 2810, 3038, 4260
3395, 451, 3065, 3255, 3039
3396, 3138, 3199, 4209, 3040
3397, 473, 2930, 3040, 4209
3398, 3164, 2758, 3295, 134
3399, 157, 3222, 3042, 3164
3400, 3043, 3157, 3258, 3400
3401, 3043, 3400, 3532, 2983
3402, 581, 3044, 2840, 4093
3403, 308, 3227, 307, 3045
3404, 270, 4202, 4237, 4271
3405, 3323, 3475, 3048, 4429
3406, 437, 3135, 3048, 3247
3407, 3165, 3265, 3160, 564
3408, 3050, 2959, 3076, 2722
3409, 4303, 3052, 445, 3374
3410, 2962, 3073, 4219, 468
3411, 3053, 556, 2945, 2797
3412, 3119, 2775, 3054, 224
3413, 3055, 3298, 169, 2940
3414, 3534, 3056, 133, 3144
3415, 3173, 3467, 3056, 3534
3416, 3119, 3057, 2712, 223
3417, 2843, 2956, 3059, 4297
3418, 3060, 3288, 3414, 2956
3419, 2721, 3115, 4160, 3061
3420, 219, 2963, 3063, 3214
3421, 3068, 548, 2944, 2718
3422, 171, 3069, 4290, 2920
3423, 4385, 3210, 3718, 3069
3424, 3261, 3070, 4161, 163
3425, 3169, 3146, 2907, 304
3426, 3148, 3074, 3147, 513
3427, 3078, 452, 3136, 3140
3428, 3140, 3129, 2877, 3078
3429, 4332, 3079, 468, 3342
3430, 536, 3490, 3253, 3381
3431, 3080, 3305, 3176, 515
3432, 3081, 2963, 219, 3201
3433, 3167, 3104, 294, 3083
3434, 3171, 457, 3461, 3385
3435, 3188, 2905, 161, 3297
3436, 3134, 3087, 3110, 3183
3437, 3089, 2934, 3101, 155
3438, 4270, 155, 3256, 3154
3439, 3126, 3192, 3179, 543
3440, 3112, 3091, 3174, 3197
3441, 3372, 3093, 422, 3034
3442, 2932, 3093, 3190, 445
3443, 2846, 3095, 434, 4483
3444, 3240, 473, 3177, 450
3445, 3168, 3097, 550, 3290
3446, 3566, 3486, 3501, 172
3447, 4357, 2865, 3006, 437
3448, 3100, 2839, 2886, 551
3449, 3371, 3101, 3132, 4249
3450, 3102, 4295, 4394, 3152
3451, 3262, 3198, 3104, 3398
3452, 3170, 2868, 3010, 3440
3453, 3107, 4566, 3212, 3083
3454, 3151, 4201, 4200, 269
3455, 247, 2977, 3109, 3238
3456, 417, 2955, 3111, 3195
3457, 3112, 254, 2900, 276
3458, 3184, 4184, 4191, 3254
3459, 3113, 4156, 4184, 2953
3460, 558, 3114, 2910, 4123
3461, 3241, 3117, 159, 3477
3462, 450, 3177, 3186, 3118
3463, 451, 3039, 3118, 3186
3464, 200, 2724, 2859, 4096
3465, 3138, 2923, 496, 3199
3466, 165, 3178, 3124, 3506
3467, 3279, 3293, 287, 2892
3468, 3125, 4174, 4127, 576
3469, 3126, 2811, 3090, 3192
3470, 3133, 168, 3370, 3191
3471, 4244, 3128, 3133, 3191
3472, 4532, 3134, 3358, 3492
3473, 4532, 3206, 3087, 3134
3474, 3289, 452, 3278, 3404
3475, 3454, 3136, 452, 3289
3476, 3137, 4283, 4282, 3018
3477, 3376, 3129, 3140, 453
3478, 3085, 3141, 457, 3171
3479, 439, 3189, 3142, 3152
3480, 3103, 3143, 4429, 436
3481, 3013, 2776, 3145, 3379
3482, 3146, 3169, 281, 3630
3483, 3311, 3147, 491, 3356
3484, 3148, 513, 3459, 3378
3485, 3313, 3149, 4193, 3487
3486, 264, 3379, 3149, 3313
3487, 3139, 2879, 546, 4446
3488, 3150, 570, 2926, 4326
3489, 3281, 3150, 4326, 3259
3490, 3238, 3109, 4200, 4201
3491, 3190, 3093, 3372, 3268
3492, 142, 3216, 4163, 3257
3493, 4171, 3196, 3266, 3445
3494, 3280, 3159, 164, 3411
3495, 3045, 3166, 3263, 308
3496, 3400, 3161, 274, 3532
3497, 4152, 3162, 135, 2652
3498, 3272, 280, 3397, 3527
3499, 3166, 3045, 2715, 330
3500, 3169, 304, 4281, 3301
3501, 3376, 3440, 3010, 430
3502, 3269, 3170, 3440, 3453
3503, 3368, 3088, 3171, 3385
3504, 3544, 3504, 3394, 156
3505, 3495, 169, 3298, 192
3506, 3505, 3175, 3495, 4395
3507, 473, 4209, 3296, 3177
3508, 3178, 165, 3384, 3415
3509, 3409, 3180, 3292, 189
3510, 4373, 3587, 190, 3535
3511, 4688, 3302, 4694, 3181
3512, 4694, 3462, 3365, 456
3513, 3421, 3539, 3583, 4239
3514, 3382, 3464, 272, 3183
3515, 3134, 3183, 272, 3358
3516, 3184, 3319, 3434, 3300
3517, 4418, 3185, 3007, 2921
3518, 4457, 458, 4524, 3264
3519, 3528, 454, 3392, 4622
3520, 3187, 3438, 3302, 4688
3521, 4277, 4212, 3188, 3297
3522, 4229, 3308, 3500, 4294
3523, 3370, 168, 3294, 3747
3524, 3191, 3370, 3419, 3298
3525, 3193, 170, 3338, 3452
3526, 3317, 171, 3193, 3452
3527, 3283, 4634, 456, 3365
3528, 3497, 3344, 3336, 4177
3529, 3266, 3196, 306, 3326
3530, 3197, 3360, 3439, 4550
3531, 254, 3112, 3197, 4550
3532, 3380, 4271, 3004, 3198
3533, 4209, 3199, 3406, 3296
3534, 3199, 496, 4176, 3364
3535, 3416, 4365, 4304, 3200
3536, 468, 4219, 3200, 4304
3537, 242, 3081, 3201, 3357
3538, 4215, 3202, 3356, 491
3539, 3470, 3387, 474, 3641
3540, 224, 3322, 3363, 3204
3541, 3345, 3287, 438, 4358
3542, 3335, 4231, 4186, 4185
3543, 4231, 3309, 3207, 4186
3544, 163, 4161, 3208, 4211
3545, 3508, 3209, 4342, 3344
3546, 3210, 4385, 3317, 3437
3547, 3210, 3437, 3566, 172
3548, 2933, 3211, 542, 4241
3549, 3449, 3349, 219, 3214
3550, 3257, 4163, 3506, 3124
3551, 4356, 2917, 3217, 3267
3552, 3025, 3139, 4446, 3361
3553, 168, 3029, 3218, 3294
3554, 3348, 3221, 201, 3303
3555, 3016, 3221, 3348, 3235
3556, 3230, 3223, 160, 3433
3557, 3336, 417, 3195, 4177
3558, 3058, 540, 3334, 3330
3559, 3227, 3352, 3436, 3320
3560, 3412, 3547, 4516, 3426
3561, 3229, 3306, 3457, 3339
3562, 3353, 3433, 160, 3241
3563, 3318, 3297, 161, 3230
3564, 421, 2896, 3231, 3271
3565, 3455, 3233, 3327, 442
3566, 4284, 553, 4232, 4329
3567, 3316, 3234, 4334, 4329
3568, 3236, 4183, 3366, 4239
3569, 554, 4207, 3347, 3237
3570, 531, 4308, 4207, 3309
3571, 3238, 3367, 3310, 247
3572, 556, 3328, 3472, 3239
3573, 3239, 3432, 3335, 4185
3574, 3240, 450, 2943, 2748
3575, 159, 3331, 4339, 3477
3576, 3451, 3353, 3241, 3477
3577, 3608, 3418, 3694, 541
3578, 3243, 3418, 3608, 3049
3579, 548, 3068, 3244, 3343
3580, 302, 4297, 3246, 3483
3581, 3334, 540, 3225, 4240
3582, 3515, 3247, 460, 3631
3583, 547, 3046, 3248, 3329
3584, 3314, 3324, 158, 4228
3585, 3324, 3331, 3249, 4293
3586, 306, 2731, 3250, 3326
3587, 224, 3054, 3251, 3322
3588, 556, 3053, 3252, 3328
3589, 535, 3319, 3254, 4142
3590, 155, 3101, 3371, 3256
3591, 3256, 3371, 3444, 3285
3592, 3157, 253, 3507, 3258
3593, 3271, 3231, 3260, 3391
3594, 3525, 3396, 3531, 4313
3595, 271, 3966, 3262, 3398
3596, 3262, 3393, 3380, 3198
3597, 459, 3143, 3354, 4497
3598, 4240, 3402, 541, 3334
3599, 3267, 3389, 3645, 3547
3600, 4356, 3267, 3547, 3412
3601, 3269, 3453, 3392, 454
3602, 3271, 3391, 3863, 3529
3603, 3760, 4503, 257, 3841
3604, 3272, 3527, 4503, 4464
3605, 3173, 3394, 3504, 3284
3606, 3274, 3561, 3476, 3360
3607, 4269, 3463, 3513, 4345
3608, 3501, 3276, 173, 3098
3609, 196, 4189, 3276, 3333
3610, 3277, 3474, 474, 3387
3611, 3401, 286, 3421, 3293
3612, 3411, 164, 3270, 3525
3613, 3465, 3384, 165, 3506
3614, 3259, 4326, 3403, 3523
3615, 3481, 3461, 457, 3283
3616, 3284, 3504, 4178, 157
3617, 3164, 134, 3284, 157
3618, 3286, 3426, 4516, 3610
3619, 3286, 3681, 3373, 544
3620, 3397, 280, 3526, 3628
3621, 3414, 3288, 280, 3272
3622, 3482, 3417, 3571, 3549
3623, 3468, 3291, 3511, 3642
3624, 3291, 543, 3179, 3410
3625, 3182, 287, 3293, 3421
3626, 134, 3295, 2572, 3467
3627, 3474, 3277, 3296, 3406
3628, 3488, 4321, 4277, 3297
3629, 3374, 445, 3190, 3268
3630, 3416, 3299, 3538, 3724
3631, 282, 3604, 3301, 3445
3632, 3485, 3348, 3723, 202
3633, 3305, 2769, 537, 3176
3634, 4232, 4173, 3307, 3341
3635, 3500, 3189, 439, 3458
3636, 554, 3061, 3309, 4207
3637, 513, 3147, 3311, 3430
3638, 3312, 3168, 3482, 527
3639, 3512, 3312, 527, 3629
3640, 3324, 3314, 4363, 3331
3641, 542, 3211, 3424, 3346
3642, 4298, 3315, 3536, 4352
3643, 4379, 4368, 3316, 3494
3644, 4368, 4318, 3234, 3316
3645, 3437, 3317, 3546, 3647
3646, 3297, 3318, 184, 3488
3647, 535, 4251, 3431, 3319
3648, 4213, 4212, 4277, 3362
3649, 225, 3363, 3322, 3592
3650, 3471, 3323, 459, 3557
3651, 3473, 3325, 252, 3559
3652, 533, 4230, 3472, 3328
3653, 3330, 519, 3463, 4268
3654, 3451, 3477, 4339, 182
3655, 3332, 3515, 3435, 3205
3656, 3099, 3332, 3205, 4358
3657, 3579, 3349, 3449, 3524
3658, 3225, 3019, 3402, 4240
3659, 3335, 532, 3429, 4231
3660, 4177, 3195, 4229, 440
3661, 3337, 186, 3531, 3396
3662, 4525, 3456, 3649, 3807
3663, 3229, 3339, 4619, 253
3664, 279, 3407, 3761, 3446
3665, 3914, 278, 3340, 3446
3666, 530, 3341, 3307, 4217
3667, 4328, 4370, 3594, 490
3668, 525, 3447, 3248, 3343
3669, 3508, 3344, 3497, 441
3670, 4225, 3344, 4342, 418
3671, 3307, 3237, 3347, 4217
3672, 3348, 3303, 3420, 3723
3673, 218, 3460, 3349, 3579
3674, 3350, 3215, 526, 4546
3675, 3351, 3967, 3863, 3391
3676, 3388, 3448, 308, 3263
3677, 3433, 3353, 183, 3489
3678, 4178, 3504, 3544, 3441
3679, 3639, 3493, 4328, 490
3680, 3487, 3357, 241, 4310
3681, 3358, 272, 3390, 3598
3682, 4473, 3492, 271, 3398
3683, 3423, 4337, 3127, 3180
3684, 3535, 3480, 3359, 4373
3685, 3439, 232, 3614, 4481
3686, 3395, 546, 3259, 3523
3687, 3362, 185, 3321, 4213
3688, 3413, 4176, 3375, 4226
3689, 3514, 3406, 3364, 3638
3690, 3503, 3481, 3283, 3365
3691, 4238, 3366, 4183, 310
3692, 3182, 3421, 4239, 3366
3693, 3466, 270, 3393, 3550
3694, 3368, 458, 4457, 3185
3695, 3458, 3369, 4417, 462
3696, 178, 3304, 3542, 4249
3697, 3268, 3372, 3155, 3408
3698, 4369, 3749, 3410, 3179
3699, 3268, 3408, 444, 3374
3700, 496, 3037, 3375, 4176
3701, 4586, 3593, 4585, 476
3702, 453, 3136, 3377, 4587
3703, 3378, 3459, 3431, 4251
3704, 3378, 3383, 536, 3381
3705, 3407, 3163, 4464, 4465
3706, 270, 4271, 3380, 3393
3707, 4620, 3399, 3464, 3382
3708, 3383, 535, 4142, 4141
3709, 3278, 3387, 3470, 3404
3710, 3448, 3388, 3533, 3586
3711, 3492, 3358, 3598, 271
3712, 3701, 3735, 4444, 444
3713, 4325, 3709, 3544, 156
3714, 3389, 3395, 3815, 3645
3715, 3270, 4265, 3396, 3525
3716, 3526, 280, 3288, 4436
3717, 3399, 4576, 3590, 4575
3718, 3464, 3399, 250, 3530
3719, 3612, 264, 3443, 3957
3720, 3401, 3957, 3573, 286
3721, 541, 3402, 3265, 3608
3722, 3520, 3404, 3470, 3641
3723, 3264, 3611, 3491, 4497
3724, 3514, 3541, 3474, 3406
3725, 3548, 3409, 189, 3653
3726, 3423, 3409, 3587, 4373
3727, 3511, 3291, 3410, 3797
3728, 3280, 3522, 3465, 3159
3729, 3463, 4269, 4226, 3275
3730, 3415, 189, 3292, 3178
3731, 3299, 444, 4444, 3538
3732, 4460, 4365, 3416, 467
3733, 3551, 3543, 551, 3015
3734, 3499, 3694, 3732, 4299
3735, 3418, 3243, 3315, 4298
3736, 3298, 3419, 3581, 192
3737, 3586, 3533, 4267, 4272
3738, 248, 3422, 3310, 3711
3739, 3422, 248, 3589, 3592
3740, 4337, 3423, 4373, 3359
3741, 3425, 3588, 3314, 4228
3742, 4368, 3706, 3427, 4318
3743, 3543, 3551, 3427, 4391
3744, 3605, 3429, 532, 3671
3745, 3431, 3459, 3509, 3596
3746, 4230, 3597, 3432, 3472
3747, 3434, 534, 3450, 3300
3748, 3345, 3619, 3804, 3287
3749, 284, 3320, 3436, 3613
3750, 3486, 3566, 195, 3333
3751, 477, 3438, 3726, 4621
3752, 478, 3302, 3438, 4658
3753, 3439, 4481, 3306, 4550
3754, 453, 4587, 3440, 3376
3755, 3602, 179, 3709, 4325
3756, 3709, 3696, 3441, 3544
3757, 3320, 284, 3584, 3442
3758, 3443, 264, 3313, 3555
3759, 3542, 3602, 4325, 3444
3760, 156, 3285, 3444, 4325
3761, 4236, 4171, 3445, 3301
3762, 3761, 4498, 3857, 3446
3763, 286, 3634, 4272, 4267
3764, 3352, 3448, 3586, 285
3765, 3333, 195, 3524, 3449
3766, 3600, 3451, 182, 3695
3767, 193, 3713, 3452, 3505
3768, 4587, 4585, 3453, 3440
3769, 3289, 475, 4579, 3454
3770, 3607, 3455, 442, 4505
3771, 3518, 3507, 3456, 4525
3772, 3339, 3649, 3456, 4619
3773, 3457, 3306, 4481, 231
3774, 3202, 4370, 4328, 3356
3775, 3545, 4361, 4415, 3599
3776, 3545, 3663, 4294, 4361
3777, 512, 3509, 3430, 3801
3778, 3460, 218, 3577, 241
3779, 4604, 3603, 4569, 3469
3780, 4694, 3302, 478, 3462
3781, 4690, 478, 4685, 3576
3782, 4268, 3463, 3275, 518
3783, 3522, 3280, 3411, 187
3784, 3384, 3465, 4007, 3956
3785, 3466, 3367, 4202, 270
3786, 4570, 4569, 3603, 4615
3787, 4524, 458, 3469, 4569
3788, 3657, 3471, 3557, 3920
3789, 3471, 3575, 3475, 3323
3790, 3591, 4417, 461, 3851
3791, 3656, 3473, 3559, 3766
3792, 251, 3325, 3473, 4610
3793, 3516, 3476, 3561, 233
3794, 3479, 4324, 2911, 4222
3795, 3215, 3312, 3512, 526
3796, 3480, 3737, 3747, 3294
3797, 3461, 3481, 480, 4604
3798, 2321, 302, 3483, 4372
3799, 186, 3337, 3484, 3722
3800, 3578, 3485, 202, 4351
3801, 179, 3304, 3485, 3578
3802, 3727, 4371, 3555, 4310
3803, 3488, 3644, 3556, 4321
3804, 4094, 3490, 536, 2745
3805, 2769, 3305, 3490, 4094
3806, 3557, 3491, 4026, 3920
3807, 3801, 3493, 3639, 3750
3808, 4379, 3494, 529, 4392
3809, 3510, 3712, 4474, 4395
3810, 3495, 192, 3510, 4395
3811, 3659, 3563, 3519, 3743
3812, 525, 3343, 3496, 3704
3813, 4294, 3663, 440, 4229
3814, 3660, 3565, 4308, 531
3815, 3499, 519, 3330, 3334
3816, 3501, 3098, 3554, 172
3817, 182, 4339, 3502, 3705
3818, 480, 4651, 3569, 4633
3819, 3507, 3518, 3572, 3258
3820, 441, 3552, 3609, 3508
3821, 3601, 534, 3675, 3832
3822, 3675, 3596, 3509, 512
3823, 3510, 4390, 4384, 3648
3824, 4474, 3667, 3606, 193
3825, 3797, 3752, 3642, 3511
3826, 3743, 3519, 3849, 3852
3827, 4386, 4346, 4345, 4353
3828, 3541, 3720, 3641, 474
3829, 3575, 4540, 460, 3475
3830, 232, 3476, 3516, 3651
3831, 3517, 3626, 3588, 3425
3832, 3805, 4317, 4316, 3779
3833, 229, 3559, 3518, 4525
3834, 3632, 4255, 3684, 3798
3835, 187, 3763, 3692, 3522
3836, 3523, 3621, 3815, 3395
3837, 3618, 3733, 3647, 3546
3838, 3411, 3525, 4313, 187
3839, 3628, 3526, 3746, 3836
3840, 3691, 4465, 3760, 3841
3841, 3809, 250, 3670, 3855
3842, 3625, 3531, 186, 3745
3843, 3583, 3539, 309, 4148
3844, 3533, 309, 3539, 4267
3845, 4386, 4353, 3636, 3728
3846, 3732, 4298, 4352, 3636
3847, 3537, 3424, 3468, 3642
3848, 3536, 3346, 520, 4383
3849, 3421, 286, 4267, 3539
3850, 4610, 3473, 3656, 4573
3851, 3590, 4576, 3540, 3725
3852, 3514, 497, 3720, 3541
3853, 3304, 179, 3602, 3542
3854, 3417, 551, 3543, 3571
3855, 3567, 440, 3663, 3903
3856, 194, 3702, 3782, 3618
3857, 4588, 3547, 3645, 3658
3858, 3765, 3548, 3653, 212
3859, 528, 3710, 3549, 3571
3860, 3629, 527, 3650, 4029
3861, 3966, 3550, 3393, 3262
3862, 3711, 3897, 3668, 248
3863, 4392, 529, 4434, 3633
3864, 3706, 4368, 4379, 4392
3865, 3551, 3015, 4307, 552
3866, 4393, 3552, 441, 3689
3867, 3643, 3901, 3553, 185
3868, 3443, 3555, 4371, 263
3869, 3738, 3556, 3644, 4425
3870, 3556, 3738, 3874, 3643
3871, 3329, 524, 4484, 3558
3872, 3621, 3558, 4484, 4485
3873, 3560, 3654, 3736, 3860
3874, 3561, 3777, 3686, 233
3875, 477, 4592, 3716, 3562
3876, 4618, 3562, 3716, 4591
3877, 3659, 3904, 4602, 3563
3878, 3739, 504, 3672, 4535
3879, 3652, 3755, 3564, 181
3880, 3734, 205, 4400, 3705
3881, 3775, 3565, 3660, 509
3882, 4367, 3741, 3700, 3498
3883, 3566, 3437, 3647, 195
3884, 3568, 3813, 3653, 189
3885, 3677, 3569, 4651, 479
3886, 530, 3700, 3708, 3570
3887, 3680, 4276, 3784, 3949
3888, 3666, 4340, 3758, 3873
3889, 3445, 3574, 4302, 282
3890, 3819, 3887, 4675, 3576
3891, 3698, 3577, 3785, 240
3892, 4351, 202, 3703, 4354
3893, 3620, 4384, 4390, 3617
3894, 3582, 3672, 3824, 3690
3895, 524, 3447, 3582, 4534
3896, 4239, 3583, 4198, 3236
3897, 3676, 261, 3833, 3757
3898, 3768, 475, 3637, 3831
3899, 4527, 3834, 3793, 476
3900, 3588, 181, 4363, 3314
3901, 225, 3592, 3589, 4255
3902, 3590, 4489, 3670, 4575
3903, 4015, 3661, 3591, 3851
3904, 4417, 3591, 4463, 462
3905, 4586, 3721, 4559, 3593
3906, 4622, 4621, 3726, 3528
3907, 3787, 3693, 490, 3594
3908, 3595, 3616, 3638, 3413
3909, 4269, 3595, 3413, 4226
3910, 534, 3434, 3596, 3675
3911, 4230, 3679, 3772, 3597
3912, 3622, 3598, 3390, 3530
3913, 3599, 4463, 3669, 3799
3914, 463, 3545, 3599, 3799
3915, 3600, 3695, 3764, 3687
3916, 3679, 3683, 3780, 3892
3917, 4633, 3826, 4615, 3603
3918, 281, 3604, 3769, 3868
3919, 3977, 3605, 3671, 3840
3920, 3762, 3606, 3667, 216
3921, 3910, 443, 3607, 3756
3922, 442, 3327, 3609, 4405
3923, 522, 4547, 3610, 4516
3924, 4478, 3681, 3286, 3610
3925, 4018, 481, 3662, 482
3926, 4026, 3491, 3611, 4018
3927, 3612, 4338, 3279, 3242
3928, 3664, 231, 3673, 208
3929, 231, 4481, 3614, 3673
3930, 3737, 3480, 3535, 3730
3931, 3624, 3751, 3884, 3728
3932, 520, 3537, 3615, 4383
3933, 3720, 497, 3773, 3810
3934, 3638, 3616, 497, 3514
3935, 4390, 3581, 3419, 3617
3936, 194, 3618, 3546, 3713
3937, 3688, 3627, 3782, 217
3938, 3804, 3619, 3729, 461
3939, 3795, 4490, 215, 4414
3940, 4534, 3817, 4484, 524
3941, 3815, 3621, 4485, 523
3942, 4397, 3623, 3809, 249
3943, 3897, 3550, 3966, 4397
3944, 3623, 4397, 3966, 271
3945, 4364, 3763, 187, 4313
3946, 203, 3885, 3805, 3779
3947, 3652, 3626, 3805, 3744
3948, 3579, 3524, 3733, 3627
3949, 3628, 3917, 3842, 3397
3950, 3146, 3630, 4436, 3288
3951, 3746, 3630, 281, 3868
3952, 3898, 3790, 4540, 3575
3953, 3988, 4533, 3828, 4595
3954, 3748, 3703, 202, 3723
3955, 3823, 4434, 3707, 507
3956, 3783, 3710, 528, 3633
3957, 285, 3586, 4272, 3634
3958, 3634, 286, 3573, 3784
3959, 3735, 3701, 443, 3910
3960, 3735, 3910, 3635, 4444
3961, 4299, 3513, 519, 3499
3962, 3636, 4353, 4299, 3732
3963, 3831, 3637, 498, 3931
3964, 3637, 475, 3520, 3810
3965, 490, 3693, 3750, 3639
3966, 3640, 3757, 3833, 3861
3967, 3731, 3553, 3901, 3806
3968, 3655, 184, 3560, 3860
3969, 4425, 3644, 3655, 207
3970, 3658, 4523, 3802, 3866
3971, 3646, 2918, 3697, 309
3972, 3712, 3648, 3812, 216
3973, 4029, 3650, 3818, 506
3974, 3734, 3564, 3755, 3864
3975, 213, 4475, 3908, 4539
3976, 3687, 3654, 183, 3600
3977, 3736, 3654, 3687, 206
3978, 3896, 3715, 3781, 3921
3979, 4573, 3656, 3766, 4517
3980, 3658, 4589, 522, 4588
3981, 4602, 3904, 3739, 4535
3982, 4367, 3775, 4399, 3741
3983, 3669, 3661, 3754, 3909
3984, 4463, 3591, 3661, 3669
3985, 3936, 3850, 3925, 3922
3986, 482, 3662, 3936, 3932
3987, 3663, 3545, 463, 3903
3988, 3664, 3814, 3767, 3580
3989, 4639, 3854, 4615, 3826
3990, 3665, 3854, 4628, 3759
3991, 4302, 3808, 3674, 282
3992, 3668, 249, 3811, 4306
3993, 3855, 3822, 226, 3811
3994, 4575, 3670, 250, 3399
3995, 525, 3704, 4535, 3672
3996, 3769, 3674, 3862, 258
3997, 3780, 3601, 3832, 3853
3998, 284, 3613, 3676, 3757
3999, 4635, 3699, 3788, 3905
4000, 3820, 4548, 3878, 4591
4001, 521, 4478, 3678, 4548
4002, 533, 3601, 3780, 3683
4003, 3772, 3679, 3835, 3894
4004, 3634, 3784, 4276, 285
4005, 262, 3821, 3680, 3949
4006, 4421, 4420, 521, 4479
4007, 3798, 3684, 226, 3965
4008, 3684, 4255, 3589, 4306
4009, 3740, 3685, 3724, 3635
4010, 489, 3693, 3787, 3906
4011, 255, 3800, 3686, 3777
4012, 3689, 3567, 3903, 3742
4013, 3690, 503, 4635, 3879
4014, 3690, 3879, 4534, 3582
4015, 3761, 3691, 256, 4498
4016, 3407, 4465, 3691, 3761
4017, 3937, 4022, 3692, 3763
4018, 3933, 4001, 3871, 4404
4019, 3694, 3418, 4298, 3732
4020, 3695, 182, 3705, 4400
4021, 4350, 3778, 4301, 3696
4022, 3696, 4301, 3719, 3441
4023, 3839, 3907, 3796, 3698
4024, 241, 3577, 3698, 3796
4025, 3826, 3699, 503, 4639
4026, 4633, 3569, 3699, 3826
4027, 3708, 3700, 3741, 4398
4028, 466, 3740, 3756, 3816
4029, 217, 3782, 3702, 3902
4030, 3706, 528, 4391, 3427
4031, 3823, 3911, 3999, 3783
4032, 529, 3570, 3707, 4434
4033, 508, 3789, 3708, 4398
4034, 3818, 3710, 4545, 3891
4035, 215, 3812, 3648, 4414
4036, 210, 3825, 3714, 3794
4037, 465, 4494, 3715, 3896
4038, 3791, 4559, 3721, 3847
4039, 4019, 3950, 3730, 190
4040, 190, 3587, 3717, 4019
4041, 180, 4316, 3719, 4301
4042, 497, 3616, 4347, 3773
4043, 476, 3793, 3721, 4586
4044, 3722, 4382, 3745, 186
4045, 3748, 3521, 3632, 3976
4046, 467, 3416, 3724, 3685
4047, 3635, 3724, 3538, 4444
4048, 3776, 228, 3859, 4513
4049, 3725, 227, 4489, 3590
4050, 3792, 4371, 3727, 3907
4051, 3728, 3884, 3773, 4347
4052, 4347, 4346, 4386, 3728
4053, 4015, 3851, 484, 3880
4054, 3980, 3888, 3950, 4430
4055, 3806, 3774, 209, 3731
4056, 4382, 209, 3890, 3867
4057, 3848, 4400, 205, 4000
4058, 3740, 466, 4461, 3685
4059, 3889, 4426, 3860, 3736
4060, 3889, 3736, 206, 3973
4061, 3747, 3737, 191, 3617
4062, 4577, 4514, 4515, 4426
4063, 3874, 3738, 4514, 3814
4064, 3904, 505, 3925, 3739
4065, 4399, 3837, 4398, 3741
4066, 463, 3838, 3876, 3903
4067, 464, 3781, 3742, 4362
4068, 3743, 4673, 4672, 3659
4069, 3885, 204, 3744, 3805
4070, 3744, 204, 3755, 3652
4071, 3836, 3746, 3868, 4428
4072, 3976, 3632, 3798, 4376
4073, 3827, 3749, 4421, 3846
4074, 3749, 3827, 3797, 3410
4075, 3801, 3750, 3853, 512
4076, 3845, 3884, 3751, 4456
4077, 3797, 3827, 3972, 3752
4078, 3845, 3942, 3931, 498
4079, 4374, 191, 3737, 3888
4080, 3941, 3754, 485, 3960
4081, 4416, 3799, 3669, 3909
4082, 3864, 3755, 204, 3919
4083, 3640, 3758, 4340, 283
4084, 260, 3830, 3873, 3758
4085, 504, 3850, 3759, 4628
4086, 4498, 3800, 255, 3857
4087, 4364, 3803, 4422, 3763
4088, 211, 4025, 3916, 4009
4089, 206, 3687, 3764, 4396
4090, 3765, 4582, 3908, 4475
4091, 3807, 3875, 229, 4525
4092, 4517, 3766, 3843, 3900
4093, 475, 3768, 3585, 4579
4094, 258, 4428, 3868, 3769
4095, 501, 3819, 3770, 4617
4096, 4657, 4618, 3770, 3819
4097, 4590, 3878, 4548, 3678
4098, 4589, 3771, 4547, 522
4099, 3835, 3679, 3892, 511
4100, 3682, 3772, 3894, 510
4101, 3810, 3773, 498, 3637
4102, 3774, 3651, 3825, 209
4103, 509, 3944, 4399, 3775
4104, 4513, 3919, 3895, 3776
4105, 3919, 204, 3943, 3895
4106, 180, 4301, 3778, 4351
4107, 3742, 3781, 4393, 3689
4108, 3783, 3999, 4545, 3710
4109, 3785, 3688, 217, 3989
4110, 233, 3686, 4599, 3786
4111, 3906, 3787, 4461, 466
4112, 3788, 3677, 4689, 502
4113, 4493, 3856, 3941, 4571
4114, 3707, 3789, 4493, 507
4115, 4541, 4540, 3790, 4574
4116, 3790, 483, 3828, 4574
4117, 3716, 4592, 4549, 500
4118, 4559, 4592, 477, 4621
4119, 3865, 3792, 3949, 3784
4120, 4528, 4527, 476, 4585
4121, 4472, 3793, 3834, 499
4122, 3794, 3886, 4009, 3916
4123, 3620, 3753, 3795, 4414
4124, 3839, 3698, 240, 3971
4125, 3975, 256, 3691, 3841
4126, 523, 4485, 4536, 3844
4127, 4636, 3887, 3819, 501
4128, 3890, 4422, 3803, 3867
4129, 208, 3673, 3806, 3901
4130, 3843, 229, 3875, 4004
4131, 3873, 259, 4355, 3666
4132, 259, 4427, 3808, 4355
4133, 249, 3809, 3855, 3811
4134, 215, 4005, 3877, 3812
4135, 3813, 3872, 3947, 3881
4136, 3815, 523, 4523, 3645
4137, 465, 3896, 3946, 3870
4138, 3817, 4534, 3879, 4601
4139, 4485, 4484, 3817, 4536
4140, 3828, 483, 3935, 4595
4141, 3918, 4636, 3866, 3802
4142, 3887, 4636, 3918, 4653
4143, 3827, 3846, 3934, 3972
4144, 3953, 3839, 3971, 3991
4145, 4628, 3854, 4639, 3824
4146, 503, 3690, 3824, 4639
4147, 3867, 3803, 4364, 3625
4148, 3752, 3972, 3942, 4456
4149, 3952, 484, 4533, 3988
4150, 4574, 4531, 3729, 4541
4151, 3927, 3829, 3917, 4491
4152, 3969, 4578, 3829, 3983
4153, 3830, 3974, 3940, 4450
4154, 3780, 3853, 4001, 3892
4155, 3924, 3861, 3833, 4412
4156, 3831, 3834, 4527, 3768
4157, 4001, 3933, 511, 3892
4158, 4399, 3944, 4455, 3837
4159, 3997, 3993, 4511, 4512
4160, 4011, 3955, 3968, 4021
4161, 3968, 3876, 3838, 3996
4162, 3822, 3882, 3965, 226
4163, 3991, 3971, 4458, 4459
4164, 3926, 4410, 3986, 4013
4165, 3869, 256, 3975, 4553
4166, 3527, 3842, 257, 4503
4167, 3913, 3848, 4000, 4453
4168, 3884, 3845, 498, 3773
4169, 4456, 3751, 3615, 3752
4170, 3959, 4479, 3820, 500
4171, 4472, 3934, 4480, 3847
4172, 4549, 3791, 3847, 4480
4173, 3764, 3848, 3913, 4396
4174, 3849, 3629, 4029, 4028
4175, 3850, 504, 3739, 3925
4176, 3978, 482, 3932, 3984
4177, 3984, 4003, 3935, 3928
4178, 3853, 3750, 3871, 4001
4179, 4615, 3854, 3665, 4570
4180, 4022, 4025, 3872, 188
4181, 486, 3909, 3856, 3970
4182, 4499, 4500, 3858, 214
4183, 3938, 3864, 3919, 4513
4184, 3859, 228, 4573, 4517
4185, 207, 3655, 3860, 4426
4186, 3861, 260, 3758, 3640
4187, 4450, 3951, 4427, 259
4188, 443, 3701, 3863, 3967
4189, 205, 3734, 3864, 3938
4190, 3865, 3784, 3573, 263
4191, 4609, 501, 3771, 4589
4192, 3866, 4609, 4589, 3658
4193, 3745, 4382, 3867, 3625
4194, 3906, 3870, 3964, 4404
4195, 4476, 511, 3933, 4445
4196, 259, 3873, 3830, 4450
4197, 3874, 208, 3901, 3643
4198, 4004, 206, 4396, 3939
4199, 4362, 3742, 3903, 3876
4200, 3945, 4005, 215, 4490
4201, 3994, 3961, 3915, 216
4202, 4617, 3770, 3878, 4590
4203, 4635, 3905, 4601, 3879
4204, 4601, 3844, 4536, 3817
4205, 4009, 3930, 4518, 211
4206, 227, 3895, 3943, 3882
4207, 3885, 3979, 3943, 204
4208, 3991, 3954, 3883, 3953
4209, 203, 4376, 3979, 3885
4210, 234, 3930, 3886, 4553
4211, 4653, 502, 4689, 4675
4212, 4426, 3889, 3912, 3767
4213, 3875, 3973, 206, 4004
4214, 3753, 191, 4374, 3893
4215, 214, 3858, 3893, 4374
4216, 3668, 3897, 4397, 249
4217, 483, 3790, 3898, 3928
4218, 508, 3899, 4493, 3789
4219, 3970, 3899, 508, 3997
4220, 3859, 4517, 3900, 4453
4221, 3963, 3989, 3915, 3961
4222, 505, 3904, 3659, 4672
4223, 3922, 3925, 505, 4677
4224, 3905, 3788, 502, 3962
4225, 4561, 3948, 3958, 4582
4226, 4539, 3908, 4582, 3958
4227, 486, 3996, 4416, 3909
4228, 3941, 3960, 3911, 4571
4229, 4577, 3767, 3814, 4514
4230, 3914, 3030, 4567, 278
4231, 3937, 3916, 4025, 4022
4232, 210, 3794, 3916, 3937
4233, 3927, 4491, 3929, 3981
4234, 257, 3842, 3917, 3829
4235, 4653, 3918, 3962, 502
4236, 3852, 3984, 3932, 4673
4237, 4419, 464, 4362, 3955
4238, 4410, 3926, 510, 3894
4239, 260, 3861, 3924, 3995
4240, 3946, 3896, 3921, 4572
4241, 4013, 488, 4024, 3985
4242, 3944, 509, 4413, 4477
4243, 3927, 4593, 3983, 3829
4244, 4003, 3984, 3852, 4028
4245, 3981, 3929, 3987, 236
4246, 258, 3987, 3929, 4428
4247, 3992, 234, 3969, 235
4248, 4404, 3964, 4445, 3933
4249, 3942, 3972, 499, 3931
4250, 506, 4556, 4003, 4028
4251, 3922, 4677, 3932, 3936
4252, 3938, 4513, 4000, 205
4253, 4453, 3900, 3939, 3913
4254, 4020, 4012, 4008, 3951
4255, 3960, 485, 3880, 4002
4256, 507, 4493, 4571, 3911
4257, 3993, 487, 4011, 4511
4258, 3945, 4551, 4520, 4005
4259, 3947, 3872, 4025, 211
4260, 3947, 211, 4518, 3881
4261, 235, 3958, 3948, 3992
4262, 3881, 3948, 4561, 212
4263, 3999, 4002, 3952, 4545
4264, 262, 3907, 3839, 3953
4265, 261, 3883, 3954, 4412
4266, 238, 3995, 3924, 4016
4267, 4419, 4024, 3982, 464
4268, 188, 3568, 3956, 4007
4269, 3957, 3401, 4338, 3612
4270, 4479, 3959, 3846, 4421
4271, 3959, 500, 4549, 4480
4272, 3961, 239, 4458, 3963
4273, 3963, 4458, 3971, 240
4274, 3989, 3963, 240, 3785
4275, 3986, 4476, 4445, 3964
4276, 4376, 3798, 3965, 3979
4277, 3975, 3969, 234, 4553
4278, 214, 3980, 3998, 4499
4279, 3934, 4472, 499, 3972
4280, 3973, 3875, 3807, 4495
4281, 3940, 3974, 4006, 237
4282, 203, 3703, 3976, 4376
4283, 509, 3660, 3977, 4413
4284, 3920, 3978, 3984, 3928
4285, 4539, 4014, 4430, 213
4286, 4014, 4017, 3980, 4430
4287, 4010, 3981, 4581, 3990
4288, 4013, 3985, 4411, 3926
4289, 487, 3993, 4477, 3985
4290, 488, 4013, 3986, 3964
4291, 4008, 3987, 258, 3862
4292, 3952, 3988, 3891, 4545
4293, 4593, 4010, 3990, 4613
4294, 4539, 3958, 3990, 4014
4295, 3930, 234, 3992, 4518
4296, 4512, 4511, 4011, 4021
4297, 3877, 4005, 4023, 239
4298, 239, 3961, 3994, 3877
4299, 3995, 238, 4006, 3974
4300, 4499, 3998, 237, 4500
4301, 3859, 4453, 4000, 4513
4302, 4459, 4016, 3954, 3991
4303, 3946, 488, 3964, 3870
4304, 487, 4419, 3955, 4011
4305, 4021, 3968, 3996, 486
4306, 4017, 4027, 3998, 3980
4307, 3987, 4008, 4012, 236
4308, 4581, 4017, 4014, 3990
4309, 4556, 506, 3818, 3891
4310, 4027, 236, 4012, 4020
4311, 4026, 4018, 482, 3978
4312, 4019, 213, 4430, 3950
4313, 4005, 4520, 4519, 4023
4314, 3985, 4024, 4419, 487
4315, 4027, 4017, 4581, 236
4316, 4030, 4031, 86, 730
4317, 4043, 776, 781, 830
4318, 4074, 759, 786, 837
4319, 4055, 822, 819, 817
4320, 914, 4050, 4063, 4064
4321, 2168, 2410, 4067, 4068
4322, 4083, 4075, 949, 4064
4323, 855, 4078, 891, 895
4324, 4045, 835, 4080, 870
4325, 4080, 876, 903, 4115
4326, 4061, 975, 4082, 4062
4327, 947, 4084, 4082, 975
4328, 4090, 2282, 595, 2541
4329, 4105, 393, 2505, 4112
4330, 4102, 398, 4135, 2857
4331, 291, 2535, 4103, 4104
4332, 2667, 2533, 4105, 4112
4333, 4106, 4073, 1019, 1051
4334, 4107, 4079, 197, 4118
4335, 2910, 4092, 4108, 4123
4336, 898, 4110, 887, 4138
4337, 197, 4088, 4117, 4118
4338, 4107, 4118, 4188, 4159
4339, 4129, 1133, 336, 4098
4340, 4134, 2724, 4194, 2895
4341, 952, 4137, 4140, 4196
4342, 3032, 2915, 4141, 4142
4343, 575, 4120, 4144, 4145
4344, 2714, 2639, 4145, 4199
4345, 3028, 2759, 4146, 4147
4346, 3697, 3028, 4147, 4148
4347, 4148, 4147, 4198, 3583
4348, 4149, 2331, 2492, 566
4349, 4151, 2625, 140, 2919
4350, 952, 4196, 4158, 972
4351, 4160, 555, 4186, 3207
4352, 4164, 1078, 1094, 1142
4353, 1050, 4167, 1035, 4216
4354, 1084, 4131, 4169, 4170
4355, 305, 3158, 4171, 4236
4356, 553, 3023, 4173, 4232
4357, 2703, 4127, 4174, 4175
4358, 4175, 4174, 4233, 4234
4359, 4179, 326, 4242, 2693
4360, 2412, 4132, 4179, 4180
4361, 555, 3071, 4185, 4186
4362, 2965, 4117, 4187, 4189
4363, 2965, 4189, 196, 4214
4364, 4227, 3117, 2989, 4162
4365, 4307, 4199, 2887, 552
4366, 4202, 4201, 3151, 4237
4367, 2851, 3020, 2814, 2600
4368, 4210, 4323, 4243, 2767
4369, 162, 3213, 4212, 4213
4370, 3214, 3063, 4214, 196
4371, 4215, 3079, 4332, 3202
4372, 4217, 3347, 4309, 3498
4373, 3200, 4219, 3052, 4303
4374, 148, 2847, 4220, 4221
4375, 4224, 2502, 2414, 2606
4376, 159, 3117, 4227, 4292
4377, 4274, 4234, 4233, 3018
4378, 4175, 4234, 4235, 2887
4379, 4271, 4237, 3047, 3004
4380, 4242, 4243, 4323, 304
4381, 2149, 2139, 4246, 4300
4382, 2952, 4247, 2845, 2954
4383, 2837, 4248, 427, 4305
4384, 2884, 4250, 2865, 4273
4385, 3102, 4256, 2894, 4295
4386, 4259, 1424, 381, 4258
4387, 4263, 3182, 3366, 4238
4388, 4323, 4210, 2995, 3072
4389, 2960, 543, 3211, 2933
4390, 4265, 3270, 3261, 163
4391, 3018, 4282, 4333, 4274
4392, 1100, 4216, 4279, 4280
4393, 4283, 3137, 553, 4284
4394, 4286, 421, 3271, 3529
4395, 2730, 4221, 4290, 4291
4396, 4293, 3026, 158, 3324
4397, 4394, 4295, 438, 3287
4398, 3808, 4302, 3666, 4355
4399, 3347, 4207, 4308, 4309
4400, 4312, 1200, 1223, 1242
4401, 3517, 3719, 4316, 4317
4402, 180, 4354, 3779, 4316
4403, 3626, 3517, 4317, 3805
4404, 4320, 1121, 1161, 1184
4405, 4321, 3556, 3362, 4277
4406, 4327, 2716, 149, 2993
4407, 4244, 3191, 3298, 3055
4408, 4329, 4232, 3341, 3316
4409, 3004, 2819, 2691, 293
4410, 3234, 4274, 4333, 4334
4411, 4335, 4282, 4283, 4284
4412, 4269, 4345, 4346, 3595
4413, 4353, 4345, 3513, 4299
4414, 3616, 3595, 4346, 4347
4415, 4348, 405, 4424, 2451
4416, 1677, 4349, 1890, 4423
4417, 3778, 4350, 3578, 4351
4418, 4352, 3536, 4383, 3624
4419, 1334, 4359, 1317, 4409
4420, 4415, 4361, 3458, 462
4421, 3342, 4304, 4365, 4370
4422, 3498, 4309, 4366, 4367
4423, 4370, 4365, 4460, 3594
4424, 4375, 2842, 2805, 2733
4425, 1242, 1223, 4380, 4381
4426, 4382, 3722, 3731, 209
4427, 4384, 3620, 4414, 3648
4428, 3715, 4405, 4393, 3781
4429, 4385, 3069, 171, 3317
4430, 1249, 4336, 4387, 4388
4431, 4390, 3510, 192, 3581
4432, 3633, 528, 3706, 4392
4433, 3152, 4394, 3287, 439
4434, 1356, 1330, 4402, 4403
4435, 4404, 3871, 489, 3906
4436, 4410, 3923, 4476, 3986
4437, 3977, 3840, 4411, 4413
4438, 461, 4417, 3369, 3804
4439, 4420, 3681, 4478, 521
4440, 3749, 4369, 4420, 4421
4441, 4514, 3738, 4425, 4515
4442, 4432, 389, 1360, 4378
4443, 4467, 4435, 1262, 1308
4444, 4406, 4435, 4467, 1290
4445, 1288, 4381, 4438, 4439
4446, 1348, 4440, 1307, 1324
4447, 4449, 1409, 4443, 4403
4448, 1398, 1376, 4447, 4448
4449, 1268, 4451, 4452, 1293
4450, 1335, 4521, 1351, 4454
4451, 4455, 3944, 4477, 3993
4452, 4459, 4458, 239, 4023
4453, 4465, 4464, 4503, 3760
4454, 4471, 2580, 2698, 2972
4455, 4478, 3610, 4547, 3678
4456, 4479, 521, 4548, 3820
4457, 2153, 4433, 4486, 4487
4458, 2542, 4487, 2428, 4543
4459, 4494, 465, 4504, 4505
4460, 442, 4405, 4494, 4505
4461, 4542, 4495, 3807, 3649
4462, 3912, 4495, 4542, 230
4463, 1344, 1340, 1365, 4502
4464, 4470, 4502, 4530, 1370
4465, 4504, 3756, 3607, 4505
4466, 4509, 1406, 4562, 359
4467, 4510, 4509, 359, 4564
4468, 4512, 486, 3970, 3997
4469, 4515, 4425, 207, 4426
4470, 4473, 3167, 3083, 3212
4471, 3762, 216, 3915, 3902
4472, 4016, 4519, 4520, 238
4473, 3585, 3768, 4527, 4528
4474, 484, 3851, 4531, 4533
4475, 4533, 4531, 4574, 3828
4476, 4602, 4535, 3704, 4546
4477, 4537, 1402, 1425, 1467
4478, 4563, 4538, 1530, 1546
4479, 4582, 3765, 212, 4561
4480, 460, 4540, 4541, 3631
4481, 2701, 4543, 276, 2708
4482, 238, 4520, 4551, 4006
4483, 3935, 4003, 4556, 4595
4484, 1428, 4510, 4564, 4584
4485, 4566, 3107, 295, 3206
4486, 3212, 4566, 3206, 4532
4487, 4524, 4569, 4570, 3405
4488, 4573, 228, 3540, 4610
4489, 4528, 4585, 4587, 3377
4490, 522, 4516, 3547, 4588
4491, 3771, 501, 4617, 4590
4492, 4593, 3927, 3981, 4010
4493, 4596, 1559, 4627, 1536
4494, 4599, 3686, 3800, 3869
4495, 4608, 1470, 1450, 1431
4496, 1449, 4584, 4608, 1431
4497, 4609, 3866, 4636, 501
4498, 1433, 1422, 4611, 4612
4499, 4616, 2291, 407, 4597
4500, 4620, 3382, 4638, 251
4501, 3593, 4559, 4621, 4622
4502, 1492, 4600, 4645, 4624
4503, 4626, 1727, 4668, 1750
4504, 2795, 4637, 432, 4666
4505, 4650, 4638, 3245, 3009
4506, 409, 2363, 4643, 4644
4507, 3033, 2900, 253, 3122
4508, 4674, 4649, 1613, 1647
4509, 4658, 4657, 4685, 478
4510, 3562, 4618, 4657, 4658
4511, 4659, 1704, 1724, 1743
4512, 4671, 2671, 2800, 2946
4513, 4620, 251, 4576, 3399
4514, 479, 3576, 4689, 3677
4515, 4684, 1752, 1734, 1736
4516, 4688, 3181, 455, 3108
4517, 1645, 1666, 4691, 1606
4518, 1690, 1626, 4699, 4700
4519, 4707, 1627, 4709, 1648
4520, 1695, 1632, 4711, 4712
4521, 1754, 1712, 1742, 1735
4522, 4714, 1813, 1801, 1826
*ELEMENT, TYPE=U3, ELSET=PHASE_TRIS
4523, 3796, 3907, 3727
4524, 3956, 3415, 3384
4525, 2321, 1888, 2160
4526, 3714, 3516, 233
4527, 2330, 2179, 2056
4528, 340, 2246, 1856
4529, 4248, 2536, 2664
4530, 3682, 3671, 532
4531, 2973, 2934, 2820
4532, 4456, 3942, 3845
4533, 4330, 3228, 2951
4534, 828, 783, 780
4535, 869, 783, 828
4536, 4055, 817, 855
4537, 921, 916, 890
4538, 860, 924, 861
4539, 4065, 821, 889
4540, 891, 4078, 853
4541, 896, 893, 867
4542, 905, 929, 903
4543, 4138, 944, 913
4544, 975, 4061, 945
4545, 995, 989, 1008
4546, 1009, 991, 972
4547, 1012, 996, 968
4548, 4165, 4197, 1060
4549, 323, 4264, 1071
4550, 4150, 1088, 1069
4551, 1165, 1142, 1126
4552, 1151, 1103, 1131
4553, 4322, 4320, 1184
4554, 1189, 1187, 1147
4555, 1264, 1213, 1227
4556, 1358, 1316, 381
4557, 1360, 1245, 1272
4558, 358, 4387, 1276
4559, 4467, 1308, 1329
4560, 4437, 1298, 1297
4561, 1300, 1320, 4469
4562, 4530, 1386, 1372
4563, 1377, 1331, 1352
4564, 1403, 1313, 1361
4565, 1381, 4409, 1355
4566, 4580, 1384, 1393
4567, 1432, 1383, 1408
4568, 1472, 1470, 1469
4569, 1472, 1450, 1470
4570, 1410, 1389, 1427
4571, 4641, 1536, 4627
4572, 360, 1625, 1602
4573, 1662, 1661, 1638
4574, 1742, 1694, 1711
4575, 1759, 1719, 364
4576, 1753, 4700, 4703
4577, 1778, 1756, 1737
4578, 1792, 1777, 1758
4579, 1854, 1842, 1841
4580, 1882, 1889, 1708
4581, 2359, 411, 2330
4582, 2374, 2144, 2251
4583, 318, 2438, 2400
4584, 4311, 2684, 2536
4585, 2537, 128, 2470
4586, 277, 2428, 2545
4587, 2695, 300, 2562
4588, 2596, 177, 2513
4589, 2616, 288, 2456
4590, 2617, 559, 2852
4591, 4681, 2697, 431
4592, 4250, 2884, 2700
4593, 2775, 3119, 223
4594, 4192, 2845, 4247
4595, 2760, 2869, 399
4596, 4162, 2989, 136
4597, 3066, 2838, 539
4598, 2850, 311, 2784
4599, 2819, 3004, 3047
4600, 2931, 3091, 2816
4601, 4287, 2993, 149
4602, 2985, 2828, 517
4603, 3092, 3194, 2996
4604, 4161, 3070, 2919
4605, 3098, 3479, 2925
4606, 3152, 3142, 3102
4607, 3145, 265, 3075
4608, 3319, 3184, 3254
4609, 4358, 3205, 3345
4610, 3425, 3222, 3355
4611, 3224, 4225, 3050
4612, 4148, 309, 3697
4613, 3395, 3389, 3361
4614, 3285, 3154, 3256
4615, 3804, 3369, 3287
4616, 3406, 3199, 3364
4617, 4690, 3462, 478
4618, 3325, 4650, 252
4619, 3612, 3379, 264
4620, 3842, 3527, 3397
4621, 4356, 3412, 545
4622, 3204, 3303, 201
4623, 3423, 3180, 3409
4624, 3468, 3424, 3211
4625, 3472, 3432, 3239
4626, 3914, 3446, 3857
4627, 4622, 3392, 3593
4628, 3730, 3535, 190
4629, 3541, 474, 3474
4630, 4028, 3852, 3849
4631, 4494, 4405, 3715
4632, 4504, 3816, 3756
4633, 3902, 3702, 3762
4634, 4689, 3576, 4675
4635, 180, 4351, 4354
4636, 3712, 3510, 3648
4637, 3976, 3703, 3748
4638, 485, 4015, 3880
4639, 3605, 3977, 3660
4640, 3911, 3823, 507
4641, 4572, 4024, 488
4642, 4653, 4675, 3887
4643, 3890, 210, 4422
4644, 3935, 483, 3928
4645, 4450, 3940, 3951
4646, 4416, 3996, 3838
4647, 4500, 237, 4006
4648, 4572, 488, 3946
4649, 4021, 486, 4512
4650, 4009, 3886, 3930
4651, 4581, 3981, 236
4652, 4029, 506, 4028
4653, 4107, 4159, 4089
4654, 4106, 4150, 4099
4655, 4136, 918, 4114
4656, 4137, 948, 4136
4657, 4196, 4140, 923
4658, 1120, 1057, 4139
4659, 4224, 4203, 2502
4660, 972, 4158, 992
4661, 4235, 552, 2887
4662, 3513, 3463, 519
4663, 4329, 4334, 4335
4664, 4304, 3342, 468
4665, 4329, 4335, 4284
4666, 4337, 167, 3127
4667, 3578, 4350, 179
4668, 4396, 3913, 3939
4669, 4412, 3833, 261
4670, 4440, 4439, 1307
4671, 3809, 3623, 3622
4672, 4490, 3795, 3858
4673, 3340, 278, 2789
4674, 4577, 4426, 3767
4675, 4523, 3658, 3645
4676, 453, 3140, 3136
4677, 4607, 2931, 4567
4678, 1449, 1428, 4584
4679, 4564, 4608, 4584
4680, 4613, 3983, 4593
4681, 1508, 4537, 1467
4682, 4635, 503, 3699
4683, 4643, 2157, 1750
4684, 3122, 253, 3157
4685, 3978, 3920, 4026
4686, 4650, 3009, 3161
4687, 4651, 3503, 479
4688, 4661, 1855, 1857
4689, 4673, 3743, 3852
4690, 4672, 4677, 505
4691, 2800, 2671, 4662
4692, 1751, 1723, 4715
*ELEMENT, TYPE=U2, ELSET=MECH_QUADS
4693, 630, 2012, 745, 25
4694, 745, 2012, 2128, 98
4695, 99, 746, 2127, 2124
4696, 2102, 2097, 100, 747
4697, 101, 748, 2074, 2076
4698, 2076, 2099, 749, 101
4699, 2121, 2125, 750, 102
4700, 2126, 2129, 751, 103
4701, 2053, 1985, 105, 753
4702, 754, 105, 1985, 1945
4703, 1957, 1998, 755, 106
4704, 2077, 2103, 756, 107
4705, 4759, 757, 4034, 4758
4706, 757, 108, 2130, 4034
4707, 629, 1946, 1987, 23
4708, 1946, 629, 22, 1935
4709, 2240, 2390, 152, 4042
4710, 152, 2551, 2270, 4042
4711, 2263, 2355, 2558, 198
4712, 2333, 2665, 2493, 4070
4713, 2574, 2325, 2656, 243
4714, 2678, 2574, 243, 2862
4715, 289, 2456, 2440, 2416
4716, 2602, 2454, 2316, 2440
4717, 334, 2208, 2370, 2483
4718, 2276, 356, 2237, 2382
4719, 4756, 2066, 2064, 4755
4720, 2064, 2066, 2276, 355
4721, 628, 1925, 1935, 22
4722, 2185, 2345, 1921, 1927
4723, 3002, 2957, 2706, 2911
4724, 2999, 2967, 2741, 4205
4725, 2809, 3063, 2963, 220
4726, 243, 2978, 2968, 2862
4727, 2862, 2968, 3075, 265
4728, 3013, 2892, 4190, 2776
4729, 3038, 2810, 288, 2975
4730, 354, 2265, 2360, 2490
4731, 4754, 2062, 2051, 4753
4732, 2062, 4754, 4755, 2064
4733, 1921, 21, 627, 1927
4734, 2561, 149, 2716, 4143
4735, 3098, 2925, 2974, 3554
4736, 3486, 3333, 3276, 3501
4737, 3333, 3449, 3214, 196
4738, 3357, 3201, 3460, 241
4739, 3313, 3487, 4310, 3555
4740, 3293, 3279, 4338, 3401
4741, 4260, 4263, 4238, 2941
4742, 332, 2826, 2924, 3035
4743, 354, 2490, 2336, 2260
4744, 4752, 2017, 2006, 4751
4745, 2006, 353, 2216, 2005
4746, 20, 1993, 1942, 626
4747, 1942, 1993, 2424, 2190
4748, 2356, 2267, 125, 2506
4749, 4291, 2993, 4287, 2730
4750, 3713, 3546, 3317, 3452
4751, 3782, 3627, 3733, 3618
4752, 3688, 3785, 3577, 218
4753, 3865, 263, 4371, 3792
4754, 3533, 3388, 3646, 309
4755, 331, 2918, 2773, 2622
4756, 353, 2463, 2298, 2216
4757, 740, 2009, 2004, 93
4758, 4750, 2005, 2010, 4749
4759, 19, 2034, 2019, 625
4760, 2034, 2038, 2277, 125
4761, 2381, 2277, 124, 2526
4762, 2935, 3064, 2704, 147
4763, 3505, 3452, 3338, 3175
4764, 3606, 3762, 3702, 194
4765, 3821, 3883, 261, 3676
4766, 4276, 3680, 3613, 3436
4767, 3352, 3227, 308, 3448
4768, 2304, 351, 2228, 3067
4769, 4748, 2022, 2054, 4747
4770, 2022, 352, 3067, 2054
4771, 623, 2037, 2045, 18
4772, 18, 2045, 2038, 624
4773, 2397, 2225, 123, 2532
4774, 2935, 4245, 3084, 170
4775, 169, 3495, 3175, 3084
4776, 3712, 216, 3667, 4474
4777, 4016, 4459, 4023, 4519
4778, 3954, 4016, 3924, 4412
4779, 3584, 3640, 283, 3326
4780, 3320, 3442, 307, 3227
4781, 329, 2922, 3116, 2856
4782, 350, 2259, 2339, 2507
4783, 4746, 2058, 2067, 4745
4784, 4745, 2067, 2060, 4744
4785, 622, 2008, 2025, 17
4786, 2025, 2008, 2219, 123
4787, 2398, 2219, 122, 2503
4788, 3055, 2727, 3128, 4244
4789, 3747, 3617, 3419, 3370
4790, 3893, 3858, 3795, 3753
4791, 3945, 4500, 4006, 4551
4792, 3974, 3830, 260, 3995
4793, 3666, 4302, 3574, 4340
4794, 3478, 3266, 3326, 283
4795, 328, 2909, 3008, 2737
4796, 349, 2273, 2364, 2489
4797, 4743, 2048, 2000, 4742
4798, 2000, 2048, 2273, 349
4799, 621, 1960, 1986, 16
4800, 1960, 621, 15, 1951
4801, 2504, 2205, 2354, 121
4802, 3359, 3480, 3294, 3218
4803, 4027, 4020, 237, 3998
4804, 4008, 3862, 4427, 3951
4805, 3604, 282, 3674, 3769
4806, 4236, 3301, 4281, 305
4807, 3082, 2995, 4210, 327
4808, 348, 2285, 2393, 2508
4809, 4741, 1978, 1937, 4740
4810, 1937, 1978, 2285, 348
4811, 1951, 15, 620, 1963
4812, 1951, 1963, 2197, 2354
4813, 2761, 2319, 2461, 143
4814, 166, 3127, 2982, 2890
4815, 3180, 3127, 166, 3292
4816, 3717, 3548, 3765, 4475
4817, 3983, 4613, 235, 3969
4818, 3958, 235, 4613, 3990
4819, 3630, 3746, 3526, 4436
4820, 4281, 304, 4323, 3072
4821, 4179, 2693, 2534, 4180
4822, 348, 2508, 2343, 2431
4823, 4739, 1916, 1885, 4738
4824, 1885, 1916, 2431, 2156
4825, 14, 1992, 1963, 620
4826, 1992, 2015, 2214, 2418
4827, 2749, 119, 2966, 2747
4828, 2890, 3012, 3124, 166
4829, 3568, 188, 3872, 3813
4830, 4518, 3992, 3948, 3881
4831, 3841, 257, 3829, 4578
4832, 3163, 3407, 279, 3059
4833, 2956, 2843, 303, 3060
4834, 2433, 325, 2613, 2447
4835, 346, 1158, 1020, 1003
4836, 731, 805, 808, 732
4837, 4735, 809, 804, 4734
4838, 13, 2027, 2021, 618
4839, 2021, 2027, 2966, 119
4840, 2308, 2453, 2607, 2747
4841, 2906, 164, 3159, 3017
4842, 3522, 3692, 4007, 3465
4843, 3937, 3763, 4422, 210
4844, 3714, 233, 3786, 3794
4845, 3869, 3800, 4498, 256
4846, 2674, 301, 2789, 278
4847, 1048, 4261, 1017, 1003
4848, 721, 767, 765, 722
4849, 770, 4722, 4723, 768
4850, 616, 2041, 2046, 12
4851, 12, 2046, 2042, 617
4852, 2625, 2341, 2478, 140
4853, 2763, 3070, 2988, 141
4854, 3396, 4265, 163, 4211
4855, 3890, 209, 3825, 210
4856, 3914, 3857, 255, 3030
4857, 4544, 2674, 278, 4567
4858, 323, 2144, 1090, 4264
4859, 345, 1047, 1034, 1014
4860, 858, 827, 97, 4032
4861, 1065, 1113, 1156, 982
4862, 2244, 2329, 2414, 392
4863, 2894, 415, 2884, 4273
4864, 3458, 4361, 4294, 3500
4865, 3876, 3968, 3955, 4362
4866, 510, 3926, 4411, 3840
4867, 3597, 3772, 3682, 532
4868, 3328, 3252, 3450, 533
4869, 2840, 3113, 2953, 580
4870, 2366, 2268, 602, 2484
4871, 2089, 2090, 2274, 602
4872, 677, 1989, 2082, 50
4873, 716, 1989, 677, 73
4874, 715, 1947, 1956, 84
4875, 2745, 4141, 2915, 559
4876, 3431, 3596, 3434, 3319
4877, 512, 3853, 3832, 3675
4878, 465, 3870, 3816, 4504
4879, 3224, 3336, 3344, 4225
4880, 3111, 2849, 416, 3308
4881, 4203, 4105, 2533, 2502
4882, 848, 805, 4031, 843
4883, 730, 729, 797, 4030
4884, 775, 761, 814, 865
4885, 615, 2031, 2039, 11
4886, 117, 2223, 2031, 2024
4887, 2373, 2223, 117, 2518
4888, 3021, 2897, 162, 3232
4889, 3321, 3484, 3337, 3232
4890, 185, 3553, 3484, 3321
4891, 232, 3651, 3774, 3614
4892, 3360, 3197, 3174, 3274
4893, 2816, 3091, 277, 2545
4894, 4486, 2545, 2428, 4487
4895, 321, 1405, 1896, 2171
4896, 344, 1151, 1176, 1199
4897, 1244, 1221, 1219, 1292
4898, 2780, 2655, 4483, 434
4899, 3171, 3088, 2984, 3085
4900, 3469, 3385, 3461, 4604
4901, 4633, 3603, 4604, 480
4902, 525, 3672, 3582, 3447
4903, 548, 3343, 3248, 3046
4904, 571, 2944, 2732, 2650
4905, 591, 2257, 2337, 2501
4906, 2083, 2072, 63, 692
4907, 2094, 2083, 692, 62
4908, 2032, 2080, 691, 61
4909, 1953, 2189, 2362, 2032
4910, 2643, 2577, 572, 2718
4911, 3068, 2949, 549, 3244
4912, 3350, 3496, 3343, 3244
4913, 3563, 4602, 4546, 526
4914, 3665, 3759, 3662, 481
4915, 3264, 4524, 3405, 3611
4916, 3007, 3185, 4457, 3354
4917, 2680, 2567, 412, 2792
4918, 1084, 1107, 1063, 4131
4919, 827, 858, 4039, 888
4920, 1095, 1116, 1074, 1056
4921, 614, 2020, 2024, 10
4922, 2220, 2020, 2003, 116
4923, 2220, 116, 2528, 2391
4924, 3086, 3188, 4212, 3213
4925, 162, 4213, 3321, 3232
4926, 3644, 3488, 184, 3655
4927, 231, 3664, 3580, 3457
4928, 3306, 3229, 254, 4550
4929, 2708, 276, 2900, 3033
4930, 298, 2435, 2521, 2702
4931, 1322, 1301, 1281, 1302
4932, 1442, 1357, 1380, 1419
4933, 2056, 4431, 2150, 2330
4934, 4483, 2885, 4558, 2846
4935, 4605, 2846, 4558, 433
4936, 3481, 3503, 4651, 480
4937, 3788, 3699, 3569, 3677
4938, 3844, 4601, 3905, 3962
4939, 3523, 3403, 3558, 3621
4940, 2765, 3150, 3281, 2879
4941, 590, 2271, 2350, 2477
4942, 1997, 1943, 64, 693
4943, 2271, 1997, 2072, 591
4944, 613, 1991, 2003, 9
4945, 2003, 1991, 2211, 116
4946, 2520, 2211, 115, 2476
4947, 3024, 161, 2905, 138
4948, 3433, 3489, 3318, 3230
4949, 3489, 183, 3654, 3560
4950, 3912, 230, 3580, 3767
4951, 3456, 3507, 253, 4619
4952, 3122, 3157, 3043, 275
4953, 2888, 2800, 4662, 2310
4954, 2252, 1886, 2181, 2310
4955, 342, 1490, 1505, 1535
4956, 1537, 1516, 1560, 1561
4957, 1655, 1575, 1597, 4664
4958, 4643, 1750, 2154, 4644
4959, 432, 4637, 2458, 2608
4960, 2692, 4637, 2795, 433
4961, 3365, 3462, 4690, 3503
4962, 3819, 3576, 4685, 4657
4963, 3802, 4523, 523, 3844
4964, 3395, 3361, 4446, 546
4965, 2765, 3106, 569, 2611
4966, 589, 2284, 2389, 2479
4967, 1932, 1928, 65, 694
4968, 2284, 1932, 1943, 590
4969, 8, 1994, 1991, 613
4970, 1994, 2013, 2279, 115
4971, 2375, 2279, 114, 2485
4972, 2989, 3117, 2880, 2771
4973, 183, 3353, 3451, 3600
4974, 3695, 4400, 3848, 3764
4975, 3939, 3900, 3843, 4004
4976, 3518, 3559, 252, 3572
4977, 274, 3161, 3009, 2946
4978, 2566, 297, 2830, 296
4979, 2247, 319, 2371, 2405
4980, 1663, 1687, 1708, 1730
4981, 1599, 1620, 1638, 1619
4982, 1739, 1766, 1726, 1675
4983, 2152, 1769, 1883, 385
4984, 4667, 2597, 2444, 2303
4985, 2881, 4682, 3108, 455
4986, 3187, 3528, 3726, 3438
4987, 4591, 3716, 500, 3820
4988, 3678, 4547, 3771, 4590
4989, 3286, 544, 3228, 3426
4990, 3041, 568, 4296, 545
4991, 2479, 2549, 2188, 589
4992, 1928, 1934, 695, 65
4993, 1928, 589, 2188, 1934
4994, 7, 2033, 2013, 612
4995, 2033, 2040, 2266, 114
4996, 2348, 2266, 113, 2498
4997, 2901, 3249, 4292, 4227
4998, 4363, 3502, 4339, 3331
4999, 181, 3564, 3502, 4363
5000, 3725, 3776, 3895, 227
5001, 4576, 251, 4610, 3540
5002, 3245, 3183, 3110, 273
5003, 296, 2872, 2774, 2694
5004, 2441, 2687, 2438, 318
5005, 2151, 1865, 1889, 4656
5006, 1762, 1722, 1745, 1785
5007, 1860, 1869, 1876, 1872
5008, 1879, 384, 2122, 2250
5009, 2666, 2560, 2291, 4616
5010, 2868, 4663, 2882, 3010
5011, 3593, 3392, 3453, 4585
5012, 3847, 3721, 3793, 4472
5013, 3179, 3192, 3373, 4369
5014, 567, 2951, 3090, 2811
5015, 2543, 2324, 588, 2582
5016, 1944, 1996, 696, 66
5017, 1944, 2347, 2207, 1996
5018, 610, 2029, 2044, 6
5019, 2029, 2016, 112, 2222
5020, 2572, 3295, 2652, 2332
5021, 158, 2936, 3042, 4228
5022, 3355, 3719, 3517, 3425
5023, 3882, 3822, 4489, 227
5024, 3855, 3670, 4489, 3822
5025, 272, 3464, 3530, 3390
5026, 2436, 2584, 2698, 2580
5027, 1591, 4670, 4678, 1631
5028, 1748, 1715, 1701, 1763
5029, 1858, 1899, 2242, 2147
5030, 429, 2783, 2527, 2689
5031, 2877, 2783, 429, 2948
5032, 3377, 3136, 3454, 4579
5033, 3834, 3831, 3931, 499
5034, 3642, 3752, 3615, 3537
5035, 543, 3291, 3468, 3211
5036, 2960, 2752, 566, 4172
5037, 587, 2492, 2331, 2234
5038, 2073, 2091, 697, 67
5039, 2073, 587, 2234, 2091
5040, 609, 1999, 2016, 5
5041, 4052, 2801, 1999, 1990
5042, 3467, 2572, 2673, 3056
5043, 3394, 3173, 3534, 3273
5044, 3441, 3719, 3355, 4178
5045, 3703, 203, 3779, 4354
5046, 3521, 225, 4255, 3632
5047, 3684, 4306, 3811, 226
5048, 3623, 271, 3598, 3622
5049, 3104, 3198, 2876, 294
5050, 315, 2686, 2651, 2547
5051, 2135, 2162, 1686, 339
5052, 1446, 1467, 1425, 1399
5053, 382, 1596, 1533, 1486
5054, 2442, 2411, 2166, 1890
5055, 428, 2689, 2684, 4311
5056, 3203, 2948, 3065, 451
5057, 3278, 3203, 451, 3387
5058, 3641, 3720, 3810, 3520
5059, 3751, 3624, 4383, 3615
5060, 542, 3315, 3243, 4241
5061, 2933, 4241, 4182, 565
5062, 2987, 2300, 2785, 585
5063, 69, 698, 2093, 2096
5064, 698, 68, 2095, 2093
5065, 4, 1995, 1990, 608
5066, 1995, 111, 4052, 1990
5067, 2469, 2619, 2313, 2570
5068, 3011, 2883, 4270, 3154
5069, 3542, 3444, 3371, 4249
5070, 3016, 3235, 3304, 178
5071, 3363, 225, 3521, 3420
5072, 3422, 3592, 3322, 3251
5073, 3711, 3310, 3367, 3466
5074, 2819, 2817, 292, 2691
5075, 2691, 2529, 2547, 293
5076, 1895, 2134, 2158, 2175
5077, 4312, 1266, 4359, 1294
5078, 1486, 1447, 1468, 382
5079, 1468, 1424, 4259, 2139
5080, 450, 3118, 2952, 2954
5081, 3186, 3277, 3387, 451
5082, 3413, 3638, 3364, 4176
5083, 3499, 3334, 541, 3694
5084, 3165, 3049, 3608, 3265
5085, 2295, 2764, 2904, 2615
5086, 2075, 2014, 70, 700
5087, 3, 2026, 2011, 607
5088, 2011, 2026, 2419, 2213
5089, 2351, 2264, 110, 2510
5090, 2867, 2889, 2728, 131
5091, 3101, 2934, 2973, 3132
5092, 3016, 178, 2895, 4194
5093, 201, 2938, 3057, 3204
5094, 3054, 2990, 247, 3251
5095, 2908, 3130, 3109, 2977
5096, 2690, 292, 2817, 2929
5097, 2288, 314, 2404, 2531
5098, 1359, 1296, 1339, 1363
5099, 1051, 1019, 1036, 4195
5100, 380, 1220, 1173, 1149
5101, 2452, 1982, 2138, 2164
5102, 2630, 2719, 2552, 2812
5103, 2719, 4157, 2845, 4192
5104, 2748, 4168, 3096, 3240
5105, 2740, 3123, 3040, 2930
5106, 3275, 3153, 2985, 518
5107, 3058, 2964, 2838, 540
5108, 2947, 2794, 3020, 2903
5109, 2439, 2314, 2210, 2415
5110, 1962, 1939, 71, 701
5111, 2210, 1962, 2014, 2415
5112, 605, 2035, 2043, 2
5113, 2, 2043, 2036, 606
5114, 2685, 2510, 2379, 2317
5115, 2564, 154, 2766, 2681
5116, 2550, 2281, 176, 2513
5117, 2402, 2287, 199, 2511
5118, 2380, 2204, 222, 2495
5119, 2637, 2571, 246, 2990
5120, 2669, 2841, 2569, 2311
5121, 2675, 2369, 2500, 291
5122, 2535, 2407, 2395, 4072
5123, 2394, 2100, 1983, 313
5124, 932, 957, 906, 904
5125, 1041, 1064, 1055, 1028
5126, 2335, 2409, 2164, 1887
5127, 2530, 2309, 2630, 2812
5128, 2353, 2272, 448, 2497
5129, 2387, 2200, 471, 2525
5130, 2403, 2193, 494, 2481
5131, 517, 2828, 2573, 2559
5132, 2292, 2668, 2559, 516
5133, 2803, 2628, 561, 2471
5134, 2191, 2423, 2539, 2368
5135, 1939, 1941, 702, 71
5136, 604, 4035, 2030, 1
5137, 1915, 1908, 2172, 109
5138, 1903, 2170, 2169, 1904
5139, 2170, 1903, 1905, 2173
5140, 2281, 1930, 1950, 176
5141, 2287, 1970, 1981, 199
5142, 2204, 1980, 1975, 222
5143, 1933, 1920, 4041, 245
5144, 1914, 2429, 2180, 1918
5145, 2429, 1914, 1919, 2280
5146, 2283, 1949, 1973, 312
5147, 1157, 1906, 1902, 961
5148, 810, 961, 663, 662
5149, 833, 834, 791, 788
5150, 793, 796, 659, 658
5151, 758, 648, 647, 759
5152, 841, 802, 807, 846
5153, 909, 911, 1893, 2131
5154, 2201, 1966, 1967, 425
5155, 2200, 1964, 1948, 471
5156, 1948, 1936, 2193, 471
5157, 2344, 1922, 1924, 2183
5158, 1929, 1940, 2426, 2186
5159, 2203, 1974, 1971, 583
5160, 631, 4033, 1971, 26
5161, 4033, 631, 49, 703
5162, 1912, 1953, 690, 689
5163, 1907, 2174, 2178, 1912
5164, 2813, 573, 2821, 2866
5165, 3312, 3215, 3097, 3168
5166, 3519, 3512, 3629, 3849
5167, 3920, 3928, 3898, 3657
5168, 3491, 3557, 459, 4497
5169, 3323, 4429, 3143, 459
5170, 4257, 2609, 2696, 2548
5171, 2249, 2133, 2176, 2383
5172, 1112, 1179, 1091, 367
5173, 1909, 1907, 60, 688
5174, 2386, 2174, 2282, 4090
5175, 2541, 574, 2659, 4090
5176, 2927, 3100, 3290, 550
5177, 3482, 3168, 3290, 3417
5178, 3710, 3818, 3650, 3549
5179, 4595, 4556, 3891, 3988
5180, 3515, 3631, 3619, 3435
5181, 3332, 437, 3247, 3515
5182, 4250, 2798, 414, 2865
5183, 2244, 2142, 391, 2329
5184, 1954, 1913, 59, 687
5185, 2286, 1954, 2050, 596
5186, 2396, 2286, 596, 2523
5187, 3015, 551, 2886, 2714
5188, 3783, 3633, 4434, 3823
5189, 484, 3952, 4002, 3880
5190, 3851, 461, 3729, 4531
5191, 4273, 438, 4295, 2894
5192, 2081, 2050, 58, 686
5193, 2278, 2081, 2092, 597
5194, 2522, 2278, 597, 2512
5195, 4235, 4234, 4274, 3234
5196, 3494, 3316, 3341, 530
5197, 3570, 3708, 3789, 3707
5198, 3754, 3941, 3856, 3909
5199, 4463, 3599, 4415, 462
5200, 3369, 3458, 439, 3287
5201, 2086, 2087, 685, 56
5202, 2367, 2235, 598, 2496
5203, 3023, 553, 3137, 2893
5204, 530, 4217, 3498, 3700
5205, 4366, 4309, 4308, 3565
5206, 4455, 3993, 3997, 3837
5207, 3838, 463, 3799, 4416
5208, 56, 684, 2084, 2086
5209, 2085, 2084, 684, 55
5210, 2342, 2258, 599, 2494
5211, 3061, 554, 2942, 2721
5212, 3429, 531, 3309, 4231
5213, 3671, 3682, 510, 3840
5214, 4411, 3985, 4477, 4413
5215, 2057, 2079, 683, 54
5216, 2057, 2002, 2209, 600
5217, 2654, 2327, 2462, 579
5218, 3071, 555, 2961, 2861
5219, 532, 3335, 3432, 3597
5220, 1955, 2002, 682, 681
5221, 2421, 2198, 1955, 1959
5222, 580, 2815, 2576, 2588
5223, 3053, 2981, 557, 3252
5224, 3300, 3450, 3252, 557
5225, 1959, 1955, 681, 53
5226, 2464, 2994, 2320, 2555
5227, 3044, 4156, 3113, 2840
5228, 52, 2047, 1988, 680
5229, 2078, 679, 51, 2089
5230, 2268, 2366, 2555, 2422
5231, 1956, 1947, 2196, 603
5232, 83, 1984, 1947, 715
5233, 3383, 3378, 4251, 535
5234, 3430, 3311, 3493, 3801
5235, 3787, 3594, 4460, 4461
5236, 3209, 3508, 3609, 3327
5237, 3224, 2928, 417, 3336
5238, 2392, 2194, 370, 2505
5239, 1917, 1900, 2168, 370
5240, 369, 1021, 963, 4077
5241, 2028, 2212, 2425, 1984
5242, 82, 2098, 2028, 714
5243, 3080, 2970, 514, 3253
5244, 2863, 2971, 3074, 514
5245, 3342, 4370, 3202, 4332
5246, 3740, 3635, 3910, 3756
5247, 3233, 3455, 3967, 3351
5248, 2959, 418, 3077, 2739
5249, 2365, 2218, 371, 2491
5250, 370, 2194, 1938, 1917
5251, 734, 1900, 1917, 88
5252, 2098, 2120, 3428, 560
5253, 2114, 712, 711, 2119
5254, 2679, 2575, 492, 2863
5255, 2979, 2971, 2863, 492
5256, 3299, 3416, 3200, 4303
5257, 3529, 444, 3408, 4286
5258, 2939, 419, 3062, 2725
5259, 2644, 2338, 2488, 395
5260, 2218, 2001, 1979, 371
5261, 735, 1938, 1979, 89
5262, 2114, 3176, 537, 2104
5263, 2105, 80, 710, 2113
5264, 2575, 2326, 2658, 492
5265, 4219, 3073, 2713, 3052
5266, 3299, 4303, 3374, 444
5267, 2770, 3231, 2896, 398
5268, 2633, 2305, 2472, 396
5269, 2230, 2061, 2049, 372
5270, 736, 2001, 2049, 90
5271, 709, 2112, 2115, 79
5272, 470, 2255, 2340, 2499
5273, 2707, 3093, 2932, 446
5274, 421, 3155, 2991, 2896
5275, 2623, 2297, 2768, 3386
5276, 2023, 2055, 2998, 374
5277, 737, 2061, 2068, 91
5278, 79, 2115, 2113, 710
5279, 2106, 78, 708, 2118
5280, 447, 2261, 2358, 2509
5281, 2937, 2734, 2869, 422
5282, 2857, 2334, 2467, 4102
5283, 2004, 2009, 2215, 375
5284, 92, 2055, 2023, 739
5285, 2106, 470, 2238, 2112
5286, 2107, 77, 707, 2111
5287, 424, 2269, 2376, 2516
5288, 2361, 2227, 376, 2487
5289, 2004, 375, 2217, 2007
5290, 2009, 740, 739, 2023
5291, 2107, 447, 2255, 2118
5292, 2108, 76, 706, 2117
5293, 401, 2275, 2388, 2524
5294, 2052, 742, 94, 2018
5295, 741, 2007, 2018, 94
5296, 2261, 2111, 2108, 424
5297, 2110, 705, 74, 2116
5298, 2069, 2065, 2231, 378
5299, 742, 2052, 2063, 95
5300, 2109, 2110, 2275, 401
5301, 704, 2071, 2116, 74
5302, 743, 2065, 2069, 96
5303, 744, 2071, 704, 85
5304, 2237, 2103, 2077, 334
5305, 2208, 1998, 1957, 2352
5306, 2199, 1945, 1985, 2416
5307, 244, 2807, 2129, 2126
5308, 2121, 221, 2239, 2125
5309, 2076, 198, 2236, 2099
5310, 2076, 2074, 2263, 198
5311, 2102, 2124, 4042, 2270
5312, 129, 2240, 2127, 2128
5313, 1904, 1908, 675, 47
5314, 2446, 2685, 2317, 130
5315, 2570, 2419, 2264, 2351
5316, 111, 2213, 2313, 2757
5317, 2673, 2572, 112, 2801
5318, 113, 2222, 2332, 2498
5319, 114, 2266, 2348, 2485
5320, 115, 2279, 2375, 2476
5321, 2401, 116, 2211, 2520
5322, 117, 2220, 2391, 2518
5323, 2223, 2373, 2478, 118
5324, 2568, 2417, 2226, 2341
5325, 2308, 2747, 2966, 2221
5326, 2299, 120, 2418, 2214
5327, 2197, 2319, 121, 2354
5328, 2377, 122, 2205, 2504
5329, 123, 2219, 2398, 2532
5330, 124, 2225, 2397, 2526
5331, 125, 2277, 2381, 2506
5332, 2267, 2356, 2563, 2424
5333, 2185, 2294, 127, 2345
5334, 2390, 2240, 129, 2202
5335, 674, 673, 1905, 1903
5336, 2681, 2301, 153, 2564
5337, 2835, 2728, 2902, 2469
5338, 3011, 3144, 2762, 2883
5339, 3173, 3284, 134, 3467
5340, 4152, 2758, 2936, 3162
5341, 136, 2629, 2738, 4162
5342, 137, 2604, 2771, 4113
5343, 138, 2592, 2744, 3024
5344, 2726, 3022, 2827, 2594
5345, 2711, 3036, 2848, 2647
5346, 2699, 2763, 141, 2453
5347, 3216, 142, 2607, 2796
5348, 2610, 2799, 143, 2461
5349, 144, 4204, 2788, 2912
5350, 145, 2634, 2723, 2913
5351, 2727, 146, 4153, 2591
5352, 2717, 147, 4154, 2593
5353, 4220, 2847, 2662, 2704
5354, 2716, 4327, 2974, 2844
5355, 2833, 151, 4087, 4124
5356, 2378, 2551, 152, 2517
5357, 1930, 1911, 46, 672
5358, 3273, 3285, 156, 3394
5359, 4178, 3355, 3222, 157
5360, 4228, 3042, 3222, 3425
5361, 159, 4292, 3249, 3331
5362, 3117, 3241, 160, 2880
5363, 3230, 161, 3024, 3223
5364, 4211, 3232, 3337, 3396
5365, 3226, 3261, 3270, 164
5366, 3159, 3465, 3506, 4163
5367, 166, 3124, 3178, 3292
5368, 3359, 3218, 167, 4337
5369, 170, 3084, 3175, 3338
5370, 3064, 3193, 171, 2920
5371, 3718, 3210, 172, 3554
5372, 174, 2874, 2741, 2612
5373, 2355, 2263, 175, 2480
5374, 1970, 1950, 45, 671
5375, 176, 2287, 2402, 2513
5376, 3016, 4194, 3121, 3221
5377, 3235, 3348, 3485, 3304
5378, 179, 4350, 3696, 3709
5379, 181, 3588, 3626, 3652
5380, 3705, 3502, 3564, 3734
5381, 3489, 3560, 184, 3318
5382, 185, 3362, 3556, 3643
5383, 3722, 3484, 3553, 3731
5384, 3625, 4364, 4313, 3531
5385, 188, 4007, 3692, 4022
5386, 3568, 189, 3415, 3956
5387, 3548, 3717, 3587, 3409
5388, 3888, 3737, 3730, 3950
5389, 3617, 191, 3753, 3620
5390, 3505, 4395, 4474, 193
5391, 3606, 194, 3713, 193
5392, 3733, 3524, 195, 3647
5393, 2809, 4159, 4188, 3063
5394, 198, 2544, 2333, 2236
5395, 1975, 1980, 670, 43
5396, 199, 2204, 2380, 2511
5397, 2712, 3057, 2938, 4133
5398, 3204, 3363, 3420, 3303
5399, 3521, 3748, 3723, 3420
5400, 3979, 3965, 3882, 3943
5401, 228, 3776, 3725, 3540
5402, 229, 3843, 3766, 3559
5403, 3889, 3973, 4495, 3912
5404, 3814, 3664, 208, 3874
5405, 3774, 3806, 3673, 3614
5406, 3714, 3825, 3651, 3516
5407, 3786, 4553, 3886, 3794
5408, 3813, 3881, 212, 3653
5409, 4475, 213, 4019, 3717
5410, 3888, 3980, 214, 4374
5411, 4490, 3858, 4500, 3945
5412, 3812, 3877, 3994, 216
5413, 3902, 3915, 3989, 217
5414, 3627, 3688, 218, 3579
5415, 3201, 219, 3349, 3460
5416, 2751, 220, 2963, 3081
5417, 2325, 4070, 2493, 2656
5418, 1933, 1952, 669, 42
5419, 2637, 4095, 2346, 2571
5420, 2990, 3054, 2775, 2637
5421, 3310, 3422, 3251, 247
5422, 4306, 3589, 248, 3668
5423, 3649, 3339, 230, 4542
5424, 3457, 3580, 230, 3339
5425, 232, 3439, 3360, 3476
5426, 3274, 3219, 3777, 3561
5427, 3786, 4599, 3869, 4553
5428, 3975, 3841, 4578, 3969
5429, 4491, 3836, 4428, 3929
5430, 3940, 237, 4020, 3951
5431, 3821, 262, 3953, 3883
5432, 241, 3796, 3727, 4310
5433, 242, 3357, 3487, 4193
5434, 244, 2574, 2678, 2807
5435, 1918, 1920, 668, 667
5436, 2455, 2669, 2311, 267
5437, 4126, 2908, 2977, 246
5438, 4201, 4202, 3367, 3238
5439, 3466, 3550, 3897, 3711
5440, 3622, 3530, 250, 3809
5441, 3382, 3183, 3245, 4638
5442, 4638, 4650, 3325, 251
5443, 3400, 3258, 3572, 3161
5444, 2900, 254, 3229, 253
5445, 3174, 3091, 2931, 4607
5446, 3030, 3219, 4607, 4567
5447, 279, 3446, 3340, 3246
5448, 3163, 3414, 3272, 4464
5449, 3917, 3628, 3836, 4491
5450, 3674, 3808, 4427, 3862
5451, 4340, 3574, 3478, 283
5452, 3584, 284, 3757, 3640
5453, 3680, 3821, 3676, 3613
5454, 3792, 3907, 262, 3949
5455, 3957, 3443, 263, 3573
5456, 3145, 3075, 3149, 3379
5457, 2293, 2755, 2616, 2456
5458, 1919, 1914, 41, 666
5459, 2855, 2369, 2675, 3131
5460, 2929, 3003, 3005, 3131
5461, 2976, 2817, 2819, 3047
5462, 3398, 3104, 3167, 4473
5463, 4532, 3492, 4473, 3212
5464, 273, 3110, 2872, 2871
5465, 2671, 2830, 297, 4662
5466, 3532, 2800, 2888, 2983
5467, 299, 2521, 2435, 2171
5468, 300, 2695, 2545, 4486
5469, 2956, 3414, 3163, 3059
5470, 3146, 3288, 3060, 2907
5471, 3169, 3301, 3604, 281
5472, 3478, 3574, 3445, 3266
5473, 3584, 3326, 3250, 3442
5474, 3352, 285, 4276, 3436
5475, 287, 3182, 4263, 4260
5476, 4190, 2975, 288, 2616
5477, 2440, 2316, 2199, 2416
5478, 1949, 1931, 40, 665
5479, 2407, 2283, 312, 2395
5480, 4104, 4103, 2531, 2690
5481, 2547, 2529, 2413, 315
5482, 2586, 2465, 316, 4462
5483, 4471, 2873, 2733, 2580
5484, 2441, 2694, 2980, 2687
5485, 2566, 2371, 2252, 297
5486, 2181, 1886, 320, 2262
5487, 1405, 322, 2143, 1896
5488, 301, 2374, 2251, 4372
5489, 1884, 2160, 1888, 1052
5490, 2447, 302, 2328, 2433
5491, 304, 2907, 2693, 4242
5492, 2767, 4243, 4242, 326
5493, 2736, 3008, 3158, 3082
5494, 2731, 306, 2909, 4130
5495, 3045, 307, 2922, 2715
5496, 2918, 3646, 3027, 2773
5497, 2924, 310, 4183, 3035
5498, 2784, 311, 2870, 2754
5499, 2208, 2352, 2482, 2370
5500, 1902, 1977, 664, 38
5501, 1906, 2137, 2248, 4040
5502, 1363, 1339, 1295, 337
5503, 2134, 1556, 338, 2177
5504, 2243, 2289, 2162, 2135
5505, 1898, 1856, 2246, 2322
5506, 1687, 1729, 1882, 1708
5507, 1505, 1490, 1514, 1581
5508, 1361, 1426, 4555, 1403
5509, 1202, 1176, 1154, 4319
5510, 1110, 1066, 4264, 1090
5511, 1092, 1071, 4261, 1048
5512, 2161, 4181, 2132, 2165
5513, 2343, 2412, 2165, 4086
5514, 2393, 2285, 349, 2489
5515, 2364, 2273, 350, 2507
5516, 2475, 2648, 2339, 351
5517, 2790, 2777, 330, 2715
5518, 2622, 2298, 2463, 331
5519, 2336, 2490, 2638, 2834
5520, 2360, 2265, 355, 2515
5521, 355, 2276, 2382, 2515
5522, 901, 872, 875, 927
5523, 1050, 1087, 1036, 4121
5524, 1425, 1381, 1355, 1399
5525, 1600, 1574, 1617, 1680
5526, 1786, 1818, 1829, 4640
5527, 1674, 1661, 1684, 1697
5528, 1501, 1525, 1506, 1482
5529, 1345, 1328, 1305, 1319
5530, 777, 824, 894, 886
5531, 1030, 981, 1046, 1041
5532, 1198, 1240, 4254, 1173
5533, 1398, 4448, 1429, 4501
5534, 1533, 1576, 1555, 1513
5535, 1673, 4606, 1703, 1710
5536, 384, 1853, 1828, 4557
5537, 1781, 1739, 1759, 1774
5538, 1622, 1597, 1583, 1635
5539, 1392, 1400, 1379, 366
5540, 1112, 367, 1063, 1107
5541, 1219, 1221, 1167, 1241
5542, 2142, 2244, 2145, 1181
5543, 368, 1180, 2142, 1181
5544, 370, 2168, 4068, 2505
5545, 371, 2194, 2392, 2491
5546, 372, 2218, 2365, 2488
5547, 373, 2230, 2338, 2472
5548, 2305, 2787, 2998, 2229
5549, 375, 2215, 2297, 2467
5550, 376, 2217, 2334, 2487
5551, 377, 2227, 2361, 2514
5552, 2275, 378, 2231, 2388
5553, 35, 911, 849, 643
5554, 2131, 2335, 379, 909
5555, 2138, 1336, 1220, 380
5556, 2149, 382, 1468, 2139
5557, 4423, 1890, 2166, 1899
5558, 2546, 408, 2557, 4679
5559, 1727, 4626, 1897, 1683
5560, 388, 1511, 2150, 4431
5561, 2357, 2254, 2136, 412
5562, 2136, 4432, 4378, 2056
5563, 2688, 4203, 4224, 2806
5564, 4105, 4203, 2688, 393
5565, 3051, 2832, 2750, 2955
5566, 2722, 3076, 2825, 394
5567, 396, 2644, 2739, 2939
5568, 397, 2633, 2725, 3172
5569, 2623, 2770, 398, 4102
5570, 2857, 399, 2487, 2334
5571, 2361, 2756, 400, 2514
5572, 2376, 2269, 401, 2524
5573, 34, 1958, 1893, 642
5574, 2530, 2409, 402, 2420
5575, 2408, 404, 2159, 403
5576, 4348, 4300, 2430, 405
5577, 4508, 2451, 2527, 2406
5578, 2291, 4646, 2307, 2253
5579, 2303, 2444, 409, 4644
5580, 2312, 2363, 4594, 410
5581, 2359, 2554, 4488, 411
5582, 2680, 435, 4418, 2921
5583, 2792, 2780, 435, 2680
5584, 2290, 2383, 2176, 2245
5585, 3111, 3308, 4229, 3195
5586, 3189, 416, 3000, 3142
5587, 419, 3077, 3209, 3327
5588, 420, 3062, 3233, 3351
5589, 420, 3351, 3391, 3260
5590, 3408, 3155, 421, 4286
5591, 423, 2824, 2937, 2707
5592, 2358, 2261, 424, 2516
5593, 33, 1967, 1966, 640
5594, 2473, 2353, 2645, 426
5595, 2954, 2742, 2943, 450
5596, 428, 4311, 2837, 3255
5597, 2689, 428, 2781, 429
5598, 2877, 3129, 4529, 2783
5599, 2875, 4663, 431, 2746
5600, 432, 2608, 2697, 2881
5601, 2958, 3095, 2846, 4605
5602, 3185, 4418, 3088, 3368
5603, 3099, 4273, 2865, 4357
5604, 3567, 3497, 4177, 440
5605, 3497, 3567, 3689, 441
5606, 3609, 3552, 4393, 4405
5607, 443, 3967, 3455, 3607
5608, 3701, 444, 3529, 3863
5609, 446, 2932, 2713, 4122
5610, 2340, 2255, 447, 2509
5611, 638, 1964, 1968, 32
5612, 448, 2200, 2387, 2497
5613, 3277, 3186, 3177, 3296
5614, 3203, 3278, 452, 3078
5615, 454, 4682, 2986, 3269
5616, 3187, 4688, 3108, 4682
5617, 456, 3092, 3181, 4694
5618, 3283, 457, 3141, 4634
5619, 3611, 3405, 481, 4018
5620, 458, 3368, 3385, 3469
5621, 3247, 3048, 3475, 460
5622, 3435, 3619, 3345, 3205
5623, 464, 3982, 3921, 3781
5624, 4572, 3921, 3982, 4024
5625, 3816, 3870, 3906, 466
5626, 3685, 4461, 4460, 467
5627, 469, 2962, 2735, 2658
5628, 470, 2499, 2326, 2238
5629, 637, 1936, 1948, 31
5630, 471, 2193, 2403, 2525
5631, 3404, 3520, 475, 3289
5632, 4528, 3377, 4579, 3585
5633, 4592, 4559, 3791, 4549
5634, 4658, 3438, 477, 3562
5635, 4690, 3576, 479, 3503
5636, 3662, 3759, 3850, 3936
5637, 4570, 3665, 481, 3405
5638, 3575, 3471, 3657, 3898
5639, 3729, 3619, 3631, 4541
5640, 3754, 3661, 4015, 485
5641, 4410, 3894, 3835, 3923
5642, 3923, 3835, 511, 4476
5643, 3693, 489, 3871, 3750
5644, 3311, 3356, 4328, 3493
5645, 2575, 2679, 4054, 493
5646, 636, 1923, 1926, 30
5647, 2620, 2481, 2372, 2573
5648, 3153, 2778, 2828, 2985
5649, 3275, 4226, 3375, 3153
5650, 3624, 3728, 3636, 4352
5651, 3959, 4480, 3934, 3846
5652, 4591, 3878, 3770, 4618
5653, 3962, 3918, 3802, 3844
5654, 4546, 3704, 3496, 3350
5655, 3824, 3672, 504, 4628
5656, 4677, 4672, 4673, 3932
5657, 3911, 3960, 4002, 3999
5658, 3856, 4493, 3899, 3970
5659, 508, 4398, 3837, 3997
5660, 3601, 533, 3450, 534
5661, 3683, 3679, 4230, 533
5662, 3430, 3509, 3459, 513
5663, 514, 3074, 3148, 3253
5664, 2970, 3080, 515, 2808
5665, 1924, 635, 634, 1929
5666, 2486, 2668, 2292, 538
5667, 4268, 518, 3058, 3330
5668, 3346, 3536, 3315, 542
5669, 3346, 3424, 3537, 520
5670, 3681, 4420, 4369, 3373
5671, 3426, 3228, 545, 3412
5672, 3329, 3558, 3403, 547
5673, 3350, 3244, 549, 3215
5674, 3447, 524, 3329, 3248
5675, 526, 3512, 3519, 3563
5676, 527, 3482, 3549, 3650
5677, 4391, 528, 3571, 3543
5678, 3570, 529, 3494, 530
5679, 4367, 4366, 3565, 3775
5680, 531, 3429, 3605, 3660
5681, 557, 4184, 3184, 3300
5682, 4191, 4184, 4156, 558
5683, 3148, 3378, 3381, 3253
5684, 2302, 3428, 537, 2769
5685, 28, 1940, 1929, 634
5686, 2947, 540, 2838, 3066
5687, 3019, 3225, 2903, 2772
5688, 3192, 3090, 544, 3373
5689, 3217, 2917, 3025, 3361
5690, 2718, 572, 2949, 3068
5691, 3046, 547, 2926, 2732
5692, 549, 2866, 3097, 3215
5693, 3100, 551, 3417, 3290
5694, 552, 4318, 3427, 3551
5695, 4235, 3234, 4318, 552
5696, 3237, 3307, 4173, 3220
5697, 3207, 3309, 3061, 4160
5698, 3239, 4185, 3071, 556
5699, 2729, 581, 2705, 2624
5700, 559, 2915, 4108, 2804
5701, 632, 1974, 1976, 27
5702, 2203, 2368, 2556, 2427
5703, 2615, 2851, 2457, 2295
5704, 2764, 2295, 2899, 585
5705, 2627, 2300, 2468, 2653
5706, 2331, 4149, 2653, 2468
5707, 2324, 2543, 2660, 2492
5708, 2350, 2271, 591, 2501
5709, 2650, 2337, 2474, 571
5710, 572, 2683, 2813, 2949
5711, 2927, 3094, 2839, 3100
5712, 574, 2639, 2714, 2886
5713, 4120, 575, 2753, 2385
5714, 2710, 576, 2642, 2782
5715, 577, 2649, 2721, 2942
5716, 578, 2654, 2861, 2961
5717, 579, 2621, 2797, 2945
5718, 2196, 2425, 2538, 2384
5719, 2189, 2318, 593, 2362
5720, 2174, 2386, 594, 2178
5721, 595, 2286, 2396, 2541
5722, 2385, 596, 2278, 2522
5723, 597, 2235, 2367, 2512
5724, 598, 2258, 2342, 2496
5725, 599, 2233, 2327, 2494
5726, 600, 2209, 2296, 2462
5727, 2565, 2421, 2206, 2320
5728, 24, 676, 4035, 604
5729, 1, 2030, 2035, 605
5730, 606, 2036, 2026, 3
5731, 607, 2011, 1995, 4
5732, 608, 1990, 1999, 609
5733, 5, 2016, 2029, 610
5734, 611, 2040, 2033, 7
5735, 612, 2013, 1994, 8
5736, 9, 2003, 2020, 614
5737, 10, 2024, 2031, 615
5738, 11, 2039, 2041, 616
5739, 617, 2042, 2027, 13
5740, 618, 2021, 2015, 619
5741, 619, 2015, 1992, 14
5742, 16, 1986, 2008, 622
5743, 17, 2025, 2037, 623
5744, 624, 2038, 2034, 19
5745, 625, 2019, 1993, 20
5746, 626, 1942, 1927, 627
5747, 21, 1921, 1925, 628
5748, 23, 1987, 2012, 630
5749, 26, 1971, 1974, 632
5750, 633, 1961, 1940, 28
5751, 635, 1924, 1922, 29
5752, 29, 1922, 1923, 636
5753, 30, 1926, 1936, 637
5754, 31, 1948, 1964, 638
5755, 32, 1968, 1969, 639
5756, 640, 1966, 1972, 641
5757, 642, 1893, 911, 35
5758, 643, 849, 807, 644
5759, 644, 807, 802, 645
5760, 646, 799, 786, 36
5761, 36, 786, 759, 647
5762, 649, 648, 758, 760
5763, 650, 649, 760, 764
5764, 651, 650, 764, 779
5765, 779, 782, 652, 651
5766, 782, 785, 653, 652
5767, 785, 787, 654, 653
5768, 787, 788, 655, 654
5769, 788, 791, 656, 655
5770, 791, 792, 657, 656
5771, 792, 793, 658, 657
5772, 37, 660, 800, 803
5773, 661, 37, 803, 806
5774, 806, 810, 662, 661
5775, 1973, 1949, 665, 39
5776, 1931, 1919, 666, 40
5777, 667, 41, 1914, 1918
5778, 1920, 1933, 42, 668
5779, 1952, 1975, 43, 669
5780, 1980, 1981, 44, 670
5781, 1950, 1930, 672, 45
5782, 1911, 1905, 673, 46
5783, 1903, 1904, 47, 674
5784, 1908, 1915, 48, 675
5785, 50, 2082, 2090, 678
5786, 679, 2078, 2047, 52
5787, 680, 1988, 1959, 53
5788, 2002, 2057, 54, 682
5789, 2079, 2085, 55, 683
5790, 2087, 2092, 57, 685
5791, 2050, 1954, 687, 58
5792, 1913, 1909, 688, 59
5793, 689, 60, 1907, 1912
5794, 1953, 2032, 61, 690
5795, 2080, 2094, 62, 691
5796, 2072, 1997, 693, 63
5797, 1943, 1932, 694, 64
5798, 1934, 1944, 66, 695
5799, 1996, 2073, 67, 696
5800, 2091, 2095, 68, 697
5801, 2088, 2075, 700, 699
5802, 2014, 1962, 701, 70
5803, 1941, 1965, 72, 702
5804, 705, 2110, 2109, 75
5805, 75, 2109, 2117, 706
5806, 77, 2107, 2118, 708
5807, 78, 2106, 2112, 709
5808, 80, 2105, 2119, 711
5809, 712, 2114, 2104, 81
5810, 81, 2104, 2120, 713
5811, 714, 2028, 1984, 83
5812, 84, 1956, 1989, 716
5813, 772, 4721, 4722, 770
5814, 720, 769, 767, 721
5815, 768, 4723, 4724, 766
5816, 766, 4724, 4725, 763
5817, 769, 720, 719, 771
5818, 763, 4725, 4726, 762
5819, 724, 723, 761, 775
5820, 776, 4727, 4728, 781
5821, 781, 4728, 4729, 784
5822, 725, 724, 775, 780
5823, 784, 4729, 4730, 790
5824, 776, 4043, 820, 762
5825, 780, 783, 726, 725
5826, 4727, 776, 762, 4726
5827, 783, 789, 727, 726
5828, 729, 728, 794, 797
5829, 4732, 798, 795, 4731
5830, 4731, 795, 790, 4730
5831, 4733, 801, 798, 4732
5832, 732, 808, 986, 733
5833, 804, 847, 844, 801
5834, 4737, 960, 850, 4736
5835, 4736, 850, 809, 4735
5836, 4738, 1885, 960, 4737
5837, 2155, 1900, 734, 87
5838, 4740, 1937, 1916, 4739
5839, 88, 1917, 1938, 735
5840, 4742, 2000, 1978, 4741
5841, 89, 1979, 2001, 736
5842, 4744, 2060, 2048, 4743
5843, 90, 2049, 2061, 737
5844, 4747, 2054, 2058, 4746
5845, 738, 2059, 2055, 92
5846, 4749, 2010, 2022, 4748
5847, 2005, 4750, 4751, 2006
5848, 93, 2004, 2007, 741
5849, 4753, 2051, 2017, 4752
5850, 95, 2063, 2065, 743
5851, 4757, 2070, 2066, 4756
5852, 96, 2069, 2071, 744
5853, 2127, 746, 98, 2128
5854, 2124, 2102, 747, 99
5855, 2097, 2074, 748, 100
5856, 2099, 2121, 102, 749
5857, 2125, 2126, 103, 750
5858, 2123, 2101, 752, 104
5859, 2101, 2053, 753, 752
5860, 1945, 1957, 106, 754
5861, 1998, 2077, 107, 755
5862, 356, 2130, 2103, 2237
5863, 758, 811, 812, 760
5864, 799, 646, 645, 802
5865, 759, 4074, 811, 758
5866, 761, 723, 722, 765
5867, 828, 780, 775, 865
5868, 815, 763, 762, 820
5869, 771, 719, 718, 773
5870, 814, 761, 765, 4058
5871, 763, 815, 816, 766
5872, 760, 812, 813, 764
5873, 773, 718, 717, 778
5874, 767, 818, 4058, 765
5875, 778, 717, 97, 827
5876, 767, 769, 4048, 818
5877, 766, 816, 817, 768
5878, 771, 821, 4048, 769
5879, 4721, 772, 774, 4720
5880, 819, 770, 768, 817
5881, 825, 773, 778, 864
5882, 822, 772, 770, 819
5883, 4720, 774, 777, 97
5884, 784, 4044, 830, 781
5885, 894, 824, 857, 917
5886, 812, 852, 4057, 813
5887, 826, 779, 764, 813
5888, 728, 727, 789, 794
5889, 782, 829, 831, 785
5890, 837, 786, 799, 4046
5891, 785, 831, 832, 787
5892, 787, 832, 833, 788
5893, 830, 868, 820, 4043
5894, 875, 872, 839, 836
5895, 792, 791, 834, 4038
5896, 660, 659, 796, 800
5897, 801, 4733, 4734, 804
5898, 793, 792, 4038, 836
5899, 797, 794, 838, 843
5900, 4031, 4030, 797, 843
5901, 790, 4045, 4044, 784
5902, 800, 796, 839, 842
5903, 4031, 805, 731, 86
5904, 798, 840, 835, 795
5905, 4081, 4046, 841, 900
5906, 803, 800, 842, 845
5907, 801, 844, 840, 798
5908, 848, 880, 910, 883
5909, 845, 851, 806, 803
5910, 902, 881, 846, 878
5911, 986, 808, 883, 1021
5912, 809, 935, 847, 804
5913, 961, 810, 884, 1157
5914, 852, 812, 811, 890
5915, 779, 826, 829, 782
5916, 869, 4047, 926, 874
5917, 815, 853, 4078, 816
5918, 816, 4078, 855, 817
5919, 821, 771, 773, 825
5920, 4048, 867, 893, 818
5921, 772, 822, 823, 774
5922, 795, 835, 4045, 790
5923, 4044, 4045, 870, 830
5924, 865, 814, 4058, 866
5925, 4055, 856, 823, 822
5926, 774, 823, 824, 777
5927, 4032, 886, 912, 885
5928, 778, 827, 888, 864
5929, 825, 864, 889, 821
5930, 4037, 915, 4039, 858
5931, 4032, 97, 777, 886
5932, 889, 864, 888, 914
5933, 828, 865, 4047, 869
5934, 826, 854, 4056, 829
5935, 820, 868, 853, 815
5936, 4056, 859, 831, 829
5937, 831, 859, 860, 832
5938, 4036, 789, 783, 869
5939, 832, 860, 861, 833
5940, 834, 833, 861, 862
5941, 796, 793, 836, 839
5942, 868, 830, 870, 899
5943, 834, 862, 863, 4038
5944, 802, 841, 4046, 799
5945, 871, 837, 4046, 4081
5946, 838, 874, 908, 843
5947, 877, 882, 845, 842
5948, 868, 899, 891, 853
5949, 872, 877, 842, 839
5950, 848, 843, 908, 880
5951, 847, 879, 873, 844
5952, 849, 878, 846, 807
5953, 881, 900, 841, 846
5954, 935, 809, 850, 1178
5955, 808, 805, 848, 883
5956, 878, 849, 911, 909
5957, 847, 935, 907, 879
5958, 882, 933, 851, 845
5959, 810, 806, 851, 884
5960, 854, 826, 813, 4057
5961, 4110, 4057, 852, 887
5962, 856, 4055, 855, 895
5963, 823, 856, 857, 824
5964, 920, 886, 894, 4053
5965, 4032, 885, 4037, 858
5966, 939, 885, 912, 965
5967, 4110, 898, 854, 4057
5968, 913, 924, 860, 4111
5969, 836, 4038, 863, 875
5970, 922, 927, 875, 863
5971, 865, 866, 892, 4047
5972, 867, 4048, 821, 4065
5973, 4065, 889, 914, 928
5974, 840, 876, 4080, 835
5975, 4036, 869, 874, 838
5976, 4115, 899, 870, 4080
5977, 4138, 887, 916, 944
5978, 930, 932, 904, 901
5979, 844, 873, 876, 840
5980, 4036, 838, 794, 789
5981, 877, 872, 901, 904
5982, 379, 981, 934, 909
5983, 346, 956, 879, 907
5984, 910, 880, 368, 1181
5985, 4109, 923, 4140, 4114
5986, 933, 882, 906, 4066
5987, 851, 933, 958, 884
5988, 986, 1021, 2410, 2155
5989, 1157, 884, 958, 335
5990, 965, 912, 937, 987
5991, 894, 917, 936, 4053
5992, 4111, 860, 859, 4056
5993, 922, 863, 862, 942
5994, 887, 852, 890, 916
5995, 978, 970, 4075, 4083
5996, 892, 866, 893, 896
5997, 4074, 837, 871, 921
5998, 897, 857, 856, 895
5999, 818, 893, 866, 4058
6000, 4059, 926, 4047, 892
6001, 896, 928, 4059, 892
6002, 964, 920, 4053, 971
6003, 899, 4115, 919, 891
6004, 945, 897, 919, 943
6005, 917, 857, 897, 945
6006, 4111, 898, 4138, 913
6007, 4111, 4056, 854, 898
6008, 903, 876, 873, 905
6009, 895, 891, 919, 897
6010, 944, 967, 973, 942
6011, 4081, 900, 4109, 871
6012, 962, 984, 908, 874
6013, 862, 861, 924, 942
6014, 942, 924, 913, 944
6015, 905, 873, 879, 956
6016, 934, 902, 878, 909
6017, 931, 923, 881, 902
6018, 925, 943, 919, 4115
6019, 877, 904, 906, 882
6020, 929, 905, 956, 979
6021, 4066, 906, 957, 1002
6022, 907, 935, 1178, 959
6023, 880, 908, 984, 368
6024, 963, 910, 1181, 2145
6025, 938, 4049, 966, 990
6026, 4050, 4039, 915, 938
6027, 4059, 928, 949, 4075
6028, 4049, 4037, 885, 939
6029, 4074, 921, 890, 811
6030, 918, 871, 4109, 4114
6031, 971, 4053, 936, 989
6032, 900, 881, 923, 4109
6033, 946, 948, 967, 944
6034, 921, 871, 918, 946
6035, 4065, 928, 896, 867
6036, 926, 4059, 4075, 940
6037, 920, 964, 4060, 937
6038, 912, 886, 920, 937
6039, 922, 942, 973, 941
6040, 4115, 903, 929, 925
6041, 927, 922, 941, 951
6042, 954, 925, 929, 979
6043, 926, 940, 962, 874
6044, 930, 901, 927, 951
6045, 4064, 949, 928, 914
6046, 947, 943, 925, 954
6047, 955, 930, 951, 977
6048, 902, 934, 953, 931
6049, 4140, 4137, 4136, 4114
6050, 957, 932, 980, 1018
6051, 985, 958, 933, 983
6052, 934, 981, 1030, 953
6053, 1178, 850, 960, 4051
6054, 988, 939, 965, 1005
6055, 950, 4063, 968, 996
6056, 4050, 914, 888, 4039
6057, 1005, 965, 987, 1025
6058, 970, 4069, 940, 4075
6059, 948, 4137, 993, 967
6060, 969, 941, 973, 994
6061, 943, 947, 975, 945
6062, 946, 944, 916, 921
6063, 918, 4136, 948, 946
6064, 936, 917, 945, 4061
6065, 923, 931, 4158, 4196
6066, 997, 1013, 1011, 4218
6067, 950, 4083, 4064, 4063
6068, 968, 4063, 4050, 938
6069, 969, 977, 951, 941
6070, 976, 4084, 947, 954
6071, 1002, 957, 1018, 4121
6072, 932, 930, 955, 980
6073, 956, 346, 1003, 979
6074, 4073, 4106, 4099, 983
6075, 2132, 1158, 959, 347
6076, 346, 907, 959, 1158
6077, 1885, 2156, 4051, 960
6078, 38, 663, 961, 1902
6079, 1001, 1065, 982, 4069
6080, 883, 910, 963, 1021
6081, 989, 936, 4061, 4062
6082, 1006, 966, 988, 1024
6083, 4049, 938, 915, 4037
6084, 967, 993, 994, 973
6085, 990, 1012, 968, 938
6086, 1011, 1013, 974, 991
6087, 1025, 987, 1007, 1037
6088, 931, 953, 992, 4158
6089, 991, 974, 952, 972
6090, 974, 993, 4137, 952
6091, 1014, 976, 999, 345
6092, 999, 976, 954, 979
6093, 1008, 989, 4062, 998
6094, 1000, 980, 955, 4166
6095, 1032, 978, 1015, 1043
6096, 1044, 970, 978, 1032
6097, 1017, 999, 979, 1003
6098, 4166, 955, 977, 1016
6099, 1002, 1019, 4073, 4066
6100, 992, 1010, 1004, 972
6101, 1067, 1046, 981, 379
6102, 962, 940, 4069, 982
6103, 983, 4099, 1089, 985
6104, 983, 933, 4066, 4073
6105, 984, 962, 982, 1156
6106, 985, 1089, 1114, 4071
6107, 335, 958, 985, 4071
6108, 995, 964, 971, 989
6109, 990, 966, 1006, 1027
6110, 939, 988, 966, 4049
6111, 4084, 998, 4062, 4082
6112, 1009, 972, 1004, 1022
6113, 1000, 4166, 1016, 1136
6114, 1010, 992, 953, 1030
6115, 994, 993, 974, 1013
6116, 1031, 998, 1014, 1034
6117, 995, 1023, 4060, 964
6118, 1015, 950, 996, 1043
6119, 977, 969, 997, 1016
6120, 969, 994, 1013, 997
6121, 1040, 1008, 998, 1031
6122, 970, 1044, 1001, 4069
6123, 950, 1015, 978, 4083
6124, 1035, 4167, 1000, 1136
6125, 1065, 1001, 367, 1091
6126, 1018, 980, 1000, 4167
6127, 1002, 4121, 1036, 1019
6128, 4060, 1007, 987, 937
6129, 1024, 988, 1005, 1038
6130, 1023, 995, 1008, 1040
6131, 4076, 1007, 4060, 1023
6132, 1026, 1011, 991, 1009
6133, 1010, 1030, 1041, 1028
6134, 4275, 1004, 1010, 1028
6135, 1027, 1042, 1012, 990
6136, 976, 1014, 998, 4084
6137, 996, 1012, 1042, 1043
6138, 1011, 1026, 1029, 4218
6139, 345, 999, 1017, 1033
6140, 4195, 1086, 1088, 1051
6141, 1052, 1048, 1003, 1020
6142, 2410, 1021, 369, 4067
6143, 733, 986, 2155, 87
6144, 1039, 1026, 1009, 1022
6145, 1038, 1005, 1025, 1076
6146, 1056, 1074, 1024, 1038
6147, 1074, 1059, 1006, 1024
6148, 1025, 1037, 1057, 1076
6149, 4218, 1045, 1016, 997
6150, 1027, 1006, 1059, 4116
6151, 1045, 4218, 1029, 1073
6152, 1023, 1040, 1054, 4076
6153, 1044, 1032, 4131, 1063
6154, 4131, 1032, 1061, 4169
6155, 1033, 1066, 1047, 345
6156, 1058, 1031, 1049, 1077
6157, 4167, 1050, 4121, 1018
6158, 1068, 1099, 1106, 4223
6159, 4076, 1075, 1037, 1007
6160, 1098, 1093, 1053, 1072
6161, 4275, 357, 1022, 1004
6162, 1039, 1022, 357, 1053
6163, 1049, 1031, 1034, 1062
6164, 1058, 1054, 1040, 1031
6165, 1064, 1041, 1046, 1083
6166, 1060, 4116, 1079, 4165
6167, 1029, 1026, 1039, 1073
6168, 357, 4275, 1072, 1053
6169, 1042, 1060, 4197, 1043
6170, 367, 1001, 1044, 1063
6171, 1072, 1055, 1081, 1098
6172, 1136, 1016, 1045, 1104
6173, 1149, 1067, 1887, 380
6174, 4261, 1071, 1033, 1017
6175, 1066, 1033, 1071, 4264
6176, 1062, 1034, 1047, 1085
6177, 1104, 1070, 1035, 1136
6178, 4195, 1068, 4223, 1086
6179, 4223, 1106, 1130, 1086
6180, 1884, 1052, 1020, 4181
6181, 1052, 1888, 1092, 1048
6182, 1055, 1072, 4275, 1028
6183, 4076, 1054, 4119, 1075
6184, 1115, 1093, 1098, 1127
6185, 1122, 1140, 1168, 1148
6186, 1057, 1037, 1075, 4139
6187, 1076, 1057, 1120, 1119
6188, 1054, 1058, 1078, 4119
6189, 1096, 1059, 1074, 1116
6190, 1079, 4116, 1059, 1096
6191, 1080, 1061, 4197, 4165
6192, 1061, 1032, 1043, 4197
6193, 1085, 1047, 1066, 1110
6194, 1077, 1049, 1082, 1094
6195, 1155, 1091, 1179, 390
6196, 1083, 1046, 1067, 1149
6197, 1123, 1087, 1100, 1139
6198, 1113, 1065, 1091, 1155
6199, 1135, 1154, 1110, 1090
6200, 1887, 1067, 379, 2335
6201, 1128, 1083, 1149, 1173
6202, 1036, 1087, 1068, 4195
6203, 1130, 1106, 1144, 1172
6204, 1109, 1114, 1089, 1069
6205, 4150, 4106, 1051, 1088
6206, 4279, 4216, 1035, 1070
6207, 1053, 1093, 1073, 1039
6208, 1055, 1064, 1097, 1081
6209, 1104, 1045, 1073, 1093
6210, 1076, 1119, 1056, 1038
6211, 1078, 1058, 1077, 1094
6212, 1120, 4139, 1101, 4206
6213, 1120, 1141, 1145, 1119
6214, 1082, 1049, 1062, 1103
6215, 1101, 4119, 1078, 4164
6216, 1122, 1079, 1096, 1140
6217, 4116, 1060, 1042, 1027
6218, 1080, 4165, 1102, 1108
6219, 4170, 4169, 1108, 1150
6220, 1164, 4280, 1138, 1117
6221, 1103, 1062, 1085, 1131
6222, 1126, 1082, 1103, 1151
6223, 1097, 1064, 1111, 1118
6224, 1061, 1080, 1108, 4169
6225, 1152, 1196, 1132, 1125
6226, 1131, 1085, 1110, 1154
6227, 1088, 1086, 1105, 1134
6228, 1109, 1134, 1133, 4129
6229, 4216, 1100, 1087, 1050
6230, 1089, 4099, 4150, 1069
6231, 1090, 2144, 4341, 1135
6232, 323, 1071, 1092, 2256
6233, 1075, 4119, 1101, 4139
6234, 1171, 1145, 1163, 1192
6235, 1119, 1137, 1095, 1056
6236, 1140, 1096, 1116, 1159
6237, 1111, 1064, 1083, 1128
6238, 1139, 1100, 4280, 1164
6239, 1081, 1097, 1117, 1138
6240, 1099, 1068, 1087, 1123
6241, 1115, 1127, 4279, 1070
6242, 1164, 1117, 1147, 1187
6243, 1104, 1093, 1115, 1070
6244, 1172, 1197, 1146, 1130
6245, 1106, 1099, 1124, 1144
6246, 1084, 1125, 1132, 1107
6247, 1129, 1112, 1107, 1273
6248, 1150, 1108, 1102, 1170
6249, 1088, 1134, 1109, 1069
6250, 4098, 2100, 4071, 1114
6251, 1117, 1097, 1118, 1147
6252, 1179, 1112, 1129, 390
6253, 2141, 1113, 1155, 2133
6254, 1180, 1156, 1113, 2141
6255, 4072, 2394, 313, 2399
6256, 1137, 1159, 1116, 1095
6257, 4253, 1111, 1128, 4252
6258, 1160, 1143, 1169, 1191
6259, 4164, 1121, 4206, 1101
6260, 1141, 1120, 4206, 4262
6261, 4206, 1121, 4320, 4262
6262, 4262, 4320, 4322, 1141
6263, 1142, 1094, 1082, 1126
6264, 1079, 1122, 1102, 4165
6265, 1143, 1123, 1139, 1169
6266, 1099, 1123, 1143, 1124
6267, 1166, 1188, 1144, 1124
6268, 1177, 4170, 1150, 1182
6269, 1102, 1122, 1148, 1170
6270, 1273, 1107, 1132, 1245
6271, 1125, 1084, 4170, 1177
6272, 1142, 1161, 1121, 4164
6273, 4280, 4279, 1127, 1138
6274, 1138, 1127, 1098, 1081
6275, 4254, 4252, 1128, 1173
6276, 1105, 1086, 1130, 1146
6277, 1176, 1151, 1131, 1154
6278, 1152, 1125, 1177, 1186
6279, 1243, 1175, 1224, 1271
6280, 2100, 4098, 336, 1983
6281, 1153, 1105, 1146, 1174
6282, 1133, 1134, 1175, 1243
6283, 1135, 322, 4319, 1154
6284, 1194, 1159, 1137, 1171
6285, 1169, 1139, 1164, 1187
6286, 1191, 1204, 1226, 1252
6287, 1147, 1118, 1162, 1189
6288, 1140, 1159, 1185, 1168
6289, 1165, 1201, 1161, 1142
6290, 1160, 1166, 1124, 1143
6291, 1183, 1206, 1166, 1160
6292, 1145, 1171, 1137, 1119
6293, 4253, 1162, 1118, 1111
6294, 344, 1165, 1126, 1151
6295, 1245, 1132, 1196, 1272
6296, 1200, 1153, 1174, 1223
6297, 1134, 1105, 1153, 1175
6298, 1199, 1176, 1202, 1225
6299, 2133, 1155, 390, 2176
6300, 984, 1156, 1180, 368
6301, 1906, 1157, 335, 2137
6302, 1884, 4181, 2161, 324
6303, 1190, 4285, 4253, 4252
6304, 4336, 1249, 1205, 4285
6305, 1163, 1145, 1141, 4322
6306, 1207, 1227, 1213, 1185
6307, 1165, 344, 1222, 1201
6308, 1183, 1209, 1228, 1206
6309, 1167, 1195, 4406, 1241
6310, 1193, 1170, 1148, 1168
6311, 1259, 1198, 1246, 1282
6312, 1215, 1190, 4252, 4254
6313, 1186, 1177, 1182, 4314
6314, 1194, 1171, 1192, 1218
6315, 1188, 1214, 1172, 1144
6316, 1198, 1173, 1220, 1246
6317, 1263, 4380, 1237, 1287
6318, 1175, 1153, 1200, 1224
6319, 1270, 1271, 1224, 1294
6320, 1182, 1150, 1170, 1212
6321, 347, 959, 1178, 4051
6322, 390, 1129, 1203, 2146
6323, 1188, 1166, 1206, 1230
6324, 1161, 1201, 1208, 1184
6325, 1208, 1233, 1210, 1184
6326, 1194, 1207, 1185, 1159
6327, 1211, 1195, 1186, 4314
6328, 1152, 1186, 1195, 1167
6329, 4285, 1205, 1162, 4253
6330, 1187, 1189, 1226, 1204
6331, 1229, 4336, 4285, 1190
6332, 1160, 1191, 1209, 1183
6333, 1204, 1191, 1169, 1187
6334, 1210, 1163, 4322, 1184
6335, 1218, 1234, 1255, 1238
6336, 1236, 1193, 1213, 1264
6337, 1212, 1170, 1193, 1236
6338, 4406, 1195, 1211, 4435
6339, 1196, 1152, 1167, 1221
6340, 1214, 1237, 1197, 1172
6341, 1174, 1146, 1197, 1216
6342, 1215, 4254, 1240, 1260
6343, 1217, 1199, 1225, 1232
6344, 1223, 1174, 1216, 4380
6345, 1224, 1200, 4312, 1294
6346, 1222, 344, 1199, 1217
6347, 322, 1405, 1247, 4319
6348, 1267, 1332, 1361, 1313
6349, 1203, 389, 2254, 2146
6350, 1205, 1226, 1189, 1162
6351, 4389, 4388, 1275, 1251
6352, 1277, 1228, 1251, 1299
6353, 1206, 1228, 1253, 1230
6354, 1192, 4344, 1234, 1218
6355, 1239, 4315, 1212, 1236
6356, 1231, 1222, 1217, 1232
6357, 1251, 1228, 1209, 4389
6358, 1233, 1257, 4344, 1210
6359, 1163, 1210, 4344, 1192
6360, 4314, 1182, 1212, 4315
6361, 1218, 1238, 1207, 1194
6362, 1213, 1193, 1168, 1185
6363, 1230, 1256, 1214, 1188
6364, 1235, 1211, 4314, 4315
6365, 1250, 1229, 1190, 1215
6366, 1238, 1255, 1281, 1254
6367, 1246, 1220, 1336, 1316
6368, 4289, 1282, 1246, 1316
6369, 1244, 1272, 1196, 1221
6370, 1231, 1208, 1201, 1222
6371, 1296, 1243, 1271, 1339
6372, 4343, 1202, 4319, 1247
6373, 1264, 1227, 1254, 1280
6374, 4387, 4336, 1229, 1276
6375, 1253, 1278, 1256, 1230
6376, 1258, 1284, 1257, 1233
6377, 1231, 1232, 1268, 1258
6378, 1232, 1225, 1248, 1265
6379, 1258, 1233, 1208, 1231
6380, 1238, 1254, 1227, 1207
6381, 4381, 4380, 1263, 4438
6382, 1216, 1197, 1237, 4380
6383, 1283, 1239, 1236, 1264
6384, 1235, 4315, 1239, 1261
6385, 1300, 4469, 1277, 1318
6386, 4288, 1259, 4331, 1279
6387, 1211, 1235, 1262, 4435
6388, 1269, 1311, 1219, 1241
6389, 1325, 1288, 4439, 4440
6390, 1337, 1294, 4359, 1334
6391, 1266, 4312, 1242, 1291
6392, 1243, 1296, 336, 1133
6393, 1338, 1244, 1292, 1357
6394, 1273, 389, 1203, 1129
6395, 4331, 1259, 1282, 1326
6396, 1247, 1332, 1267, 4343
6397, 4343, 1248, 1225, 1202
6398, 1267, 1289, 1248, 4343
6399, 4387, 358, 1275, 4388
6400, 1226, 1205, 1249, 1252
6401, 1250, 1215, 1260, 1298
6402, 1229, 1250, 1274, 1276
6403, 4288, 1279, 1260, 1240
6404, 1209, 1191, 1252, 4389
6405, 1283, 4441, 4442, 1304
6406, 1257, 1285, 1234, 4344
6407, 1254, 1281, 1301, 1280
6408, 1256, 1278, 1303, 1287
6409, 1237, 1214, 1256, 1287
6410, 1284, 1293, 4454, 1314
6411, 1258, 1268, 1293, 1284
6412, 1318, 1277, 1299, 1306
6413, 1240, 1198, 1259, 4288
6414, 1274, 1250, 1298, 4437
6415, 1286, 1262, 1235, 1261
6416, 1290, 1269, 1241, 4406
6417, 1307, 1263, 1287, 1324
6418, 1291, 1242, 4381, 1288
6419, 1331, 1291, 1310, 1352
6420, 1267, 1313, 1375, 1289
6421, 1268, 1232, 1265, 4451
6422, 1292, 1219, 1311, 1333
6423, 1271, 1270, 1295, 1339
6424, 1360, 1272, 4377, 4378
6425, 358, 1276, 1274, 4437
6426, 4388, 4389, 1252, 1249
6427, 1275, 358, 4437, 1297
6428, 1253, 1228, 1277, 4469
6429, 1299, 1251, 1275, 1297
6430, 4469, 1320, 1278, 1253
6431, 1306, 1298, 1260, 1279
6432, 4521, 1335, 1378, 1421
6433, 1301, 1323, 4441, 1280
6434, 1285, 1257, 1284, 1314
6435, 1302, 1281, 1255, 4401
6436, 1320, 1344, 1303, 1278
6437, 1261, 1239, 1283, 1304
6438, 1283, 1264, 1280, 4441
6439, 4451, 1265, 1248, 1289
6440, 1285, 4401, 1255, 1234
6441, 1307, 4439, 4438, 1263
6442, 1310, 1291, 1288, 1325
6443, 4452, 4451, 1309, 1354
6444, 1262, 1286, 4468, 1308
6445, 1353, 4507, 1329, 1368
6446, 1331, 1377, 1317, 4408
6447, 1357, 1292, 1333, 1380
6448, 1309, 4451, 1289, 1375
6449, 1367, 1397, 1343, 4466
6450, 1315, 1326, 1282, 4289
6451, 4408, 1266, 1291, 1331
6452, 1362, 1382, 1337, 1381
6453, 1270, 1294, 1337, 1382
6454, 1321, 1318, 1306, 1279
6455, 1279, 4331, 1312, 1321
6456, 4521, 1388, 1367, 1351
6457, 4452, 1335, 4454, 1293
6458, 4442, 4441, 1323, 4506
6459, 1304, 1305, 1286, 1261
6460, 1324, 1287, 1303, 4470
6461, 1286, 1305, 1328, 4468
6462, 1308, 4468, 1346, 1329
6463, 1354, 1309, 1375, 1387
6464, 1385, 1349, 1366, 4568
6465, 1269, 1290, 4507, 1311
6466, 1353, 1333, 1311, 4507
6467, 1365, 1312, 1341, 1386
6468, 1375, 1313, 343, 1387
6469, 1314, 1327, 4401, 1285
6470, 1330, 4289, 1316, 1358
6471, 1317, 4359, 1266, 4408
6472, 1306, 1299, 1297, 1298
6473, 1345, 1319, 1364, 1383
6474, 1319, 1305, 1304, 4442
6475, 1340, 1300, 1318, 1321
6476, 1302, 4466, 1343, 1322
6477, 1327, 1314, 4454, 1351
6478, 1301, 1322, 1347, 1323
6479, 1326, 1315, 1342, 1341
6480, 4440, 1348, 1366, 1325
6481, 1312, 4331, 1326, 1341
6482, 4401, 1327, 4466, 1302
6483, 4468, 1328, 4522, 1346
6484, 4467, 1329, 4507, 1290
6485, 1342, 1315, 1356, 1373
6486, 1315, 4289, 1330, 1356
6487, 1352, 1310, 1349, 1371
6488, 1332, 1247, 1405, 321
6489, 1361, 1332, 321, 1426
6490, 1333, 1353, 1379, 1380
6491, 1381, 1337, 1334, 4409
6492, 1354, 1378, 1335, 4452
6493, 1397, 1417, 1374, 1343
6494, 1336, 2138, 1982, 4258
6495, 1316, 1336, 4258, 381
6496, 1295, 1270, 1382, 4360
6497, 4431, 4377, 1338, 388
6498, 1272, 1244, 1338, 4377
6499, 1910, 1359, 1363, 2175
6500, 1300, 1340, 1344, 1320
6501, 1348, 1324, 4470, 1370
6502, 1373, 1407, 1372, 1342
6503, 1347, 1322, 1343, 1374
6504, 1344, 4502, 4470, 1303
6505, 1364, 4506, 1350, 4565
6506, 1328, 1345, 1369, 4522
6507, 1368, 1329, 1346, 4580
6508, 1347, 1350, 4506, 1323
6509, 1325, 1366, 1349, 1310
6510, 1350, 1347, 1374, 1390
6511, 4506, 1364, 1319, 4442
6512, 1327, 1351, 1367, 4466
6513, 1317, 1377, 1355, 4409
6514, 366, 1379, 1353, 1368
6515, 1354, 1387, 1396, 1378
6516, 1402, 1362, 1381, 1425
6517, 1330, 1358, 1376, 4402
6518, 1373, 1356, 4403, 4443
6519, 388, 1338, 1357, 1442
6520, 1401, 1358, 381, 1424
6521, 1415, 4448, 4447, 1401
6522, 1983, 1359, 1910, 313
6523, 336, 1296, 1359, 1983
6524, 4378, 4377, 4431, 2056
6525, 1245, 1360, 389, 1273
6526, 1404, 1362, 1402, 1531
6527, 4360, 1895, 337, 1295
6528, 1383, 1364, 4565, 1408
6529, 1383, 1432, 1369, 1345
6530, 1340, 1321, 1312, 1365
6531, 1372, 1389, 1370, 4530
6532, 1371, 1349, 1385, 1411
6533, 4522, 1384, 4580, 1346
6534, 4522, 1369, 4583, 1384
6535, 4502, 1365, 1386, 4530
6536, 1341, 1342, 1372, 1386
6537, 1494, 1473, 1515, 1493
6538, 1377, 1352, 1394, 4496
6539, 1407, 1427, 1389, 1372
6540, 1416, 1440, 1396, 1395
6541, 1391, 4449, 4403, 4402
6542, 1394, 1352, 1371, 1413
6543, 1418, 1441, 1400, 1392
6544, 1419, 1462, 1463, 1442
6545, 1355, 1377, 4496, 1399
6546, 1448, 4600, 1492, 1509
6547, 1556, 4360, 1404, 1578
6548, 1404, 4360, 1382, 1362
6549, 1387, 343, 1395, 1396
6550, 1390, 1408, 4565, 1350
6551, 1368, 4580, 1393, 366
6552, 1410, 1427, 1449, 1431
6553, 1410, 1431, 1385, 4568
6554, 1420, 343, 1313, 1403
6555, 1422, 1433, 1417, 1397
6556, 1422, 1397, 1367, 1388
6557, 1474, 1348, 1370, 1389
6558, 4568, 1474, 1389, 1410
6559, 1436, 1452, 1408, 1390
6560, 1406, 4509, 4449, 1391
6561, 1398, 1391, 4402, 1376
6562, 1409, 1407, 1373, 4443
6563, 1414, 1393, 1384, 4583
6564, 1413, 1371, 1411, 1434
6565, 1439, 1394, 1413, 1455
6566, 1432, 1408, 1452, 1435
6567, 1421, 1378, 1396, 1440
6568, 4447, 1376, 1358, 1401
6569, 4448, 1415, 1456, 1429
6570, 1423, 4496, 1394, 1439
6571, 1459, 1485, 1441, 1418
6572, 1380, 1379, 1400, 1419
6573, 1415, 1401, 1447, 1443
6574, 1531, 1448, 1509, 1550
6575, 1448, 1531, 1402, 4537
6576, 1445, 1420, 1403, 4555
6577, 1409, 4510, 1428, 1407
6578, 1391, 1398, 4501, 1406
6579, 1385, 1431, 1450, 1411
6580, 1390, 1374, 1417, 1436
6581, 1393, 1414, 1430, 1437
6582, 1409, 4449, 4509, 4510
6583, 1481, 1443, 1466, 1502
6584, 1412, 4583, 1369, 1432
6585, 1437, 1392, 366, 1393
6586, 1455, 1413, 1434, 1475
6587, 1456, 1415, 1443, 1481
6588, 4501, 1429, 1471, 1451
6589, 1420, 1444, 1395, 343
6590, 1440, 1416, 1461, 1484
6591, 1436, 1417, 1433, 1460
6592, 4611, 1438, 1458, 4652
6593, 1419, 1400, 1441, 1462
6594, 388, 1442, 1463, 1511
6595, 1420, 1445, 1465, 1444
6596, 1388, 4521, 1421, 1438
6597, 1458, 1438, 1421, 1440
6598, 1399, 4496, 1423, 1446
6599, 1491, 1526, 1467, 1446
6600, 4482, 1426, 321, 2171
6601, 4555, 2140, 1514, 1445
6602, 1406, 4501, 1451, 4562
6603, 1435, 1476, 1412, 1432
6604, 1453, 1457, 1430, 1414
6605, 1434, 1411, 1450, 1473
6606, 1435, 1452, 1500, 1476
6607, 1412, 1453, 1414, 4583
6608, 4612, 4611, 4652, 1482
6609, 1454, 1418, 1392, 1437
6610, 1422, 1388, 1438, 4611
6611, 1446, 1423, 1464, 1491
6612, 1444, 1461, 1416, 1395
6613, 1489, 4612, 1482, 1506
6614, 1459, 1418, 1454, 1477
6615, 1462, 1512, 1488, 1463
6616, 1447, 1401, 1424, 1468
6617, 1584, 1558, 4627, 1559
6618, 1445, 1514, 1490, 1465
6619, 1464, 1423, 1439, 1483
6620, 4600, 1448, 4537, 1508
6621, 1447, 1486, 1466, 1443
6622, 1428, 1449, 1427, 1407
6623, 1469, 1470, 359, 4562
6624, 1493, 1451, 1471, 1494
6625, 4562, 1451, 1493, 1469
6626, 1471, 1429, 1456, 1495
6627, 1454, 1437, 1430, 1457
6628, 1498, 1455, 1475, 4614
6629, 1515, 1472, 1469, 1493
6630, 1500, 1452, 1480, 4630
6631, 1478, 1477, 1454, 1457
6632, 1462, 1441, 1485, 1512
6633, 1477, 1478, 1497, 1517
6634, 1436, 1460, 1480, 1452
6635, 1487, 1444, 1465, 1510
6636, 1501, 1482, 4652, 1484
6637, 1460, 1433, 4612, 1489
6638, 1458, 1440, 1484, 4652
6639, 1511, 1463, 1488, 387
6640, 1483, 1439, 1455, 1498
6641, 1510, 1465, 1490, 342
6642, 1494, 1524, 4614, 1475
6643, 4645, 4600, 1508, 1540
6644, 1470, 4608, 4564, 359
6645, 1475, 1434, 1473, 1494
6646, 1348, 1474, 4568, 1366
6647, 1495, 1521, 1536, 1524
6648, 1479, 1478, 1457, 1453
6649, 1453, 1412, 1476, 1479
6650, 1485, 1459, 1503, 1520
6651, 1499, 1497, 1478, 1479
6652, 1496, 1480, 1460, 1489
6653, 1516, 1497, 1499, 1518
6654, 1464, 1507, 1541, 1491
6655, 1487, 1504, 1461, 1444
6656, 1484, 1461, 1504, 1501
6657, 1503, 1459, 1477, 1517
6658, 1512, 1548, 1575, 1488
6659, 1486, 1533, 1513, 1466
6660, 1502, 1466, 1513, 1532
6661, 320, 1886, 1601, 1581
6662, 1507, 1464, 1483, 1522
6663, 1508, 1467, 1526, 1540
6664, 1547, 1527, 4624, 4669
6665, 1527, 1530, 1492, 4624
6666, 1494, 1471, 1495, 1524
6667, 1495, 1456, 1481, 1521
6668, 1521, 1481, 1502, 1542
6669, 4647, 1479, 1476, 1500
6670, 4630, 1523, 4647, 1500
6671, 1521, 1542, 4596, 1536
6672, 1501, 1504, 1528, 1525
6673, 4630, 1480, 1496, 1523
6674, 1572, 1544, 1598, 1608
6675, 1504, 1487, 1534, 1528
6676, 1523, 1551, 1518, 4647
6677, 1522, 1564, 1558, 1507
6678, 1543, 1503, 1517, 1537
6679, 1534, 1487, 1510, 1529
6680, 1505, 1581, 1553, 1535
6681, 1535, 1554, 4676, 342
6682, 1489, 1506, 1519, 1496
6683, 1483, 1498, 1564, 1522
6684, 1541, 1565, 1526, 1491
6685, 1527, 1547, 1570, 4625
6686, 4669, 4624, 4645, 1540
6687, 1550, 1549, 1573, 1578
6688, 1549, 1550, 1509, 4538
6689, 1528, 1534, 1552, 1545
6690, 1901, 1511, 387, 4603
6691, 2150, 1511, 1901, 4560
6692, 1512, 1485, 1520, 1548
6693, 4492, 1532, 1513, 1555
6694, 320, 1581, 1514, 2140
6695, 1515, 1473, 1450, 1472
6696, 1537, 1517, 1497, 1516
6697, 4647, 1518, 1499, 1479
6698, 1520, 1503, 1543, 1566
6699, 1518, 1551, 1539, 1516
6700, 1506, 1525, 1544, 1519
6701, 1548, 1520, 1566, 1583
6702, 1523, 1496, 1519, 1551
6703, 4641, 4614, 1524, 1536
6704, 1571, 1572, 1608, 1587
6705, 1507, 1538, 1569, 1541
6706, 1546, 1530, 1527, 4625
6707, 1510, 342, 4676, 1529
6708, 1552, 1534, 1529, 1579
6709, 1599, 1554, 1580, 1620
6710, 1546, 4648, 1595, 4563
6711, 1509, 1492, 1530, 4538
6712, 1531, 1550, 1578, 1404
6713, 1576, 1533, 1596, 1621
6714, 4676, 1554, 1579, 1529
6715, 1564, 4641, 4627, 1558
6716, 1560, 1516, 1539, 4693
6717, 1607, 1585, 1569, 1538
6718, 1544, 1525, 1568, 1598
6719, 1547, 4669, 1567, 4683
6720, 1502, 1532, 4554, 1542
6721, 1562, 1602, 1563, 4554
6722, 1543, 1537, 1561, 4695
6723, 365, 1566, 1543, 4695
6724, 1532, 4492, 1562, 4554
6725, 1545, 1568, 1525, 1528
6726, 1612, 1608, 1598, 1568
6727, 1617, 1633, 1658, 1680
6728, 1549, 1574, 1600, 1573
6729, 1565, 1589, 1540, 1526
6730, 1547, 4683, 1590, 1570
6731, 1548, 1583, 1597, 1575
6732, 1578, 1573, 338, 1556
6733, 1519, 1544, 1572, 1551
6734, 1577, 1552, 1579, 1593
6735, 1601, 1707, 1553, 1581
6736, 1580, 1553, 1707, 341
6737, 1580, 1554, 1535, 1553
6738, 1588, 1555, 1576, 1616
6739, 1557, 4492, 1555, 1588
6740, 1556, 2134, 1895, 4360
6741, 1603, 1557, 1588, 1628
6742, 1557, 1582, 1562, 4492
6743, 1538, 1507, 1558, 1584
6744, 1542, 4554, 1563, 4596
6745, 1538, 1584, 1605, 1607
6746, 1560, 4693, 4706, 1615
6747, 1561, 1560, 1615, 1594
6748, 1586, 1605, 1584, 1559
6749, 1559, 4596, 1563, 1586
6750, 1564, 1498, 4614, 4641
6751, 1589, 1565, 1585, 1609
6752, 365, 1611, 1583, 1566
6753, 1603, 1623, 1582, 1557
6754, 1551, 1572, 1571, 1539
6755, 1577, 1592, 1545, 1552
6756, 1541, 1569, 1585, 1565
6757, 1570, 1590, 1610, 4670
6758, 1591, 4625, 1570, 4670
6759, 1539, 1571, 1587, 4693
6760, 1574, 1549, 4538, 4563
6761, 1618, 1686, 1573, 1600
6762, 1617, 1574, 4563, 1595
6763, 387, 1488, 1575, 1655
6764, 1677, 1659, 1621, 1596
6765, 1608, 1612, 1637, 1627
6766, 1593, 1579, 1554, 1599
6767, 1628, 1588, 1616, 1651
6768, 1582, 360, 1602, 1562
6769, 365, 1594, 1632, 1611
6770, 1653, 1656, 1636, 1622
6771, 1644, 4623, 1664, 1665
6772, 1641, 1642, 1625, 360
6773, 1587, 4707, 4706, 4693
6774, 1629, 1604, 1609, 1644
6775, 1604, 1629, 1645, 1606
6776, 1589, 1567, 4669, 1540
6777, 1606, 4691, 1590, 4683
6778, 1546, 4625, 1591, 4648
6779, 4648, 1613, 4649, 1595
6780, 1568, 1545, 1592, 1612
6781, 1614, 1577, 1593, 1640
6782, 1619, 1640, 1593, 1599
6783, 1614, 1630, 1592, 1577
6784, 4710, 1594, 1615, 4706
6785, 1594, 365, 4695, 1561
6786, 1633, 1617, 1595, 4649
6787, 4349, 1677, 1596, 382
6788, 1616, 1576, 1621, 1639
6789, 1636, 4664, 1597, 1622
6790, 1620, 1580, 341, 1634
6791, 1661, 1652, 1619, 1638
6792, 1707, 1601, 1729, 1687
6793, 1586, 1625, 1642, 1605
6794, 1585, 1607, 1624, 1609
6795, 1604, 1606, 4683, 1567
6796, 1604, 1567, 1589, 1609
6797, 1624, 1642, 1641, 4623
6798, 4710, 4706, 4707, 1648
6799, 1646, 1610, 1626, 1690
6800, 4678, 4670, 1610, 1646
6801, 1647, 1668, 1693, 1672
6802, 1654, 1672, 1699, 1681
6803, 1650, 1660, 1637, 1630
6804, 1587, 1608, 1627, 4707
6805, 1658, 4631, 1705, 1680
6806, 339, 1686, 1618, 1747
6807, 1634, 1662, 1638, 1620
6808, 1614, 1640, 1682, 1657
6809, 1639, 1621, 1659, 1678
6810, 1635, 1583, 1611, 1649
6811, 1670, 1700, 1656, 1653
6812, 360, 1582, 1623, 1641
6813, 1624, 1607, 1605, 1642
6814, 1625, 1586, 1563, 1602
6815, 1665, 1645, 1629, 1644
6816, 1626, 4691, 1667, 4699
6817, 1626, 1610, 1590, 4691
6818, 1630, 1637, 1612, 1592
6819, 4716, 1676, 1702, 1669
6820, 1651, 1616, 1639, 1673
6821, 1644, 1609, 1624, 4623
6822, 1623, 1603, 1643, 1664
6823, 1646, 1668, 1631, 4678
6824, 1591, 1631, 1613, 4648
6825, 4674, 1654, 1633, 4649
6826, 1633, 1654, 1681, 1658
6827, 1634, 341, 1663, 1685
6828, 1661, 1674, 1751, 1652
6829, 1649, 1611, 1632, 1695
6830, 4697, 1635, 1649, 4698
6831, 1636, 4687, 1683, 4664
6832, 1640, 1619, 1652, 1682
6833, 1697, 1723, 1751, 1674
6834, 1643, 1603, 1628, 4629
6835, 1664, 4623, 1641, 1623
6836, 1664, 1643, 1671, 1665
6837, 1671, 1688, 1689, 1666
6838, 1647, 1613, 1631, 1668
6839, 1647, 1672, 1654, 4674
6840, 1648, 4712, 4711, 4710
6841, 1627, 1637, 1660, 4709
6842, 4712, 1669, 1692, 1695
6843, 1630, 1614, 1657, 1650
6844, 1649, 1695, 1692, 4698
6845, 1679, 1676, 1650, 1657
6846, 1653, 1622, 1635, 4697
6847, 1700, 1739, 1675, 1656
6848, 1725, 1705, 4631, 1746
6849, 1680, 1705, 1618, 1600
6850, 1659, 383, 1701, 1678
6851, 1673, 1639, 1678, 4606
6852, 4709, 1669, 4712, 1648
6853, 1684, 1661, 1662, 1706
6854, 1722, 1684, 1706, 1745
6855, 1687, 1663, 341, 1707
6856, 1685, 1663, 1730, 1728
6857, 1671, 1643, 4629, 1688
6858, 1667, 4691, 1666, 1689
6859, 1709, 1667, 1689, 1716
6860, 4698, 1711, 1694, 4697
6861, 4629, 1628, 1651, 1691
6862, 1691, 1651, 1673, 1710
6863, 1676, 4716, 1660, 1650
6864, 1660, 4716, 1669, 4709
6865, 1653, 4697, 1694, 1670
6866, 1670, 1712, 1719, 1700
6867, 1645, 1665, 1671, 1666
6868, 1714, 1672, 1693, 1733
6869, 1699, 1718, 1743, 1724
6870, 4629, 1691, 4655, 1688
6871, 1751, 4715, 1682, 1652
6872, 4687, 1696, 1727, 1683
6873, 1636, 1656, 1675, 4687
6874, 1692, 1720, 1711, 4698
6875, 383, 1659, 1677, 4423
6876, 1678, 1701, 1715, 4606
6877, 1657, 1682, 4715, 1679
6878, 1679, 1717, 1698, 1676
6879, 1681, 1699, 1724, 1704
6880, 4664, 1683, 1897, 1655
6881, 1685, 1706, 1662, 1634
6882, 1728, 1745, 1706, 1685
6883, 2135, 339, 1898, 2243
6884, 338, 1573, 1686, 2162
6885, 1882, 1729, 319, 2247
6886, 4655, 1691, 1710, 4654
6887, 1709, 4700, 4699, 1667
6888, 4700, 1731, 1713, 1690
6889, 1668, 1646, 1690, 1713
6890, 1716, 4684, 1736, 1709
6891, 1702, 1720, 1692, 1669
6892, 1713, 4705, 1693, 1668
6893, 4710, 4711, 1632, 1594
6894, 1727, 1696, 386, 4668
6895, 1744, 1697, 1684, 1722
6896, 1760, 1717, 1723, 1697
6897, 1698, 1721, 1702, 1676
6898, 1714, 1718, 1699, 1672
6899, 1739, 1700, 1719, 1759
6900, 1814, 1810, 1783, 1796
6901, 1710, 1703, 1732, 4654
6902, 1740, 4606, 1715, 1757
6903, 1705, 1725, 1747, 1618
6904, 1658, 1681, 1704, 4631
6905, 1746, 4659, 1765, 1786
6906, 319, 1729, 1601, 1886
6907, 1730, 1708, 1889, 1865
6908, 1789, 1772, 1770, 1805
6909, 1719, 1712, 1754, 364
6910, 1712, 1670, 1694, 1742
6911, 1779, 1740, 1757, 1791
6912, 1718, 1714, 1738, 1761
6913, 1757, 1715, 1748, 1783
6914, 1703, 4606, 1740, 1755
6915, 1716, 1689, 1688, 4655
6916, 1773, 1735, 1721, 1756
6917, 1720, 1702, 1721, 1735
6918, 1737, 1698, 1717, 1760
6919, 1737, 1756, 1721, 1698
6920, 1744, 1741, 1760, 1697
6921, 4715, 1723, 1717, 1679
6922, 1741, 1778, 1737, 1760
6923, 1804, 1815, 1785, 1768
6924, 1704, 4659, 1746, 4631
6925, 1696, 1726, 1749, 386
6926, 1696, 4687, 1675, 1726
6927, 4626, 1892, 4603, 1897
6928, 1804, 1841, 1831, 1815
6929, 1771, 1755, 1740, 1779
6930, 1772, 1734, 1752, 1770
6931, 1753, 1775, 1731, 4700
6932, 1758, 1738, 1714, 1733
6933, 4684, 1716, 4655, 4654
6934, 4654, 1732, 1752, 4684
6935, 1734, 1772, 4703, 1736
6936, 4703, 4700, 1709, 1736
6937, 1743, 1718, 1761, 1784
6938, 1794, 1825, 1859, 1766
6939, 1792, 1758, 4702, 4692
6940, 361, 1832, 1755, 1771
6941, 1773, 1790, 1754, 1735
6942, 1735, 1742, 1711, 1720
6943, 1768, 1785, 1745, 1728
6944, 1762, 1782, 1744, 1722
6945, 1787, 1768, 1728, 1730
6946, 1844, 1841, 1842, 4686
6947, 4640, 1725, 1746, 1786
6948, 1765, 4659, 1743, 1784
6949, 1767, 1856, 1747, 1725
6950, 1701, 383, 1858, 1763
6951, 1769, 4679, 386, 1749
6952, 2157, 1892, 4626, 1750
6953, 1732, 1832, 1770, 1752
6954, 1753, 1789, 1806, 1775
6955, 1713, 1731, 1775, 4705
6956, 1732, 1703, 1755, 1832
6957, 1808, 1777, 1792, 1807
6958, 4705, 1776, 1733, 1693
6959, 361, 4680, 1819, 1805
6960, 1790, 4718, 364, 1754
6961, 1777, 1780, 1738, 1758
6962, 1744, 1782, 1764, 1741
6963, 4557, 1763, 1858, 2147
6964, 1796, 1783, 1748, 1763
6965, 1774, 1809, 1800, 1781
6966, 1799, 1764, 1795, 4719
6967, 1840, 1826, 1831, 1867
6968, 4640, 1788, 1767, 1725
6969, 1781, 1794, 1766, 1739
6970, 1749, 1726, 1766, 1859
6971, 340, 1856, 1767, 4642
6972, 4661, 4660, 1854, 1803
6973, 1791, 4665, 1820, 1779
6974, 4703, 1772, 1789, 1753
6975, 1756, 1778, 1799, 1773
6976, 1794, 1781, 1800, 1817
6977, 1774, 1759, 364, 4718
6978, 1789, 1805, 1819, 1806
6979, 1807, 1792, 4692, 4680
6980, 1733, 1776, 4702, 1758
6981, 1783, 1810, 1791, 1757
6982, 1784, 1761, 1798, 1816
6983, 1761, 1738, 1780, 4701
6984, 1762, 1785, 1815, 1801
6985, 1795, 1764, 1782, 1797
6986, 1799, 1778, 1741, 1764
6987, 1798, 1761, 4701, 1811
6988, 1867, 1863, 4708, 1840
6989, 1803, 1804, 1768, 1787
6990, 1802, 1765, 1784, 1816
6991, 4661, 1803, 1787, 1855
6992, 1788, 1857, 4642, 1767
6993, 1805, 1770, 1832, 361
6994, 4718, 1790, 1809, 1774
6995, 1773, 1799, 4719, 1790
6996, 1820, 1807, 1771, 1779
6997, 4702, 1776, 1806, 1819
6998, 1793, 1780, 1777, 1808
6999, 1837, 1817, 1839, 1849
7000, 1859, 1825, 1847, 1883
7001, 1824, 1814, 1838, 1850
7002, 1813, 1782, 1762, 1801
7003, 1809, 1833, 1823, 1800
7004, 1793, 1811, 4701, 1780
7005, 1817, 1800, 1823, 1839
7006, 1826, 1801, 1815, 1831
7007, 1786, 1765, 1802, 1818
7008, 4686, 1842, 1829, 1818
7009, 4680, 361, 1771, 1807
7010, 1775, 1806, 1776, 4705
7011, 4692, 4702, 1819, 4680
7012, 1808, 1807, 1820, 4665
7013, 1797, 1812, 4717, 1795
7014, 1811, 1793, 1821, 1836
7015, 4665, 1821, 1793, 1808
7016, 1816, 1798, 1827, 1843
7017, 1813, 1822, 1797, 1782
7018, 1834, 1839, 1823, 1812
7019, 1813, 4714, 1835, 1822
7020, 4717, 1833, 4719, 1795
7021, 1796, 1763, 4557, 1828
7022, 1828, 1838, 1814, 1796
7023, 1802, 1830, 4686, 1818
7024, 1827, 1798, 1811, 1836
7025, 1827, 1836, 362, 1851
7026, 1817, 1837, 1825, 1794
7027, 1830, 1802, 1816, 1843
7028, 4665, 1791, 1810, 1821
7029, 1824, 1821, 1810, 1814
7030, 1812, 1823, 1833, 4717
7031, 1812, 1797, 1822, 1834
7032, 1883, 1847, 1878, 385
7033, 1848, 1826, 1840, 4708
7034, 1843, 1866, 1852, 1830
7035, 1838, 1828, 1853, 1862
7036, 1829, 1842, 1854, 4660
7037, 4640, 1829, 4660, 1788
7038, 1867, 1844, 1852, 1863
7039, 1841, 1804, 1803, 1854
7040, 4719, 1833, 1809, 1790
7041, 1822, 1835, 4713, 1845
7042, 1846, 1849, 1839, 1834
7043, 1848, 1861, 4713, 1835
7044, 1836, 1821, 1824, 362
7045, 1843, 1827, 1851, 1866
7046, 363, 1868, 1869, 1860
7047, 1837, 1849, 1860, 1872
7048, 1846, 1834, 1822, 1845
7049, 1852, 1866, 4704, 1863
7050, 1875, 1874, 1880, 1871
7051, 1830, 1852, 1844, 4686
7052, 1831, 1841, 1844, 1867
7053, 1846, 1845, 4713, 363
7054, 1849, 1846, 363, 1860
7055, 1847, 1825, 1837, 1872
7056, 1848, 1835, 4714, 1826
7057, 1868, 1861, 1871, 1880
7058, 362, 1824, 1850, 1864
7059, 1853, 384, 1879, 1873
7060, 1878, 1847, 1872, 1876
7061, 1857, 1788, 4660, 4661
7062, 1865, 1855, 1787, 1730
7063, 1855, 1865, 2151, 1894
7064, 1747, 1856, 1898, 339
7065, 1894, 4642, 1857, 1855
7066, 1899, 1858, 383, 4423
7067, 4598, 2253, 2242, 4526
7068, 1769, 1749, 1859, 1883
7069, 1848, 4708, 1871, 1861
7070, 4713, 1861, 1868, 363
7071, 1850, 1838, 1862, 1870
7072, 1873, 1878, 1876, 1877
7073, 1851, 362, 1864, 4696
7074, 1874, 1875, 4696, 1864
7075, 1877, 1876, 1869, 1881
7076, 1864, 1850, 1870, 1874
7077, 1875, 1863, 4704, 4696
7078, 1878, 1873, 1879, 385
7079, 1866, 1851, 4696, 4704
7080, 1853, 1873, 1877, 1862
7081, 1869, 1868, 1880, 1881
7082, 1877, 1881, 1870, 1862
7083, 1863, 1875, 1871, 4708
7084, 2147, 2122, 384, 4557
7085, 1881, 1880, 1874, 1870
7086, 4679, 1769, 2152, 2546
7087, 4181, 1020, 1158, 2132
7088, 2262, 320, 2140, 4482
7089, 2160, 1884, 324, 2328
7090, 2256, 1092, 1888, 2321
7091, 4656, 1889, 1882, 2247
7092, 1899, 2166, 2411, 406
7093, 2557, 2303, 4644, 2154
7094, 4668, 1891, 2154, 1750
7095, 4603, 1892, 2148, 1901
7096, 1958, 34, 641, 1972
7097, 1958, 402, 2131, 1893
7098, 2400, 4632, 2151, 4656
7099, 4642, 1894, 2182, 340
7100, 1363, 337, 1895, 2175
7101, 1896, 2143, 4433, 2153
7102, 387, 1655, 1897, 4603
7103, 2410, 2168, 1900, 2155
7104, 1426, 4482, 2140, 4555
7105, 1977, 1973, 39, 664
7106, 1908, 1904, 2169, 2172
7107, 4071, 2100, 2137, 335
7108, 1906, 4040, 1977, 1902
7109, 1915, 109, 2030, 4035
7110, 2282, 1909, 1913, 595
7111, 314, 2288, 1910, 2175
7112, 1911, 2432, 2173, 1905
7113, 2189, 1953, 1912, 2178
7114, 1909, 2282, 2174, 1907
7115, 1915, 4035, 676, 48
7116, 2280, 1919, 1931, 290
7117, 1933, 245, 2192, 1952
7118, 2345, 2187, 1925, 1921
7119, 2344, 2184, 1923, 1922
7120, 1926, 1923, 2184, 494
7121, 2186, 2183, 1924, 1929
7122, 1925, 2187, 2349, 1935
7123, 1936, 1926, 494, 2193
7124, 2190, 2185, 1927, 1942
7125, 2432, 1911, 1930, 2281
7126, 589, 1928, 1932, 2284
7127, 2347, 1944, 1934, 2188
7128, 1937, 348, 2431, 1916
7129, 1979, 1938, 2194, 371
7130, 2423, 2191, 1941, 1939
7131, 1961, 633, 27, 1976
7132, 1961, 2195, 2426, 1940
7133, 583, 1965, 1941, 2191
7134, 1945, 2199, 2352, 1957
7135, 2349, 2202, 1946, 1935
7136, 1987, 1946, 2202, 129
7137, 2425, 2196, 1947, 1984
7138, 1931, 1949, 2283, 290
7139, 1975, 1952, 2192, 222
7140, 2032, 2362, 2232, 2080
7141, 595, 1913, 1954, 2286
7142, 1955, 2198, 2209, 2002
7143, 1989, 1956, 603, 2082
7144, 1959, 1988, 2206, 2421
7145, 2354, 2205, 1960, 1951
7146, 1986, 1960, 2205, 122
7147, 2427, 2195, 1961, 1976
7148, 1962, 2210, 2423, 1939
7149, 2418, 2197, 1963, 1992
7150, 1968, 1964, 2200, 448
7151, 1965, 583, 1971, 4033
7152, 703, 72, 1965, 4033
7153, 1967, 33, 639, 1969
7154, 1972, 1966, 2201, 2420
7155, 1967, 1969, 2272, 425
7156, 1968, 448, 2272, 1969
7157, 671, 44, 1981, 1970
7158, 176, 1950, 1970, 2287
7159, 1958, 1972, 2420, 402
7160, 1976, 1974, 2203, 2427
7161, 1973, 1977, 4040, 312
7162, 2285, 1978, 2000, 349
7163, 1981, 1980, 2204, 199
7164, 404, 4266, 2167, 2159
7165, 1982, 2167, 4259, 4258
7166, 2394, 2248, 2137, 2100
7167, 1986, 122, 2219, 2008
7168, 1987, 129, 2128, 2012
7169, 2422, 2206, 1988, 2047
7170, 2211, 1991, 1994, 115
7171, 1993, 2019, 2267, 2424
7172, 1995, 2011, 2213, 111
7173, 587, 2073, 1996, 2207
7174, 590, 1943, 1997, 2271
7175, 2077, 1998, 2208, 334
7176, 2016, 1999, 2801, 112
7177, 2049, 2001, 2218, 372
7178, 2057, 600, 2233, 2079
7179, 2010, 2005, 2216, 2997
7180, 2006, 2017, 2260, 353
7181, 2018, 2007, 2217, 376
7182, 2215, 2009, 2023, 374
7183, 2022, 2010, 2997, 352
7184, 114, 2279, 2013, 2033
7185, 2015, 2021, 119, 2214
7186, 2260, 2017, 2051, 354
7187, 2018, 376, 2227, 2052
7188, 125, 2267, 2019, 2034
7189, 2024, 2020, 2220, 117
7190, 2054, 3067, 2228, 2058
7191, 2297, 2215, 374, 2768
7192, 2025, 123, 2225, 2037
7193, 2026, 2036, 2264, 2419
7194, 2027, 2042, 2221, 2966
7195, 2098, 82, 713, 2120
7196, 6, 2044, 2040, 611
7197, 2035, 2030, 109, 2224
7198, 2039, 2031, 2223, 118
7199, 2043, 2035, 2224, 110
7200, 2264, 2036, 2043, 110
7201, 2045, 2037, 2225, 124
7202, 2277, 2038, 2045, 124
7203, 2041, 2039, 118, 2226
7204, 2266, 2040, 2044, 113
7205, 2046, 2041, 2226, 2417
7206, 2417, 2221, 2042, 2046
7207, 2044, 2029, 2222, 113
7208, 2047, 2078, 2268, 2422
7209, 2273, 2048, 2060, 350
7210, 2051, 2062, 2265, 354
7211, 2063, 2052, 2227, 377
7212, 2053, 289, 2416, 1985
7213, 2059, 738, 91, 2068
7214, 2055, 2059, 2229, 2998
7215, 2136, 2056, 2179, 412
7216, 2060, 2067, 2259, 350
7217, 2229, 2059, 2068, 373
7218, 2068, 2061, 2230, 373
7219, 355, 2265, 2062, 2064
7220, 2063, 377, 2231, 2065
7221, 2070, 4757, 4758, 4034
7222, 2276, 2066, 2070, 356
7223, 2228, 2259, 2067, 2058
7224, 2069, 378, 2116, 2071
7225, 2116, 378, 2275, 2110
7226, 2263, 2074, 2097, 175
7227, 2075, 584, 2415, 2014
7228, 2089, 51, 678, 2090
7229, 602, 2268, 2078, 2089
7230, 2258, 2084, 2085, 599
7231, 2257, 2083, 2094, 592
7232, 686, 57, 2092, 2081
7233, 596, 2050, 2081, 2278
7234, 591, 2072, 2083, 2257
7235, 2086, 2084, 2258, 598
7236, 2085, 2079, 2233, 599
7237, 2086, 598, 2235, 2087
7238, 2092, 2087, 2235, 597
7239, 699, 69, 2096, 2088
7240, 2075, 2088, 2899, 584
7241, 2090, 2082, 603, 2274
7242, 585, 2096, 2093, 2987
7243, 592, 2094, 2080, 2232
7244, 586, 2095, 2091, 2234
7245, 2093, 2095, 586, 2987
7246, 2096, 585, 2899, 2088
7247, 2121, 2099, 2236, 221
7248, 4098, 1114, 1109, 4129
7249, 2053, 2101, 2898, 289
7250, 175, 2097, 2102, 2270
7251, 2130, 356, 2070, 4034
7252, 108, 756, 2103, 2130
7253, 2104, 537, 3428, 2120
7254, 4054, 2808, 2105, 2113
7255, 2106, 2118, 2255, 470
7256, 2111, 707, 76, 2108
7257, 2107, 2111, 2261, 447
7258, 2108, 2117, 2269, 424
7259, 2117, 2109, 401, 2269
7260, 2115, 2112, 2238, 493
7261, 4054, 2113, 2115, 493
7262, 2114, 2119, 515, 3176
7263, 2119, 2105, 2808, 515
7264, 2253, 2122, 2147, 2242
7265, 2250, 2307, 2546, 2152
7266, 104, 751, 2129, 2123
7267, 2123, 266, 2898, 2101
7268, 2126, 2125, 2239, 244
7269, 2124, 2127, 2240, 4042
7270, 2123, 2129, 2807, 266
7271, 382, 2149, 2163, 4349
7272, 2165, 2132, 347, 4086
7273, 391, 2141, 2133, 2249
7274, 2177, 338, 2162, 2289
7275, 2134, 2177, 2323, 2158
7276, 2243, 316, 2465, 2289
7277, 2254, 389, 4432, 2136
7278, 2164, 2138, 380, 1887
7279, 1982, 2452, 2159, 2167
7280, 4266, 404, 4246, 2139
7281, 2141, 391, 2142, 1180
7282, 4341, 2241, 4433, 2143
7283, 2241, 300, 4486, 4433
7284, 2241, 4341, 2144, 2374
7285, 2434, 2667, 369, 4077
7286, 4077, 963, 2145, 2434
7287, 2245, 2176, 390, 2146
7288, 1892, 2157, 2312, 2148
7289, 2148, 2312, 410, 2315
7290, 2430, 4300, 4246, 2519
7291, 4348, 2163, 2149, 4300
7292, 2150, 4560, 2359, 2330
7293, 317, 2584, 2182, 4632
7294, 2250, 2152, 385, 1879
7295, 2557, 2154, 1891, 4679
7296, 299, 2171, 1896, 2153
7297, 4051, 2156, 4086, 347
7298, 2157, 4643, 2363, 2312
7299, 2413, 2158, 2323, 315
7300, 314, 2175, 2158, 2413
7301, 2256, 2321, 4372, 2251
7302, 2433, 2328, 324, 2161
7303, 1890, 4349, 2163, 2442
7304, 2164, 2409, 4100, 2452
7305, 2335, 2131, 402, 2409
7306, 2161, 2165, 325, 2433
7307, 2343, 4086, 2156, 2431
7308, 4259, 2167, 4266, 2139
7309, 4068, 4067, 4112, 2505
7310, 2172, 2169, 2317, 2379
7311, 130, 2317, 2169, 2170
7312, 2170, 2173, 2301, 130
7313, 2171, 2435, 2262, 4482
7314, 153, 2301, 2173, 2432
7315, 4257, 2290, 413, 2567
7316, 2323, 2177, 2686, 315
7317, 2178, 594, 2318, 2189
7318, 411, 2540, 2179, 2330
7319, 267, 2311, 2180, 2429
7320, 4041, 2180, 2311, 2569
7321, 2310, 2181, 298, 2888
7322, 1920, 1918, 2180, 4041
7323, 340, 2182, 2584, 2246
7324, 2182, 1894, 2151, 4632
7325, 2183, 2186, 538, 2292
7326, 516, 2344, 2183, 2292
7327, 516, 2372, 2184, 2344
7328, 2294, 2185, 2190, 126
7329, 2443, 2187, 2345, 127
7330, 2349, 2187, 128, 2537
7331, 2347, 2188, 2549, 588
7332, 2368, 2203, 583, 2191
7333, 2346, 2192, 245, 2571
7334, 2628, 2426, 2195, 561
7335, 2384, 2274, 603, 2196
7336, 2197, 2418, 120, 2319
7337, 2209, 2198, 601, 2296
7338, 2309, 2201, 425, 2473
7339, 2420, 2201, 2309, 2530
7340, 2537, 2470, 2587, 2390
7341, 2504, 2466, 2858, 2377
7342, 588, 2324, 2207, 2347
7343, 2454, 2850, 2482, 2316
7344, 4091, 2520, 2476, 137
7345, 2098, 560, 2212, 2028
7346, 2570, 2313, 2213, 2419
7347, 2997, 2216, 2298, 2777
7348, 2334, 2217, 375, 2467
7349, 2528, 116, 2401, 2592
7350, 2568, 2308, 2221, 2417
7351, 2332, 2222, 112, 2572
7352, 109, 2172, 2379, 2224
7353, 2341, 2226, 118, 2478
7354, 2259, 2228, 351, 2339
7355, 2305, 2229, 373, 2472
7356, 2338, 2230, 372, 2488
7357, 377, 2514, 2388, 2231
7358, 2306, 2232, 2362, 593
7359, 2327, 2233, 600, 2462
7360, 584, 2899, 2295, 2457
7361, 289, 2898, 2293, 2456
7362, 2300, 2987, 586, 2468
7363, 334, 2483, 2382, 2237
7364, 560, 3428, 2302, 2460
7365, 2325, 2239, 221, 4070
7366, 4341, 2143, 322, 1135
7367, 2400, 4656, 2247, 318
7368, 2242, 1899, 406, 4526
7369, 2406, 4598, 4526, 406
7370, 391, 2249, 2682, 2329
7371, 2145, 2244, 392, 2434
7372, 2146, 2254, 2357, 2245
7373, 413, 2290, 2245, 2357
7374, 2246, 2584, 2436, 2322
7375, 2395, 2248, 2394, 4072
7376, 312, 4040, 2248, 2395
7377, 2459, 2682, 2249, 2383
7378, 2122, 2253, 2307, 2250
7379, 323, 2256, 2251, 2144
7380, 2562, 2374, 301, 2674
7381, 319, 1886, 2252, 2371
7382, 407, 2291, 2253, 4598
7383, 2357, 412, 2567, 413
7384, 302, 2321, 2160, 2328
7385, 2337, 2257, 592, 2474
7386, 298, 2181, 2262, 2435
7387, 2522, 2512, 4097, 2779
7388, 2369, 2280, 290, 2500
7389, 267, 2429, 2280, 2369
7390, 2432, 2281, 2550, 153
7391, 2598, 2389, 2477, 569
7392, 313, 1910, 2288, 2399
7393, 2686, 2177, 2289, 2465
7394, 2548, 2383, 2290, 4257
7395, 4616, 2448, 2882, 2666
7396, 2293, 2898, 266, 2969
7397, 126, 2561, 4143, 2294
7398, 2844, 2443, 127, 2605
7399, 584, 2457, 2439, 2415
7400, 2296, 601, 2576, 2621
7401, 2462, 2296, 2621, 579
7402, 2297, 2623, 4102, 2467
7403, 2777, 2298, 2622, 330
7404, 142, 2891, 2747, 2607
7405, 2610, 2461, 2299, 2749
7406, 2764, 585, 2785, 564
7407, 2302, 2769, 4094, 2617
7408, 2875, 2746, 2444, 2597
7409, 2777, 2790, 352, 2997
7410, 2641, 2475, 351, 2304
7411, 2787, 2768, 374, 2998
7412, 2474, 2306, 2643, 571
7413, 592, 2232, 2306, 2474
7414, 2560, 408, 4646, 2291
7415, 298, 2702, 2983, 2888
7416, 2252, 2310, 4662, 297
7417, 2757, 2313, 2619, 2916
7418, 2600, 2449, 2314, 2439
7419, 2423, 2210, 2314, 2539
7420, 1901, 2148, 2315, 4560
7421, 2554, 2359, 4560, 2315
7422, 288, 2602, 2440, 2456
7423, 2352, 2199, 2316, 2482
7424, 2852, 2460, 2302, 2617
7425, 2318, 594, 2445, 2670
7426, 2461, 2319, 120, 2299
7427, 121, 2614, 2466, 2504
7428, 2555, 2320, 2206, 2422
7429, 2588, 2565, 2320, 2994
7430, 128, 2187, 2443, 2585
7431, 2470, 128, 2585, 4087
7432, 3483, 2789, 301, 4372
7433, 2322, 316, 2243, 1898
7434, 587, 2207, 2324, 2492
7435, 244, 2239, 2325, 2574
7436, 493, 2238, 2326, 2575
7437, 2494, 2327, 2654, 578
7438, 2437, 2414, 2329, 2682
7439, 2798, 2459, 2590, 414
7440, 586, 2234, 2331, 2468
7441, 2498, 2332, 2652, 135
7442, 2333, 2544, 4089, 2665
7443, 221, 2236, 2333, 4070
7444, 353, 2260, 2336, 2463
7445, 2501, 2337, 2650, 570
7446, 2472, 2338, 2644, 396
7447, 2507, 2339, 2648, 328
7448, 2340, 2509, 2657, 2822
7449, 2699, 2568, 2341, 2625
7450, 2860, 2342, 2494, 578
7451, 2649, 2496, 2342, 2860
7452, 2343, 2508, 4132, 2412
7453, 222, 2192, 2346, 2495
7454, 2569, 2571, 245, 4041
7455, 2629, 2348, 2498, 135
7456, 2611, 2350, 2501, 570
7457, 2477, 2350, 2611, 569
7458, 2351, 2510, 2632, 2835
7459, 2645, 2353, 2497, 449
7460, 425, 2272, 2353, 2473
7461, 2355, 2480, 2612, 2578
7462, 4088, 197, 4079, 2558
7463, 2640, 2356, 2506, 148
7464, 2563, 2579, 2561, 126
7465, 2358, 2516, 2661, 2823
7466, 2315, 410, 4552, 2554
7467, 2676, 2360, 2515, 333
7468, 2490, 2360, 2676, 2826
7469, 409, 2444, 2458, 2553
7470, 2363, 409, 2553, 4594
7471, 2737, 2364, 2507, 328
7472, 2618, 2489, 2364, 2737
7473, 394, 2825, 2365, 2491
7474, 2366, 2484, 2624, 2705
7475, 2555, 2366, 2705, 2464
7476, 2367, 2496, 2782, 2642
7477, 2512, 2367, 2642, 4097
7478, 2449, 2589, 2539, 2314
7479, 2556, 2589, 2471, 561
7480, 2407, 2500, 290, 2283
7481, 2370, 2482, 2850, 2784
7482, 2405, 2371, 2566, 296
7483, 494, 2184, 2372, 2481
7484, 516, 2559, 2573, 2372
7485, 2373, 2518, 2647, 2848
7486, 300, 2241, 2374, 2562
7487, 2476, 2375, 2604, 137
7488, 2677, 2376, 2524, 400
7489, 2516, 2376, 2677, 2824
7490, 2377, 2634, 2503, 122
7491, 2378, 2517, 2636, 2836
7492, 2224, 2379, 2510, 110
7493, 2380, 2495, 2793, 2646
7494, 2511, 2380, 2646, 4096
7495, 2381, 2526, 2662, 2847
7496, 2515, 2382, 2483, 333
7497, 2590, 2459, 2383, 2548
7498, 2581, 2538, 2450, 2601
7499, 2581, 2484, 2384, 2538
7500, 2385, 2522, 2779, 4120
7501, 2385, 2753, 2523, 596
7502, 3094, 2864, 2659, 2839
7503, 2599, 2387, 2525, 472
7504, 2497, 2387, 2599, 449
7505, 2524, 2388, 2514, 400
7506, 2202, 2349, 2537, 2390
7507, 2583, 2550, 2513, 177
7508, 2391, 2528, 2594, 2827
7509, 2603, 2392, 2505, 393
7510, 2392, 2603, 2832, 2491
7511, 2393, 2489, 2743, 2631
7512, 2508, 2393, 2631, 4132
7513, 2854, 2549, 2479, 568
7514, 2535, 4072, 2399, 4103
7515, 2396, 2523, 2753, 2639
7516, 2541, 2396, 2639, 574
7517, 2397, 2532, 2593, 4154
7518, 2398, 2503, 2591, 4153
7519, 2535, 291, 2500, 2407
7520, 2533, 2667, 2434, 392
7521, 2405, 2441, 318, 2247
7522, 2853, 2401, 2520, 4091
7523, 2402, 2511, 4096, 2859
7524, 2596, 2513, 2402, 2859
7525, 2595, 2403, 2481, 495
7526, 2525, 2403, 2595, 472
7527, 314, 2413, 2529, 2404
7528, 2404, 292, 2690, 2531
7529, 2406, 406, 2411, 4508
7530, 2527, 2635, 4597, 2406
7531, 2408, 403, 2552, 2626
7532, 2451, 4508, 2411, 2442
7533, 325, 2165, 2412, 4180
7534, 2450, 2212, 560, 2460
7535, 2606, 2414, 2437, 2700
7536, 601, 2198, 2421, 2565
7537, 126, 2190, 2424, 2563
7538, 2450, 2538, 2425, 2212
7539, 538, 2186, 2426, 2628
7540, 561, 2195, 2427, 2556
7541, 2521, 299, 2542, 2663
7542, 299, 2153, 4487, 2542
7543, 2430, 2519, 2664, 2536
7544, 2613, 2534, 2818, 303
7545, 2698, 2584, 317, 2972
7546, 316, 2322, 2436, 4462
7547, 2437, 2798, 4250, 2700
7548, 2806, 4224, 2606, 415
7549, 2438, 317, 4632, 2400
7550, 2450, 2460, 2852, 2601
7551, 2439, 2457, 2851, 2600
7552, 2405, 296, 2694, 2441
7553, 2694, 2774, 295, 2980
7554, 2442, 2163, 4348, 2451
7555, 2605, 127, 2294, 4143
7556, 2585, 2443, 2844, 150
7557, 2608, 2458, 2444, 2746
7558, 2386, 2864, 2445, 594
7559, 2670, 2683, 572, 2577
7560, 2446, 130, 2301, 2681
7561, 2510, 2685, 131, 2632
7562, 303, 2843, 2447, 2613
7563, 4597, 407, 4598, 2406
7564, 2560, 2666, 2875, 2597
7565, 562, 2471, 2589, 2449
7566, 2581, 582, 2624, 2484
7567, 2536, 2684, 405, 2430
7568, 2689, 2527, 2451, 4424
7569, 403, 2159, 2452, 4100
7570, 2607, 2453, 141, 2796
7571, 2453, 2308, 2568, 2699
7572, 267, 2369, 2855, 2455
7573, 2794, 562, 2814, 3020
7574, 2692, 2553, 2458, 4637
7575, 2682, 2459, 2798, 2437
7576, 2804, 4108, 4092, 582
7577, 2319, 2761, 2614, 121
7578, 2634, 2377, 2858, 2723
7579, 132, 2619, 2469, 2902
7580, 2517, 2587, 151, 2636
7581, 2471, 562, 2794, 2803
7582, 2473, 426, 2630, 2309
7583, 329, 2856, 2475, 2641
7584, 2604, 2375, 2485, 136
7585, 2592, 2401, 2853, 2744
7586, 2389, 2284, 590, 2477
7587, 2479, 2389, 2598, 568
7588, 2549, 2854, 2582, 588
7589, 2551, 2480, 175, 2270
7590, 2485, 2348, 2629, 136
7591, 2559, 2668, 4128, 517
7592, 2756, 2361, 2487, 399
7593, 2638, 2490, 2826, 332
7594, 4149, 566, 2752, 2653
7595, 2656, 2493, 220, 2751
7596, 2499, 469, 2658, 2326
7597, 392, 2414, 2502, 2533
7598, 145, 2591, 2503, 2634
7599, 2356, 2640, 2579, 2563
7600, 2823, 2657, 2509, 2358
7601, 4120, 2779, 2703, 4144
7602, 2661, 2516, 2824, 423
7603, 2517, 152, 2390, 2587
7604, 2647, 2518, 139, 2711
7605, 404, 2408, 2519, 4246
7606, 2663, 2701, 2702, 2521
7607, 4154, 2662, 2526, 2397
7608, 2635, 2527, 2783, 4529
7609, 138, 2594, 2528, 2592
7610, 292, 2404, 2529, 2691
7611, 2812, 2552, 403, 4100
7612, 2409, 2530, 2812, 4100
7613, 2399, 2288, 2531, 4103
7614, 4153, 2593, 2532, 2398
7615, 325, 4180, 2534, 2613
7616, 412, 2179, 2540, 2792
7617, 2540, 411, 4488, 2655
7618, 2839, 2659, 574, 2886
7619, 2663, 2542, 4543, 2701
7620, 2543, 567, 2811, 2660
7621, 2544, 198, 2558, 4079
7622, 3112, 276, 277, 3091
7623, 2303, 2557, 408, 4667
7624, 2651, 2686, 2465, 2586
7625, 2696, 3006, 2590, 2548
7626, 2484, 602, 2274, 2384
7627, 2550, 2583, 2564, 153
7628, 4085, 2378, 2836, 174
7629, 2626, 2552, 2719, 4192
7630, 2672, 4552, 410, 4594
7631, 2672, 4594, 2553, 2692
7632, 2672, 4558, 2885, 4552
7633, 2589, 2556, 2368, 2539
7634, 386, 4679, 1891, 4668
7635, 2558, 2355, 2578, 4088
7636, 2697, 2608, 2746, 431
7637, 2307, 4646, 408, 2546
7638, 4143, 2716, 2844, 2605
7639, 2565, 2588, 2576, 601
7640, 2791, 2609, 4257, 2567
7641, 246, 2571, 2569, 2841
7642, 2318, 2670, 2577, 593
7643, 2351, 2835, 2469, 2570
7644, 2652, 3295, 2758, 4152
7645, 2828, 2778, 2620, 2573
7646, 2815, 2797, 2621, 2576
7647, 2306, 593, 2577, 2643
7648, 2612, 2741, 2967, 2578
7649, 4079, 4107, 4089, 2544
7650, 2640, 2730, 4287, 2579
7651, 149, 2561, 2579, 4287
7652, 4462, 2733, 2805, 2586
7653, 4462, 2436, 2580, 2733
7654, 2829, 2582, 2854, 4278
7655, 567, 2543, 2582, 2829
7656, 154, 2564, 2583, 2820
7657, 2687, 2972, 317, 2438
7658, 4124, 4087, 2585, 150
7659, 4222, 150, 2925, 3479
7660, 2733, 2873, 4407, 4375
7661, 2587, 2470, 4087, 151
7662, 4093, 2588, 2994, 2464
7663, 2727, 2591, 145, 3128
7664, 2593, 4153, 146, 2717
7665, 2914, 2744, 2853, 4113
7666, 2662, 4154, 147, 2704
7667, 2726, 2594, 138, 2905
7668, 2596, 2859, 2724, 4134
7669, 2560, 2597, 4667, 408
7670, 2599, 472, 4168, 2748
7671, 562, 2449, 2600, 2814
7672, 582, 2581, 2601, 2804
7673, 4125, 2603, 393, 2688
7674, 2832, 2603, 4125, 2750
7675, 3135, 2696, 2609, 436
7676, 2799, 2610, 2891, 3156
7677, 174, 2612, 2480, 4085
7678, 2788, 2614, 2761, 4208
7679, 4204, 2466, 2614, 2788
7680, 2851, 2615, 563, 3020
7681, 2616, 2755, 2776, 4190
7682, 2628, 2803, 2486, 538
7683, 2736, 2618, 2737, 3008
7684, 2618, 327, 2743, 2489
7685, 2619, 132, 2762, 2916
7686, 495, 2481, 2620, 4101
7687, 2624, 582, 4092, 2729
7688, 2625, 4151, 2763, 2699
7689, 2664, 2626, 427, 4248
7690, 2519, 2408, 2626, 2664
7691, 2720, 2627, 565, 4182
7692, 333, 2784, 2754, 2676
7693, 333, 2483, 2370, 2784
7694, 2719, 2630, 426, 4157
7695, 2631, 2743, 2767, 326
7696, 4132, 2631, 326, 4179
7697, 2632, 131, 2728, 2835
7698, 2725, 2633, 396, 2939
7699, 2768, 2787, 397, 3386
7700, 430, 2448, 2635, 4529
7701, 2448, 4616, 4597, 2635
7702, 2706, 2636, 151, 2833
7703, 2836, 2636, 2706, 2957
7704, 223, 4095, 2637, 2775
7705, 2638, 332, 2759, 2834
7706, 4145, 2639, 2753, 575
7707, 2760, 399, 2857, 4135
7708, 2640, 148, 4221, 2730
7709, 2790, 2715, 2641, 2304
7710, 4097, 2642, 576, 4127
7711, 395, 2959, 2739, 2644
7712, 2645, 449, 2943, 2742
7713, 2646, 2793, 2712, 4133
7714, 200, 4096, 2646, 4133
7715, 4130, 2856, 3116, 2731
7716, 2721, 2649, 2860, 3115
7717, 2649, 577, 2782, 2496
7718, 2547, 2651, 2842, 293
7719, 565, 2627, 2653, 2752
7720, 2861, 2654, 579, 2945
7721, 2655, 4488, 2885, 4483
7722, 2780, 434, 2984, 435
7723, 2822, 4122, 2713, 3073
7724, 4122, 2822, 2657, 2823
7725, 400, 2756, 2734, 2677
7726, 2864, 3094, 2709, 2445
7727, 4090, 2659, 2864, 2386
7728, 2492, 2660, 4172, 566
7729, 2661, 423, 2707, 446
7730, 2536, 4248, 2837, 4311
7731, 2665, 4089, 4159, 2809
7732, 220, 2493, 2665, 2809
7733, 4543, 2428, 277, 276
7734, 2882, 2448, 430, 3010
7735, 369, 2667, 4112, 4067
7736, 2668, 2486, 539, 4128
7737, 2838, 2964, 4128, 539
7738, 268, 2831, 2455, 2855
7739, 2669, 2455, 2831, 4126
7740, 2670, 2445, 2709, 2683
7741, 2871, 4671, 2946, 273
7742, 2871, 2830, 2671, 4671
7743, 2950, 133, 3056, 2673
7744, 2695, 4544, 2816, 2545
7745, 4104, 2802, 2675, 291
7746, 2826, 2676, 2754, 2924
7747, 2862, 265, 2969, 2678
7748, 2678, 2969, 266, 2807
7749, 2970, 2679, 2863, 514
7750, 2679, 2970, 2808, 4054
7751, 2680, 2921, 2791, 2567
7752, 2681, 2766, 2867, 2446
7753, 573, 2813, 2683, 2709
7754, 4424, 405, 2684, 2689
7755, 131, 2685, 2446, 2867
7756, 3107, 4471, 2972, 295
7757, 2849, 2750, 4125, 2878
7758, 2802, 4104, 2690, 2929
7759, 2881, 455, 4666, 432
7760, 2672, 2692, 433, 4558
7761, 2693, 2907, 2818, 2534
7762, 2695, 2562, 2674, 4544
7763, 3006, 2865, 414, 2590
7764, 2881, 2697, 2986, 4682
7765, 415, 2606, 2700, 2884
7766, 2701, 2708, 275, 2702
7767, 2893, 3125, 576, 2710
7768, 4175, 2887, 4144, 2703
7769, 3064, 2920, 4220, 2704
7770, 2464, 2705, 581, 4093
7771, 2707, 2937, 422, 3093
7772, 2823, 2661, 446, 4122
7773, 2708, 3033, 3122, 275
7774, 3120, 577, 2942, 3220
7775, 2710, 3120, 3023, 2893
7776, 2711, 139, 2897, 3021
7777, 3021, 3208, 3036, 2711
7778, 3052, 2713, 2932, 445
7779, 4199, 4145, 4144, 2887
7780, 3015, 2714, 4199, 4307
7781, 329, 2641, 2715, 2922
7782, 2717, 146, 2940, 4245
7783, 4245, 2935, 147, 2717
7784, 571, 2643, 2718, 2944
7785, 2645, 2742, 4157, 426
7786, 3165, 2720, 4182, 3049
7787, 564, 2785, 2720, 3165
7788, 578, 2961, 3115, 2860
7789, 2928, 2722, 394, 3051
7790, 418, 2959, 3050, 4225
7791, 2992, 144, 2912, 167
7792, 2723, 2992, 3029, 2913
7793, 3121, 200, 4133, 2938
7794, 3172, 2725, 3062, 420
7795, 3022, 2897, 139, 2827
7796, 3128, 145, 2913, 3133
7797, 2727, 3055, 2940, 146
7798, 4155, 2766, 154, 2820
7799, 3001, 2902, 2728, 2889
7800, 3114, 2729, 4092, 2910
7801, 4327, 2993, 3554, 2974
7802, 3031, 3250, 2731, 3116
7803, 570, 2650, 2732, 2926
7804, 4375, 4407, 294, 2876
7805, 2734, 2937, 2824, 2677
7806, 2735, 3079, 4215, 2979
7807, 492, 2658, 2735, 2979
7808, 327, 2618, 2736, 3082
7809, 3026, 3162, 2936, 158
7810, 2738, 3162, 3026, 2901
7811, 2939, 2739, 3077, 419
7812, 472, 2595, 2740, 4168
7813, 2923, 3123, 495, 4101
7814, 2765, 2611, 570, 3150
7815, 4187, 4117, 2967, 2999
7816, 4247, 2952, 4305, 427
7817, 2767, 2743, 327, 4210
7818, 3223, 2914, 2880, 160
7819, 558, 4123, 3032, 4191
7820, 2745, 559, 2617, 4094
7821, 2749, 2747, 2891, 2610
7822, 449, 2599, 2748, 2943
7823, 2930, 3096, 4168, 2740
7824, 2299, 2214, 119, 2749
7825, 2878, 4125, 2688, 2806
7826, 2928, 3051, 2955, 417
7827, 2978, 2751, 3081, 242
7828, 243, 2656, 2751, 2978
7829, 2752, 2960, 2933, 565
7830, 2924, 2754, 2870, 310
7831, 2755, 265, 3145, 2776
7832, 422, 2869, 2760, 3034
7833, 133, 2950, 2757, 2916
7834, 2758, 3164, 3042, 2936
7835, 2918, 331, 3028, 3697
7836, 2834, 2759, 3028, 331
7837, 398, 2896, 2991, 4135
7838, 2756, 399, 2869, 2734
7839, 4208, 2761, 143, 2982
7840, 2883, 2762, 132, 4270
7841, 2916, 2762, 3144, 133
7842, 2763, 4151, 2919, 3070
7843, 141, 2988, 2906, 2796
7844, 2615, 2904, 2772, 563
7845, 2889, 2867, 2766, 4155
7846, 3305, 3080, 3253, 3490
7847, 3172, 3014, 3386, 397
7848, 3231, 2770, 3014, 3260
7849, 2629, 135, 3162, 2738
7850, 2595, 495, 3123, 2740
7851, 330, 2622, 2773, 3166
7852, 3087, 3206, 295, 2774
7853, 2990, 246, 2977, 247
7854, 2892, 3013, 3242, 3279
7855, 2778, 3037, 4101, 2620
7856, 2964, 2985, 517, 4128
7857, 2779, 4097, 4127, 2703
7858, 2540, 2655, 2780, 2792
7859, 3255, 3065, 2781, 428
7860, 2782, 577, 3120, 2710
7861, 2948, 429, 2781, 3065
7862, 2941, 2870, 311, 2810
7863, 2785, 2300, 2627, 2720
7864, 2786, 3025, 2917, 4296
7865, 568, 2598, 2786, 4296
7866, 2787, 2305, 2633, 397
7867, 2890, 2982, 143, 2799
7868, 2788, 4208, 2982, 2912
7869, 2789, 3483, 3246, 3340
7870, 352, 2790, 2304, 3067
7871, 436, 2609, 2791, 3103
7872, 4095, 2793, 2495, 2346
7873, 223, 2712, 2793, 4095
7874, 3066, 2803, 2794, 2947
7875, 3194, 3092, 456, 4634
7876, 2996, 2795, 4666, 3092
7877, 3017, 3216, 2796, 2906
7878, 580, 2953, 2981, 2815
7879, 2981, 3053, 2797, 2815
7880, 4163, 3216, 3017, 3159
7881, 3012, 2890, 2799, 3156
7882, 2801, 4052, 2950, 2673
7883, 2802, 2929, 3131, 2675
7884, 539, 2486, 2803, 3066
7885, 2804, 2601, 2852, 559
7886, 4123, 4108, 2915, 3032
7887, 2842, 4375, 2876, 293
7888, 2651, 2586, 2805, 2842
7889, 2806, 415, 2894, 4256
7890, 4214, 3063, 4188, 2965
7891, 2960, 4172, 3126, 543
7892, 4172, 2660, 2811, 3126
7893, 2949, 2813, 2866, 549
7894, 2931, 2816, 4544, 4567
7895, 3003, 2929, 2817, 2976
7896, 4134, 2973, 177, 2596
7897, 2821, 573, 2927, 550
7898, 2822, 469, 2499, 2340
7899, 2825, 395, 2488, 2365
7900, 2827, 139, 2518, 2391
7901, 4278, 3041, 4330, 2829
7902, 2830, 2871, 2872, 296
7903, 268, 2908, 4126, 2831
7904, 394, 2491, 2832, 3051
7905, 2771, 2604, 136, 2989
7906, 4124, 150, 4222, 2833
7907, 2834, 331, 2463, 2336
7908, 174, 2836, 2957, 2874
7909, 2551, 2378, 4085, 2480
7910, 4305, 2952, 3118, 3039
7911, 3039, 3255, 2837, 4305
7912, 2840, 580, 2588, 4093
7913, 3114, 3044, 581, 2729
7914, 2841, 2669, 4126, 246
7915, 3246, 4297, 3059, 279
7916, 302, 2447, 2843, 4297
7917, 4192, 4247, 427, 2626
7918, 4605, 2996, 3194, 2958
7919, 2847, 148, 2506, 2381
7920, 2848, 140, 2478, 2373
7921, 2849, 3111, 2955, 2750
7922, 2786, 2598, 569, 3106
7923, 2810, 2454, 2602, 288
7924, 2454, 2810, 311, 2850
7925, 4113, 2853, 4091, 137
7926, 4278, 2854, 568, 3041
7927, 2820, 2583, 177, 2973
7928, 2648, 2475, 2856, 4130
7929, 2760, 4135, 2991, 3034
7930, 144, 2858, 2466, 4204
7931, 2723, 2858, 144, 2992
7932, 2724, 200, 3121, 4194
7933, 2969, 265, 2755, 2293
7934, 438, 4273, 3099, 4358
7935, 550, 3097, 2866, 2821
7936, 2868, 3170, 3105, 4681
7937, 3105, 2986, 2697, 4681
7938, 273, 2946, 3009, 3245
7939, 2872, 3110, 3087, 2774
7940, 3107, 3083, 2873, 4471
7941, 4407, 2873, 3083, 294
7942, 2999, 4205, 173, 3276
7943, 3072, 2995, 305, 4281
7944, 3078, 2877, 2948, 3203
7945, 416, 2849, 2878, 3000
7946, 2879, 3139, 3106, 2765
7947, 3223, 3024, 2744, 2914
7948, 2771, 2880, 2914, 4113
7949, 4666, 455, 3181, 3092
7950, 2666, 2882, 4663, 2875
7951, 4270, 132, 2902, 3001
7952, 3011, 3154, 3285, 3273
7953, 4552, 2885, 4488, 2554
7954, 2934, 3089, 4155, 2820
7955, 3156, 2891, 142, 3257
7956, 4260, 3038, 2975, 287
7957, 2975, 4190, 2892, 287
7958, 3125, 2893, 3137, 3018
7959, 4256, 3102, 3142, 3000
7960, 3000, 2878, 2806, 4256
7961, 4134, 2895, 3132, 2973
7962, 3208, 3021, 3232, 4211
7963, 2901, 4227, 4162, 2738
7964, 540, 2947, 2903, 3225
7965, 563, 2772, 2903, 3020
7966, 2904, 2764, 564, 3160
7967, 3022, 2726, 3086, 3213
7968, 2818, 2907, 3060, 303
7969, 2909, 306, 3196, 3008
7970, 4130, 2909, 328, 2648
7971, 3044, 3114, 558, 4156
7972, 2925, 150, 2844, 2974
7973, 4205, 3282, 3002, 173
7974, 3228, 4330, 3041, 545
7975, 4296, 2917, 4356, 545
7976, 3027, 3646, 3388, 3263
7977, 140, 2848, 3036, 2919
7978, 2988, 3070, 3261, 3226
7979, 4221, 4220, 2920, 4290
7980, 2993, 4291, 3718, 3554
7981, 435, 2984, 3088, 4418
7982, 3103, 2791, 2921, 3007
7983, 307, 3031, 3116, 2922
7984, 3123, 2923, 3138, 3040
7985, 4146, 3035, 4183, 3236
7986, 4324, 3479, 3098, 173
7987, 547, 3403, 4326, 2926
7988, 3094, 2927, 573, 2709
7989, 2928, 3224, 3050, 2722
7990, 3096, 2930, 473, 3240
7991, 3174, 4607, 3219, 3274
7992, 4241, 3243, 3049, 4182
7993, 3089, 3001, 2889, 4155
7994, 3064, 2935, 170, 3193
7995, 2938, 201, 3221, 3121
7996, 3233, 3062, 419, 3327
7997, 2940, 169, 3084, 4245
7998, 310, 2870, 2941, 4238
7999, 3220, 2942, 554, 3237
8000, 2944, 548, 3046, 2732
8001, 3057, 3119, 224, 3204
8002, 2945, 556, 3071, 2861
8003, 2946, 2800, 3532, 274
8004, 111, 2757, 2950, 4052
8005, 544, 3090, 2951, 3228
8006, 2951, 567, 2829, 4330
8007, 2981, 2953, 4184, 557
8008, 2742, 2954, 2845, 4157
8009, 2706, 2833, 4222, 2911
8010, 2958, 3194, 4634, 3141
8011, 3141, 3085, 3095, 2958
8012, 395, 2825, 3076, 2959
8013, 3077, 418, 4342, 3209
8014, 4160, 3115, 2961, 555
8015, 469, 2822, 3073, 2962
8016, 518, 2985, 2964, 3058
8017, 4188, 4118, 4117, 2965
8018, 2967, 4117, 4088, 2578
8019, 4205, 2741, 2874, 3282
8020, 2968, 4193, 3149, 3075
8021, 2971, 491, 3147, 3074
8022, 295, 2972, 2687, 2980
8023, 3132, 2895, 178, 4249
8024, 3151, 2976, 3047, 4237
8025, 269, 3003, 2976, 3151
8026, 2968, 2978, 242, 4193
8027, 3079, 2735, 2962, 468
8028, 491, 2971, 2979, 4215
8029, 3135, 436, 4429, 3048
8030, 2983, 2702, 275, 3043
8031, 3085, 2984, 434, 3095
8032, 3037, 2778, 3153, 3375
8033, 4681, 431, 4663, 2868
8034, 454, 3528, 3187, 4682
8035, 2906, 2988, 3226, 164
8036, 3034, 2991, 3155, 3372
8037, 3218, 3029, 2992, 167
8038, 4291, 4290, 3069, 3718
8039, 305, 2995, 3082, 3158
8040, 433, 2795, 2996, 4605
8041, 3002, 3282, 2874, 2957
8042, 4187, 2999, 3276, 4189
8043, 3308, 416, 3189, 3500
8044, 155, 4270, 3001, 3089
8045, 4324, 173, 3002, 2911
8046, 3109, 3130, 269, 4200
8047, 3130, 3005, 3003, 269
8048, 3004, 293, 2876, 3198
8049, 3130, 2908, 268, 3005
8050, 3131, 3005, 268, 2855
8051, 3006, 2696, 3135, 437
8052, 3099, 4357, 437, 3332
8053, 3264, 4497, 3354, 4457
8054, 3143, 3103, 3007, 3354
8055, 3158, 3008, 3196, 4171
8056, 252, 4650, 3161, 3572
8057, 3129, 3376, 430, 4529
8058, 3105, 3170, 3269, 2986
8059, 546, 2879, 3281, 3259
8060, 3144, 3011, 3273, 3534
8061, 3257, 3124, 3012, 3156
8062, 3242, 3013, 3379, 3612
8063, 3386, 3014, 2770, 2623
8064, 420, 3260, 3014, 3172
8065, 167, 2912, 2982, 3127
8066, 3125, 3018, 4233, 4174
8067, 4334, 4333, 4282, 4335
8068, 2772, 2904, 3160, 3019
8069, 3265, 3402, 3019, 3160
8070, 3036, 3208, 4161, 2919
8071, 3086, 2726, 2905, 3188
8072, 2897, 3022, 3213, 162
8073, 3023, 3120, 3220, 4173
8074, 3025, 2786, 3106, 3139
8075, 3267, 3217, 3361, 3389
8076, 4293, 3249, 2901, 3026
8077, 3027, 3263, 3166, 2773
8078, 3035, 4146, 2759, 332
8079, 2913, 3029, 168, 3133
8080, 255, 3777, 3219, 3030
8081, 3031, 307, 3442, 3250
8082, 536, 3383, 4141, 2745
8083, 3032, 4142, 3254, 4191
8084, 4147, 4146, 3236, 4198
8085, 3037, 496, 2923, 4101
8086, 2941, 2810, 3038, 4260
8087, 451, 3065, 3255, 3039
8088, 3138, 3199, 4209, 3040
8089, 473, 2930, 3040, 4209
8090, 3164, 2758, 3295, 134
8091, 157, 3222, 3042, 3164
8092, 3043, 3157, 3258, 3400
8093, 3043, 3400, 3532, 2983
8094, 581, 3044, 2840, 4093
8095, 308, 3227, 307, 3045
8096, 270, 4202, 4237, 4271
8097, 3323, 3475, 3048, 4429
8098, 437, 3135, 3048, 3247
8099, 3165, 3265, 3160, 564
8100, 3050, 2959, 3076, 2722
8101, 4303, 3052, 445, 3374
8102, 2962, 3073, 4219, 468
8103, 3053, 556, 2945, 2797
8104, 3119, 2775, 3054, 224
8105, 3055, 3298, 169, 2940
8106, 3534, 3056, 133, 3144
8107, 3173, 3467, 3056, 3534
8108, 3119, 3057, 2712, 223
8109, 2843, 2956, 3059, 4297
8110, 3060, 3288, 3414, 2956
8111, 2721, 3115, 4160, 3061
8112, 219, 2963, 3063, 3214
8113, 3068, 548, 2944, 2718
8114, 171, 3069, 4290, 2920
8115, 4385, 3210, 3718, 3069
8116, 3261, 3070, 4161, 163
8117, 3169, 3146, 2907, 304
8118, 3148, 3074, 3147, 513
8119, 3078, 452, 3136, 3140
8120, 3140, 3129, 2877, 3078
8121, 4332, 3079, 468, 3342
8122, 536, 3490, 3253, 3381
8123, 3080, 3305, 3176, 515
8124, 3081, 2963, 219, 3201
8125, 3167, 3104, 294, 3083
8126, 3171, 457, 3461, 3385
8127, 3188, 2905, 161, 3297
8128, 3134, 3087, 3110, 3183
8129, 3089, 2934, 3101, 155
8130, 4270, 155, 3256, 3154
8131, 3126, 3192, 3179, 543
8132, 3112, 3091, 3174, 3197
8133, 3372, 3093, 422, 3034
8134, 2932, 3093, 3190, 445
8135, 2846, 3095, 434, 4483
8136, 3240, 473, 3177, 450
8137, 3168, 3097, 550, 3290
8138, 3566, 3486, 3501, 172
8139, 4357, 2865, 3006, 437
8140, 3100, 2839, 2886, 551
8141, 3371, 3101, 3132, 4249
8142, 3102, 4295, 4394, 3152
8143, 3262, 3198, 3104, 3398
8144, 3170, 2868, 3010, 3440
8145, 3107, 4566, 3212, 3083
8146, 3151, 4201, 4200, 269
8147, 247, 2977, 3109, 3238
8148, 417, 2955, 3111, 3195
8149, 3112, 254, 2900, 276
8150, 3184, 4184, 4191, 3254
8151, 3113, 4156, 4184, 2953
8152, 558, 3114, 2910, 4123
8153, 3241, 3117, 159, 3477
8154, 450, 3177, 3186, 3118
8155, 451, 3039, 3118, 3186
8156, 200, 2724, 2859, 4096
8157, 3138, 2923, 496, 3199
8158, 165, 3178, 3124, 3506
8159, 3279, 3293, 287, 2892
8160, 3125, 4174, 4127, 576
8161, 3126, 2811, 3090, 3192
8162, 3133, 168, 3370, 3191
8163, 4244, 3128, 3133, 3191
8164, 4532, 3134, 3358, 3492
8165, 4532, 3206, 3087, 3134
8166, 3289, 452, 3278, 3404
8167, 3454, 3136, 452, 3289
8168, 3137, 4283, 4282, 3018
8169, 3376, 3129, 3140, 453
8170, 3085, 3141, 457, 3171
8171, 439, 3189, 3142, 3152
8172, 3103, 3143, 4429, 436
8173, 3013, 2776, 3145, 3379
8174, 3146, 3169, 281, 3630
8175, 3311, 3147, 491, 3356
8176, 3148, 513, 3459, 3378
8177, 3313, 3149, 4193, 3487
8178, 264, 3379, 3149, 3313
8179, 3139, 2879, 546, 4446
8180, 3150, 570, 2926, 4326
8181, 3281, 3150, 4326, 3259
8182, 3238, 3109, 4200, 4201
8183, 3190, 3093, 3372, 3268
8184, 142, 3216, 4163, 3257
8185, 4171, 3196, 3266, 3445
8186, 3280, 3159, 164, 3411
8187, 3045, 3166, 3263, 308
8188, 3400, 3161, 274, 3532
8189, 4152, 3162, 135, 2652
8190, 3272, 280, 3397, 3527
8191, 3166, 3045, 2715, 330
8192, 3169, 304, 4281, 3301
8193, 3376, 3440, 3010, 430
8194, 3269, 3170, 3440, 3453
8195, 3368, 3088, 3171, 3385
8196, 3544, 3504, 3394, 156
8197, 3495, 169, 3298, 192
8198, 3505, 3175, 3495, 4395
8199, 473, 4209, 3296, 3177
8200, 3178, 165, 3384, 3415
8201, 3409, 3180, 3292, 189
8202, 4373, 3587, 190, 3535
8203, 4688, 3302, 4694, 3181
8204, 4694, 3462, 3365, 456
8205, 3421, 3539, 3583, 4239
8206, 3382, 3464, 272, 3183
8207, 3134, 3183, 272, 3358
8208, 3184, 3319, 3434, 3300
8209, 4418, 3185, 3007, 2921
8210, 4457, 458, 4524, 3264
8211, 3528, 454, 3392, 4622
8212, 3187, 3438, 3302, 4688
8213, 4277, 4212, 3188, 3297
8214, 4229, 3308, 3500, 4294
8215, 3370, 168, 3294, 3747
8216, 3191, 3370, 3419, 3298
8217, 3193, 170, 3338, 3452
8218, 3317, 171, 3193, 3452
8219, 3283, 4634, 456, 3365
8220, 3497, 3344, 3336, 4177
8221, 3266, 3196, 306, 3326
8222, 3197, 3360, 3439, 4550
8223, 254, 3112, 3197, 4550
8224, 3380, 4271, 3004, 3198
8225, 4209, 3199, 3406, 3296
8226, 3199, 496, 4176, 3364
8227, 3416, 4365, 4304, 3200
8228, 468, 4219, 3200, 4304
8229, 242, 3081, 3201, 3357
8230, 4215, 3202, 3356, 491
8231, 3470, 3387, 474, 3641
8232, 224, 3322, 3363, 3204
8233, 3345, 3287, 438, 4358
8234, 3335, 4231, 4186, 4185
8235, 4231, 3309, 3207, 4186
8236, 163, 4161, 3208, 4211
8237, 3508, 3209, 4342, 3344
8238, 3210, 4385, 3317, 3437
8239, 3210, 3437, 3566, 172
8240, 2933, 3211, 542, 4241
8241, 3449, 3349, 219, 3214
8242, 3257, 4163, 3506, 3124
8243, 4356, 2917, 3217, 3267
8244, 3025, 3139, 4446, 3361
8245, 168, 3029, 3218, 3294
8246, 3348, 3221, 201, 3303
8247, 3016, 3221, 3348, 3235
8248, 3230, 3223, 160, 3433
8249, 3336, 417, 3195, 4177
8250, 3058, 540, 3334, 3330
8251, 3227, 3352, 3436, 3320
8252, 3412, 3547, 4516, 3426
8253, 3229, 3306, 3457, 3339
8254, 3353, 3433, 160, 3241
8255, 3318, 3297, 161, 3230
8256, 421, 2896, 3231, 3271
8257, 3455, 3233, 3327, 442
8258, 4284, 553, 4232, 4329
8259, 3316, 3234, 4334, 4329
8260, 3236, 4183, 3366, 4239
8261, 554, 4207, 3347, 3237
8262, 531, 4308, 4207, 3309
8263, 3238, 3367, 3310, 247
8264, 556, 3328, 3472, 3239
8265, 3239, 3432, 3335, 4185
8266, 3240, 450, 2943, 2748
8267, 159, 3331, 4339, 3477
8268, 3451, 3353, 3241, 3477
8269, 3608, 3418, 3694, 541
8270, 3243, 3418, 3608, 3049
8271, 548, 3068, 3244, 3343
8272, 302, 4297, 3246, 3483
8273, 3334, 540, 3225, 4240
8274, 3515, 3247, 460, 3631
8275, 547, 3046, 3248, 3329
8276, 3314, 3324, 158, 4228
8277, 3324, 3331, 3249, 4293
8278, 306, 2731, 3250, 3326
8279, 224, 3054, 3251, 3322
8280, 556, 3053, 3252, 3328
8281, 535, 3319, 3254, 4142
8282, 155, 3101, 3371, 3256
8283, 3256, 3371, 3444, 3285
8284, 3157, 253, 3507, 3258
8285, 3271, 3231, 3260, 3391
8286, 3525, 3396, 3531, 4313
8287, 271, 3966, 3262, 3398
8288, 3262, 3393, 3380, 3198
8289, 459, 3143, 3354, 4497
8290, 4240, 3402, 541, 3334
8291, 3267, 3389, 3645, 3547
8292, 4356, 3267, 3547, 3412
8293, 3269, 3453, 3392, 454
8294, 3271, 3391, 3863, 3529
8295, 3760, 4503, 257, 3841
8296, 3272, 3527, 4503, 4464
8297, 3173, 3394, 3504, 3284
8298, 3274, 3561, 3476, 3360
8299, 4269, 3463, 3513, 4345
8300, 3501, 3276, 173, 3098
8301, 196, 4189, 3276, 3333
8302, 3277, 3474, 474, 3387
8303, 3401, 286, 3421, 3293
8304, 3411, 164, 3270, 3525
8305, 3465, 3384, 165, 3506
8306, 3259, 4326, 3403, 3523
8307, 3481, 3461, 457, 3283
8308, 3284, 3504, 4178, 157
8309, 3164, 134, 3284, 157
8310, 3286, 3426, 4516, 3610
8311, 3286, 3681, 3373, 544
8312, 3397, 280, 3526, 3628
8313, 3414, 3288, 280, 3272
8314, 3482, 3417, 3571, 3549
8315, 3468, 3291, 3511, 3642
8316, 3291, 543, 3179, 3410
8317, 3182, 287, 3293, 3421
8318, 134, 3295, 2572, 3467
8319, 3474, 3277, 3296, 3406
8320, 3488, 4321, 4277, 3297
8321, 3374, 445, 3190, 3268
8322, 3416, 3299, 3538, 3724
8323, 282, 3604, 3301, 3445
8324, 3485, 3348, 3723, 202
8325, 3305, 2769, 537, 3176
8326, 4232, 4173, 3307, 3341
8327, 3500, 3189, 439, 3458
8328, 554, 3061, 3309, 4207
8329, 513, 3147, 3311, 3430
8330, 3312, 3168, 3482, 527
8331, 3512, 3312, 527, 3629
8332, 3324, 3314, 4363, 3331
8333, 542, 3211, 3424, 3346
8334, 4298, 3315, 3536, 4352
8335, 4379, 4368, 3316, 3494
8336, 4368, 4318, 3234, 3316
8337, 3437, 3317, 3546, 3647
8338, 3297, 3318, 184, 3488
8339, 535, 4251, 3431, 3319
8340, 4213, 4212, 4277, 3362
8341, 225, 3363, 3322, 3592
8342, 3471, 3323, 459, 3557
8343, 3473, 3325, 252, 3559
8344, 533, 4230, 3472, 3328
8345, 3330, 519, 3463, 4268
8346, 3451, 3477, 4339, 182
8347, 3332, 3515, 3435, 3205
8348, 3099, 3332, 3205, 4358
8349, 3579, 3349, 3449, 3524
8350, 3225, 3019, 3402, 4240
8351, 3335, 532, 3429, 4231
8352, 4177, 3195, 4229, 440
8353, 3337, 186, 3531, 3396
8354, 4525, 3456, 3649, 3807
8355, 3229, 3339, 4619, 253
8356, 279, 3407, 3761, 3446
8357, 3914, 278, 3340, 3446
8358, 530, 3341, 3307, 4217
8359, 4328, 4370, 3594, 490
8360, 525, 3447, 3248, 3343
8361, 3508, 3344, 3497, 441
8362, 4225, 3344, 4342, 418
8363, 3307, 3237, 3347, 4217
8364, 3348, 3303, 3420, 3723
8365, 218, 3460, 3349, 3579
8366, 3350, 3215, 526, 4546
8367, 3351, 3967, 3863, 3391
8368, 3388, 3448, 308, 3263
8369, 3433, 3353, 183, 3489
8370, 4178, 3504, 3544, 3441
8371, 3639, 3493, 4328, 490
8372, 3487, 3357, 241, 4310
8373, 3358, 272, 3390, 3598
8374, 4473, 3492, 271, 3398
8375, 3423, 4337, 3127, 3180
8376, 3535, 3480, 3359, 4373
8377, 3439, 232, 3614, 4481
8378, 3395, 546, 3259, 3523
8379, 3362, 185, 3321, 4213
8380, 3413, 4176, 3375, 4226
8381, 3514, 3406, 3364, 3638
8382, 3503, 3481, 3283, 3365
8383, 4238, 3366, 4183, 310
8384, 3182, 3421, 4239, 3366
8385, 3466, 270, 3393, 3550
8386, 3368, 458, 4457, 3185
8387, 3458, 3369, 4417, 462
8388, 178, 3304, 3542, 4249
8389, 3268, 3372, 3155, 3408
8390, 4369, 3749, 3410, 3179
8391, 3268, 3408, 444, 3374
8392, 496, 3037, 3375, 4176
8393, 4586, 3593, 4585, 476
8394, 453, 3136, 3377, 4587
8395, 3378, 3459, 3431, 4251
8396, 3378, 3383, 536, 3381
8397, 3407, 3163, 4464, 4465
8398, 270, 4271, 3380, 3393
8399, 4620, 3399, 3464, 3382
8400, 3383, 535, 4142, 4141
8401, 3278, 3387, 3470, 3404
8402, 3448, 3388, 3533, 3586
8403, 3492, 3358, 3598, 271
8404, 3701, 3735, 4444, 444
8405, 4325, 3709, 3544, 156
8406, 3389, 3395, 3815, 3645
8407, 3270, 4265, 3396, 3525
8408, 3526, 280, 3288, 4436
8409, 3399, 4576, 3590, 4575
8410, 3464, 3399, 250, 3530
8411, 3612, 264, 3443, 3957
8412, 3401, 3957, 3573, 286
8413, 541, 3402, 3265, 3608
8414, 3520, 3404, 3470, 3641
8415, 3264, 3611, 3491, 4497
8416, 3514, 3541, 3474, 3406
8417, 3548, 3409, 189, 3653
8418, 3423, 3409, 3587, 4373
8419, 3511, 3291, 3410, 3797
8420, 3280, 3522, 3465, 3159
8421, 3463, 4269, 4226, 3275
8422, 3415, 189, 3292, 3178
8423, 3299, 444, 4444, 3538
8424, 4460, 4365, 3416, 467
8425, 3551, 3543, 551, 3015
8426, 3499, 3694, 3732, 4299
8427, 3418, 3243, 3315, 4298
8428, 3298, 3419, 3581, 192
8429, 3586, 3533, 4267, 4272
8430, 248, 3422, 3310, 3711
8431, 3422, 248, 3589, 3592
8432, 4337, 3423, 4373, 3359
8433, 3425, 3588, 3314, 4228
8434, 4368, 3706, 3427, 4318
8435, 3543, 3551, 3427, 4391
8436, 3605, 3429, 532, 3671
8437, 3431, 3459, 3509, 3596
8438, 4230, 3597, 3432, 3472
8439, 3434, 534, 3450, 3300
8440, 3345, 3619, 3804, 3287
8441, 284, 3320, 3436, 3613
8442, 3486, 3566, 195, 3333
8443, 477, 3438, 3726, 4621
8444, 478, 3302, 3438, 4658
8445, 3439, 4481, 3306, 4550
8446, 453, 4587, 3440, 3376
8447, 3602, 179, 3709, 4325
8448, 3709, 3696, 3441, 3544
8449, 3320, 284, 3584, 3442
8450, 3443, 264, 3313, 3555
8451, 3542, 3602, 4325, 3444
8452, 156, 3285, 3444, 4325
8453, 4236, 4171, 3445, 3301
8454, 3761, 4498, 3857, 3446
8455, 286, 3634, 4272, 4267
8456, 3352, 3448, 3586, 285
8457, 3333, 195, 3524, 3449
8458, 3600, 3451, 182, 3695
8459, 193, 3713, 3452, 3505
8460, 4587, 4585, 3453, 3440
8461, 3289, 475, 4579, 3454
8462, 3607, 3455, 442, 4505
8463, 3518, 3507, 3456, 4525
8464, 3339, 3649, 3456, 4619
8465, 3457, 3306, 4481, 231
8466, 3202, 4370, 4328, 3356
8467, 3545, 4361, 4415, 3599
8468, 3545, 3663, 4294, 4361
8469, 512, 3509, 3430, 3801
8470, 3460, 218, 3577, 241
8471, 4604, 3603, 4569, 3469
8472, 4694, 3302, 478, 3462
8473, 4690, 478, 4685, 3576
8474, 4268, 3463, 3275, 518
8475, 3522, 3280, 3411, 187
8476, 3384, 3465, 4007, 3956
8477, 3466, 3367, 4202, 270
8478, 4570, 4569, 3603, 4615
8479, 4524, 458, 3469, 4569
8480, 3657, 3471, 3557, 3920
8481, 3471, 3575, 3475, 3323
8482, 3591, 4417, 461, 3851
8483, 3656, 3473, 3559, 3766
8484, 251, 3325, 3473, 4610
8485, 3516, 3476, 3561, 233
8486, 3479, 4324, 2911, 4222
8487, 3215, 3312, 3512, 526
8488, 3480, 3737, 3747, 3294
8489, 3461, 3481, 480, 4604
8490, 2321, 302, 3483, 4372
8491, 186, 3337, 3484, 3722
8492, 3578, 3485, 202, 4351
8493, 179, 3304, 3485, 3578
8494, 3727, 4371, 3555, 4310
8495, 3488, 3644, 3556, 4321
8496, 4094, 3490, 536, 2745
8497, 2769, 3305, 3490, 4094
8498, 3557, 3491, 4026, 3920
8499, 3801, 3493, 3639, 3750
8500, 4379, 3494, 529, 4392
8501, 3510, 3712, 4474, 4395
8502, 3495, 192, 3510, 4395
8503, 3659, 3563, 3519, 3743
8504, 525, 3343, 3496, 3704
8505, 4294, 3663, 440, 4229
8506, 3660, 3565, 4308, 531
8507, 3499, 519, 3330, 3334
8508, 3501, 3098, 3554, 172
8509, 182, 4339, 3502, 3705
8510, 480, 4651, 3569, 4633
8511, 3507, 3518, 3572, 3258
8512, 441, 3552, 3609, 3508
8513, 3601, 534, 3675, 3832
8514, 3675, 3596, 3509, 512
8515, 3510, 4390, 4384, 3648
8516, 4474, 3667, 3606, 193
8517, 3797, 3752, 3642, 3511
8518, 3743, 3519, 3849, 3852
8519, 4386, 4346, 4345, 4353
8520, 3541, 3720, 3641, 474
8521, 3575, 4540, 460, 3475
8522, 232, 3476, 3516, 3651
8523, 3517, 3626, 3588, 3425
8524, 3805, 4317, 4316, 3779
8525, 229, 3559, 3518, 4525
8526, 3632, 4255, 3684, 3798
8527, 187, 3763, 3692, 3522
8528, 3523, 3621, 3815, 3395
8529, 3618, 3733, 3647, 3546
8530, 3411, 3525, 4313, 187
8531, 3628, 3526, 3746, 3836
8532, 3691, 4465, 3760, 3841
8533, 3809, 250, 3670, 3855
8534, 3625, 3531, 186, 3745
8535, 3583, 3539, 309, 4148
8536, 3533, 309, 3539, 4267
8537, 4386, 4353, 3636, 3728
8538, 3732, 4298, 4352, 3636
8539, 3537, 3424, 3468, 3642
8540, 3536, 3346, 520, 4383
8541, 3421, 286, 4267, 3539
8542, 4610, 3473, 3656, 4573
8543, 3590, 4576, 3540, 3725
8544, 3514, 497, 3720, 3541
8545, 3304, 179, 3602, 3542
8546, 3417, 551, 3543, 3571
8547, 3567, 440, 3663, 3903
8548, 194, 3702, 3782, 3618
8549, 4588, 3547, 3645, 3658
8550, 3765, 3548, 3653, 212
8551, 528, 3710, 3549, 3571
8552, 3629, 527, 3650, 4029
8553, 3966, 3550, 3393, 3262
8554, 3711, 3897, 3668, 248
8555, 4392, 529, 4434, 3633
8556, 3706, 4368, 4379, 4392
8557, 3551, 3015, 4307, 552
8558, 4393, 3552, 441, 3689
8559, 3643, 3901, 3553, 185
8560, 3443, 3555, 4371, 263
8561, 3738, 3556, 3644, 4425
8562, 3556, 3738, 3874, 3643
8563, 3329, 524, 4484, 3558
8564, 3621, 3558, 4484, 4485
8565, 3560, 3654, 3736, 3860
8566, 3561, 3777, 3686, 233
8567, 477, 4592, 3716, 3562
8568, 4618, 3562, 3716, 4591
8569, 3659, 3904, 4602, 3563
8570, 3739, 504, 3672, 4535
8571, 3652, 3755, 3564, 181
8572, 3734, 205, 4400, 3705
8573, 3775, 3565, 3660, 509
8574, 4367, 3741, 3700, 3498
8575, 3566, 3437, 3647, 195
8576, 3568, 3813, 3653, 189
8577, 3677, 3569, 4651, 479
8578, 530, 3700, 3708, 3570
8579, 3680, 4276, 3784, 3949
8580, 3666, 4340, 3758, 3873
8581, 3445, 3574, 4302, 282
8582, 3819, 3887, 4675, 3576
8583, 3698, 3577, 3785, 240
8584, 4351, 202, 3703, 4354
8585, 3620, 4384, 4390, 3617
8586, 3582, 3672, 3824, 3690
8587, 524, 3447, 3582, 4534
8588, 4239, 3583, 4198, 3236
8589, 3676, 261, 3833, 3757
8590, 3768, 475, 3637, 3831
8591, 4527, 3834, 3793, 476
8592, 3588, 181, 4363, 3314
8593, 225, 3592, 3589, 4255
8594, 3590, 4489, 3670, 4575
8595, 4015, 3661, 3591, 3851
8596, 4417, 3591, 4463, 462
8597, 4586, 3721, 4559, 3593
8598, 4622, 4621, 3726, 3528
8599, 3787, 3693, 490, 3594
8600, 3595, 3616, 3638, 3413
8601, 4269, 3595, 3413, 4226
8602, 534, 3434, 3596, 3675
8603, 4230, 3679, 3772, 3597
8604, 3622, 3598, 3390, 3530
8605, 3599, 4463, 3669, 3799
8606, 463, 3545, 3599, 3799
8607, 3600, 3695, 3764, 3687
8608, 3679, 3683, 3780, 3892
8609, 4633, 3826, 4615, 3603
8610, 281, 3604, 3769, 3868
8611, 3977, 3605, 3671, 3840
8612, 3762, 3606, 3667, 216
8613, 3910, 443, 3607, 3756
8614, 442, 3327, 3609, 4405
8615, 522, 4547, 3610, 4516
8616, 4478, 3681, 3286, 3610
8617, 4018, 481, 3662, 482
8618, 4026, 3491, 3611, 4018
8619, 3612, 4338, 3279, 3242
8620, 3664, 231, 3673, 208
8621, 231, 4481, 3614, 3673
8622, 3737, 3480, 3535, 3730
8623, 3624, 3751, 3884, 3728
8624, 520, 3537, 3615, 4383
8625, 3720, 497, 3773, 3810
8626, 3638, 3616, 497, 3514
8627, 4390, 3581, 3419, 3617
8628, 194, 3618, 3546, 3713
8629, 3688, 3627, 3782, 217
8630, 3804, 3619, 3729, 461
8631, 3795, 4490, 215, 4414
8632, 4534, 3817, 4484, 524
8633, 3815, 3621, 4485, 523
8634, 4397, 3623, 3809, 249
8635, 3897, 3550, 3966, 4397
8636, 3623, 4397, 3966, 271
8637, 4364, 3763, 187, 4313
8638, 203, 3885, 3805, 3779
8639, 3652, 3626, 3805, 3744
8640, 3579, 3524, 3733, 3627
8641, 3628, 3917, 3842, 3397
8642, 3146, 3630, 4436, 3288
8643, 3746, 3630, 281, 3868
8644, 3898, 3790, 4540, 3575
8645, 3988, 4533, 3828, 4595
8646, 3748, 3703, 202, 3723
8647, 3823, 4434, 3707, 507
8648, 3783, 3710, 528, 3633
8649, 285, 3586, 4272, 3634
8650, 3634, 286, 3573, 3784
8651, 3735, 3701, 443, 3910
8652, 3735, 3910, 3635, 4444
8653, 4299, 3513, 519, 3499
8654, 3636, 4353, 4299, 3732
8655, 3831, 3637, 498, 3931
8656, 3637, 475, 3520, 3810
8657, 490, 3693, 3750, 3639
8658, 3640, 3757, 3833, 3861
8659, 3731, 3553, 3901, 3806
8660, 3655, 184, 3560, 3860
8661, 4425, 3644, 3655, 207
8662, 3658, 4523, 3802, 3866
8663, 3646, 2918, 3697, 309
8664, 3712, 3648, 3812, 216
8665, 4029, 3650, 3818, 506
8666, 3734, 3564, 3755, 3864
8667, 213, 4475, 3908, 4539
8668, 3687, 3654, 183, 3600
8669, 3736, 3654, 3687, 206
8670, 3896, 3715, 3781, 3921
8671, 4573, 3656, 3766, 4517
8672, 3658, 4589, 522, 4588
8673, 4602, 3904, 3739, 4535
8674, 4367, 3775, 4399, 3741
8675, 3669, 3661, 3754, 3909
8676, 4463, 3591, 3661, 3669
8677, 3936, 3850, 3925, 3922
8678, 482, 3662, 3936, 3932
8679, 3663, 3545, 463, 3903
8680, 3664, 3814, 3767, 3580
8681, 4639, 3854, 4615, 3826
8682, 3665, 3854, 4628, 3759
8683, 4302, 3808, 3674, 282
8684, 3668, 249, 3811, 4306
8685, 3855, 3822, 226, 3811
8686, 4575, 3670, 250, 3399
8687, 525, 3704, 4535, 3672
8688, 3769, 3674, 3862, 258
8689, 3780, 3601, 3832, 3853
8690, 284, 3613, 3676, 3757
8691, 4635, 3699, 3788, 3905
8692, 3820, 4548, 3878, 4591
8693, 521, 4478, 3678, 4548
8694, 533, 3601, 3780, 3683
8695, 3772, 3679, 3835, 3894
8696, 3634, 3784, 4276, 285
8697, 262, 3821, 3680, 3949
8698, 4421, 4420, 521, 4479
8699, 3798, 3684, 226, 3965
8700, 3684, 4255, 3589, 4306
8701, 3740, 3685, 3724, 3635
8702, 489, 3693, 3787, 3906
8703, 255, 3800, 3686, 3777
8704, 3689, 3567, 3903, 3742
8705, 3690, 503, 4635, 3879
8706, 3690, 3879, 4534, 3582
8707, 3761, 3691, 256, 4498
8708, 3407, 4465, 3691, 3761
8709, 3937, 4022, 3692, 3763
8710, 3933, 4001, 3871, 4404
8711, 3694, 3418, 4298, 3732
8712, 3695, 182, 3705, 4400
8713, 4350, 3778, 4301, 3696
8714, 3696, 4301, 3719, 3441
8715, 3839, 3907, 3796, 3698
8716, 241, 3577, 3698, 3796
8717, 3826, 3699, 503, 4639
8718, 4633, 3569, 3699, 3826
8719, 3708, 3700, 3741, 4398
8720, 466, 3740, 3756, 3816
8721, 217, 3782, 3702, 3902
8722, 3706, 528, 4391, 3427
8723, 3823, 3911, 3999, 3783
8724, 529, 3570, 3707, 4434
8725, 508, 3789, 3708, 4398
8726, 3818, 3710, 4545, 3891
8727, 215, 3812, 3648, 4414
8728, 210, 3825, 3714, 3794
8729, 465, 4494, 3715, 3896
8730, 3791, 4559, 3721, 3847
8731, 4019, 3950, 3730, 190
8732, 190, 3587, 3717, 4019
8733, 180, 4316, 3719, 4301
8734, 497, 3616, 4347, 3773
8735, 476, 3793, 3721, 4586
8736, 3722, 4382, 3745, 186
8737, 3748, 3521, 3632, 3976
8738, 467, 3416, 3724, 3685
8739, 3635, 3724, 3538, 4444
8740, 3776, 228, 3859, 4513
8741, 3725, 227, 4489, 3590
8742, 3792, 4371, 3727, 3907
8743, 3728, 3884, 3773, 4347
8744, 4347, 4346, 4386, 3728
8745, 4015, 3851, 484, 3880
8746, 3980, 3888, 3950, 4430
8747, 3806, 3774, 209, 3731
8748, 4382, 209, 3890, 3867
8749, 3848, 4400, 205, 4000
8750, 3740, 466, 4461, 3685
8751, 3889, 4426, 3860, 3736
8752, 3889, 3736, 206, 3973
8753, 3747, 3737, 191, 3617
8754, 4577, 4514, 4515, 4426
8755, 3874, 3738, 4514, 3814
8756, 3904, 505, 3925, 3739
8757, 4399, 3837, 4398, 3741
8758, 463, 3838, 3876, 3903
8759, 464, 3781, 3742, 4362
8760, 3743, 4673, 4672, 3659
8761, 3885, 204, 3744, 3805
8762, 3744, 204, 3755, 3652
8763, 3836, 3746, 3868, 4428
8764, 3976, 3632, 3798, 4376
8765, 3827, 3749, 4421, 3846
8766, 3749, 3827, 3797, 3410
8767, 3801, 3750, 3853, 512
8768, 3845, 3884, 3751, 4456
8769, 3797, 3827, 3972, 3752
8770, 3845, 3942, 3931, 498
8771, 4374, 191, 3737, 3888
8772, 3941, 3754, 485, 3960
8773, 4416, 3799, 3669, 3909
8774, 3864, 3755, 204, 3919
8775, 3640, 3758, 4340, 283
8776, 260, 3830, 3873, 3758
8777, 504, 3850, 3759, 4628
8778, 4498, 3800, 255, 3857
8779, 4364, 3803, 4422, 3763
8780, 211, 4025, 3916, 4009
8781, 206, 3687, 3764, 4396
8782, 3765, 4582, 3908, 4475
8783, 3807, 3875, 229, 4525
8784, 4517, 3766, 3843, 3900
8785, 475, 3768, 3585, 4579
8786, 258, 4428, 3868, 3769
8787, 501, 3819, 3770, 4617
8788, 4657, 4618, 3770, 3819
8789, 4590, 3878, 4548, 3678
8790, 4589, 3771, 4547, 522
8791, 3835, 3679, 3892, 511
8792, 3682, 3772, 3894, 510
8793, 3810, 3773, 498, 3637
8794, 3774, 3651, 3825, 209
8795, 509, 3944, 4399, 3775
8796, 4513, 3919, 3895, 3776
8797, 3919, 204, 3943, 3895
8798, 180, 4301, 3778, 4351
8799, 3742, 3781, 4393, 3689
8800, 3783, 3999, 4545, 3710
8801, 3785, 3688, 217, 3989
8802, 233, 3686, 4599, 3786
8803, 3906, 3787, 4461, 466
8804, 3788, 3677, 4689, 502
8805, 4493, 3856, 3941, 4571
8806, 3707, 3789, 4493, 507
8807, 4541, 4540, 3790, 4574
8808, 3790, 483, 3828, 4574
8809, 3716, 4592, 4549, 500
8810, 4559, 4592, 477, 4621
8811, 3865, 3792, 3949, 3784
8812, 4528, 4527, 476, 4585
8813, 4472, 3793, 3834, 499
8814, 3794, 3886, 4009, 3916
8815, 3620, 3753, 3795, 4414
8816, 3839, 3698, 240, 3971
8817, 3975, 256, 3691, 3841
8818, 523, 4485, 4536, 3844
8819, 4636, 3887, 3819, 501
8820, 3890, 4422, 3803, 3867
8821, 208, 3673, 3806, 3901
8822, 3843, 229, 3875, 4004
8823, 3873, 259, 4355, 3666
8824, 259, 4427, 3808, 4355
8825, 249, 3809, 3855, 3811
8826, 215, 4005, 3877, 3812
8827, 3813, 3872, 3947, 3881
8828, 3815, 523, 4523, 3645
8829, 465, 3896, 3946, 3870
8830, 3817, 4534, 3879, 4601
8831, 4485, 4484, 3817, 4536
8832, 3828, 483, 3935, 4595
8833, 3918, 4636, 3866, 3802
8834, 3887, 4636, 3918, 4653
8835, 3827, 3846, 3934, 3972
8836, 3953, 3839, 3971, 3991
8837, 4628, 3854, 4639, 3824
8838, 503, 3690, 3824, 4639
8839, 3867, 3803, 4364, 3625
8840, 3752, 3972, 3942, 4456
8841, 3952, 484, 4533, 3988
8842, 4574, 4531, 3729, 4541
8843, 3927, 3829, 3917, 4491
8844, 3969, 4578, 3829, 3983
8845, 3830, 3974, 3940, 4450
8846, 3780, 3853, 4001, 3892
8847, 3924, 3861, 3833, 4412
8848, 3831, 3834, 4527, 3768
8849, 4001, 3933, 511, 3892
8850, 4399, 3944, 4455, 3837
8851, 3997, 3993, 4511, 4512
8852, 4011, 3955, 3968, 4021
8853, 3968, 3876, 3838, 3996
8854, 3822, 3882, 3965, 226
8855, 3991, 3971, 4458, 4459
8856, 3926, 4410, 3986, 4013
8857, 3869, 256, 3975, 4553
8858, 3527, 3842, 257, 4503
8859, 3913, 3848, 4000, 4453
8860, 3884, 3845, 498, 3773
8861, 4456, 3751, 3615, 3752
8862, 3959, 4479, 3820, 500
8863, 4472, 3934, 4480, 3847
8864, 4549, 3791, 3847, 4480
8865, 3764, 3848, 3913, 4396
8866, 3849, 3629, 4029, 4028
8867, 3850, 504, 3739, 3925
8868, 3978, 482, 3932, 3984
8869, 3984, 4003, 3935, 3928
8870, 3853, 3750, 3871, 4001
8871, 4615, 3854, 3665, 4570
8872, 4022, 4025, 3872, 188
8873, 486, 3909, 3856, 3970
8874, 4499, 4500, 3858, 214
8875, 3938, 3864, 3919, 4513
8876, 3859, 228, 4573, 4517
8877, 207, 3655, 3860, 4426
8878, 3861, 260, 3758, 3640
8879, 4450, 3951, 4427, 259
8880, 443, 3701, 3863, 3967
8881, 205, 3734, 3864, 3938
8882, 3865, 3784, 3573, 263
8883, 4609, 501, 3771, 4589
8884, 3866, 4609, 4589, 3658
8885, 3745, 4382, 3867, 3625
8886, 3906, 3870, 3964, 4404
8887, 4476, 511, 3933, 4445
8888, 259, 3873, 3830, 4450
8889, 3874, 208, 3901, 3643
8890, 4004, 206, 4396, 3939
8891, 4362, 3742, 3903, 3876
8892, 3945, 4005, 215, 4490
8893, 3994, 3961, 3915, 216
8894, 4617, 3770, 3878, 4590
8895, 4635, 3905, 4601, 3879
8896, 4601, 3844, 4536, 3817
8897, 4009, 3930, 4518, 211
8898, 227, 3895, 3943, 3882
8899, 3885, 3979, 3943, 204
8900, 3991, 3954, 3883, 3953
8901, 203, 4376, 3979, 3885
8902, 234, 3930, 3886, 4553
8903, 4653, 502, 4689, 4675
8904, 4426, 3889, 3912, 3767
8905, 3875, 3973, 206, 4004
8906, 3753, 191, 4374, 3893
8907, 214, 3858, 3893, 4374
8908, 3668, 3897, 4397, 249
8909, 483, 3790, 3898, 3928
8910, 508, 3899, 4493, 3789
8911, 3970, 3899, 508, 3997
8912, 3859, 4517, 3900, 4453
8913, 3963, 3989, 3915, 3961
8914, 505, 3904, 3659, 4672
8915, 3922, 3925, 505, 4677
8916, 3905, 3788, 502, 3962
8917, 4561, 3948, 3958, 4582
8918, 4539, 3908, 4582, 3958
8919, 486, 3996, 4416, 3909
8920, 3941, 3960, 3911, 4571
8921, 4577, 3767, 3814, 4514
8922, 3914, 3030, 4567, 278
8923, 3937, 3916, 4025, 4022
8924, 210, 3794, 3916, 3937
8925, 3927, 4491, 3929, 3981
8926, 257, 3842, 3917, 3829
8927, 4653, 3918, 3962, 502
8928, 3852, 3984, 3932, 4673
8929, 4419, 464, 4362, 3955
8930, 4410, 3926, 510, 3894
8931, 260, 3861, 3924, 3995
8932, 3946, 3896, 3921, 4572
8933, 4013, 488, 4024, 3985
8934, 3944, 509, 4413, 4477
8935, 3927, 4593, 3983, 3829
8936, 4003, 3984, 3852, 4028
8937, 3981, 3929, 3987, 236
8938, 258, 3987, 3929, 4428
8939, 3992, 234, 3969, 235
8940, 4404, 3964, 4445, 3933
8941, 3942, 3972, 499, 3931
8942, 506, 4556, 4003, 4028
8943, 3922, 4677, 3932, 3936
8944, 3938, 4513, 4000, 205
8945, 4453, 3900, 3939, 3913
8946, 4020, 4012, 4008, 3951
8947, 3960, 485, 3880, 4002
8948, 507, 4493, 4571, 3911
8949, 3993, 487, 4011, 4511
8950, 3945, 4551, 4520, 4005
8951, 3947, 3872, 4025, 211
8952, 3947, 211, 4518, 3881
8953, 235, 3958, 3948, 3992
8954, 3881, 3948, 4561, 212
8955, 3999, 4002, 3952, 4545
8956, 262, 3907, 3839, 3953
8957, 261, 3883, 3954, 4412
8958, 238, 3995, 3924, 4016
8959, 4419, 4024, 3982, 464
8960, 188, 3568, 3956, 4007
8961, 3957, 3401, 4338, 3612
8962, 4479, 3959, 3846, 4421
8963, 3959, 500, 4549, 4480
8964, 3961, 239, 4458, 3963
8965, 3963, 4458, 3971, 240
8966, 3989, 3963, 240, 3785
8967, 3986, 4476, 4445, 3964
8968, 4376, 3798, 3965, 3979
8969, 3975, 3969, 234, 4553
8970, 214, 3980, 3998, 4499
8971, 3934, 4472, 499, 3972
8972, 3973, 3875, 3807, 4495
8973, 3940, 3974, 4006, 237
8974, 203, 3703, 3976, 4376
8975, 509, 3660, 3977, 4413
8976, 3920, 3978, 3984, 3928
8977, 4539, 4014, 4430, 213
8978, 4014, 4017, 3980, 4430
8979, 4010, 3981, 4581, 3990
8980, 4013, 3985, 4411, 3926
8981, 487, 3993, 4477, 3985
8982, 488, 4013, 3986, 3964
8983, 4008, 3987, 258, 3862
8984, 3952, 3988, 3891, 4545
8985, 4593, 4010, 3990, 4613
8986, 4539, 3958, 3990, 4014
8987, 3930, 234, 3992, 4518
8988, 4512, 4511, 4011, 4021
8989, 3877, 4005, 4023, 239
8990, 239, 3961, 3994, 3877
8991, 3995, 238, 4006, 3974
8992, 4499, 3998, 237, 4500
8993, 3859, 4453, 4000, 4513
8994, 4459, 4016, 3954, 3991
8995, 3946, 488, 3964, 3870
8996, 487, 4419, 3955, 4011
8997, 4021, 3968, 3996, 486
8998, 4017, 4027, 3998, 3980
8999, 3987, 4008, 4012, 236
9000, 4581, 4017, 4014, 3990
9001, 4556, 506, 3818, 3891
9002, 4027, 236, 4012, 4020
9003, 4026, 4018, 482, 3978
9004, 4019, 213, 4430, 3950
9005, 4005, 4520, 4519, 4023
9006, 3985, 4024, 4419, 487
9007, 4027, 4017, 4581, 236
9008, 4030, 4031, 86, 730
9009, 4043, 776, 781, 830
9010, 4074, 759, 786, 837
9011, 4055, 822, 819, 817
9012, 914, 4050, 4063, 4064
9013, 2168, 2410, 4067, 4068
9014, 4083, 4075, 949, 4064
9015, 855, 4078, 891, 895
9016, 4045, 835, 4080, 870
9017, 4080, 876, 903, 4115
9018, 4061, 975, 4082, 4062
9019, 947, 4084, 4082, 975
9020, 4090, 2282, 595, 2541
9021, 4105, 393, 2505, 4112
9022, 4102, 398, 4135, 2857
9023, 291, 2535, 4103, 4104
9024, 2667, 2533, 4105, 4112
9025, 4106, 4073, 1019, 1051
9026, 4107, 4079, 197, 4118
9027, 2910, 4092, 4108, 4123
9028, 898, 4110, 887, 4138
9029, 197, 4088, 4117, 4118
9030, 4107, 4118, 4188, 4159
9031, 4129, 1133, 336, 4098
9032, 4134, 2724, 4194, 2895
9033, 952, 4137, 4140, 4196
9034, 3032, 2915, 4141, 4142
9035, 575, 4120, 4144, 4145
9036, 2714, 2639, 4145, 4199
9037, 3028, 2759, 4146, 4147
9038, 3697, 3028, 4147, 4148
9039, 4148, 4147, 4198, 3583
9040, 4149, 2331, 2492, 566
9041, 4151, 2625, 140, 2919
9042, 952, 4196, 4158, 972
9043, 4160, 555, 4186, 3207
9044, 4164, 1078, 1094, 1142
9045, 1050, 4167, 1035, 4216
9046, 1084, 4131, 4169, 4170
9047, 305, 3158, 4171, 4236
9048, 553, 3023, 4173, 4232
9049, 2703, 4127, 4174, 4175
9050, 4175, 4174, 4233, 4234
9051, 4179, 326, 4242, 2693
9052, 2412, 4132, 4179, 4180
9053, 555, 3071, 4185, 4186
9054, 2965, 4117, 4187, 4189
9055, 2965, 4189, 196, 4214
9056, 4227, 3117, 2989, 4162
9057, 4307, 4199, 2887, 552
9058, 4202, 4201, 3151, 4237
9059, 2851, 3020, 2814, 2600
9060, 4210, 4323, 4243, 2767
9061, 162, 3213, 4212, 4213
9062, 3214, 3063, 4214, 196
9063, 4215, 3079, 4332, 3202
9064, 4217, 3347, 4309, 3498
9065, 3200, 4219, 3052, 4303
9066, 148, 2847, 4220, 4221
9067, 4224, 2502, 2414, 2606
9068, 159, 3117, 4227, 4292
9069, 4274, 4234, 4233, 3018
9070, 4175, 4234, 4235, 2887
9071, 4271, 4237, 3047, 3004
9072, 4242, 4243, 4323, 304
9073, 2149, 2139, 4246, 4300
9074, 2952, 4247, 2845, 2954
9075, 2837, 4248, 427, 4305
9076, 2884, 4250, 2865, 4273
9077, 3102, 4256, 2894, 4295
9078, 4259, 1424, 381, 4258
9079, 4263, 3182, 3366, 4238
9080, 4323, 4210, 2995, 3072
9081, 2960, 543, 3211, 2933
9082, 4265, 3270, 3261, 163
9083, 3018, 4282, 4333, 4274
9084, 1100, 4216, 4279, 4280
9085, 4283, 3137, 553, 4284
9086, 4286, 421, 3271, 3529
9087, 2730, 4221, 4290, 4291
9088, 4293, 3026, 158, 3324
9089, 4394, 4295, 438, 3287
9090, 3808, 4302, 3666, 4355
9091, 3347, 4207, 4308, 4309
9092, 4312, 1200, 1223, 1242
9093, 3517, 3719, 4316, 4317
9094, 180, 4354, 3779, 4316
9095, 3626, 3517, 4317, 3805
9096, 4320, 1121, 1161, 1184
9097, 4321, 3556, 3362, 4277
9098, 4327, 2716, 149, 2993
9099, 4244, 3191, 3298, 3055
9100, 4329, 4232, 3341, 3316
9101, 3004, 2819, 2691, 293
9102, 3234, 4274, 4333, 4334
9103, 4335, 4282, 4283, 4284
9104, 4269, 4345, 4346, 3595
9105, 4353, 4345, 3513, 4299
9106, 3616, 3595, 4346, 4347
9107, 4348, 405, 4424, 2451
9108, 1677, 4349, 1890, 4423
9109, 3778, 4350, 3578, 4351
9110, 4352, 3536, 4383, 3624
9111, 1334, 4359, 1317, 4409
9112, 4415, 4361, 3458, 462
9113, 3342, 4304, 4365, 4370
9114, 3498, 4309, 4366, 4367
9115, 4370, 4365, 4460, 3594
9116, 4375, 2842, 2805, 2733
9117, 1242, 1223, 4380, 4381
9118, 4382, 3722, 3731, 209
9119, 4384, 3620, 4414, 3648
9120, 3715, 4405, 4393, 3781
9121, 4385, 3069, 171, 3317
9122, 1249, 4336, 4387, 4388
9123, 4390, 3510, 192, 3581
9124, 3633, 528, 3706, 4392
9125, 3152, 4394, 3287, 439
9126, 1356, 1330, 4402, 4403
9127, 4404, 3871, 489, 3906
9128, 4410, 3923, 4476, 3986
9129, 3977, 3840, 4411, 4413
9130, 461, 4417, 3369, 3804
9131, 4420, 3681, 4478, 521
9132, 3749, 4369, 4420, 4421
9133, 4514, 3738, 4425, 4515
9134, 4432, 389, 1360, 4378
9135, 4467, 4435, 1262, 1308
9136, 4406, 4435, 4467, 1290
9137, 1288, 4381, 4438, 4439
9138, 1348, 4440, 1307, 1324
9139, 4449, 1409, 4443, 4403
9140, 1398, 1376, 4447, 4448
9141, 1268, 4451, 4452, 1293
9142, 1335, 4521, 1351, 4454
9143, 4455, 3944, 4477, 3993
9144, 4459, 4458, 239, 4023
9145, 4465, 4464, 4503, 3760
9146, 4471, 2580, 2698, 2972
9147, 4478, 3610, 4547, 3678
9148, 4479, 521, 4548, 3820
9149, 2153, 4433, 4486, 4487
9150, 2542, 4487, 2428, 4543
9151, 4494, 465, 4504, 4505
9152, 442, 4405, 4494, 4505
9153, 4542, 4495, 3807, 3649
9154, 3912, 4495, 4542, 230
9155, 1344, 1340, 1365, 4502
9156, 4470, 4502, 4530, 1370
9157, 4504, 3756, 3607, 4505
9158, 4509, 1406, 4562, 359
9159, 4510, 4509, 359, 4564
9160, 4512, 486, 3970, 3997
9161, 4515, 4425, 207, 4426
9162, 4473, 3167, 3083, 3212
9163, 3762, 216, 3915, 3902
9164, 4016, 4519, 4520, 238
9165, 3585, 3768, 4527, 4528
9166, 484, 3851, 4531, 4533
9167, 4533, 4531, 4574, 3828
9168, 4602, 4535, 3704, 4546
9169, 4537, 1402, 1425, 1467
9170, 4563, 4538, 1530, 1546
9171, 4582, 3765, 212, 4561
9172, 460, 4540, 4541, 3631
9173, 2701, 4543, 276, 2708
9174, 238, 4520, 4551, 4006
9175, 3935, 4003, 4556, 4595
9176, 1428, 4510, 4564, 4584
9177, 4566, 3107, 295, 3206
9178, 3212, 4566, 3206, 4532
9179, 4524, 4569, 4570, 3405
9180, 4573, 228, 3540, 4610
9181, 4528, 4585, 4587, 3377
9182, 522, 4516, 3547, 4588
9183, 3771, 501, 4617, 4590
9184, 4593, 3927, 3981, 4010
9185, 4596, 1559, 4627, 1536
9186, 4599, 3686, 3800, 3869
9187, 4608, 1470, 1450, 1431
9188, 1449, 4584, 4608, 1431
9189, 4609, 3866, 4636, 501
9190, 1433, 1422, 4611, 4612
9191, 4616, 2291, 407, 4597
9192, 4620, 3382, 4638, 251
9193, 3593, 4559, 4621, 4622
9194, 1492, 4600, 4645, 4624
9195, 4626, 1727, 4668, 1750
9196, 2795, 4637, 432, 4666
9197, 4650, 4638, 3245, 3009
9198, 409, 2363, 4643, 4644
9199, 3033, 2900, 253, 3122
9200, 4674, 4649, 1613, 1647
9201, 4658, 4657, 4685, 478
9202, 3562, 4618, 4657, 4658
9203, 4659, 1704, 1724, 1743
9204, 4671, 2671, 2800, 2946
9205, 4620, 251, 4576, 3399
9206, 479, 3576, 4689, 3677
9207, 4684, 1752, 1734, 1736
9208, 4688, 3181, 455, 3108
9209, 1645, 1666, 4691, 1606
9210, 1690, 1626, 4699, 4700
9211, 4707, 1627, 4709, 1648
9212, 1695, 1632, 4711, 4712
9213, 1754, 1712, 1742, 1735
9214, 4714, 1813, 1801, 1826
*ELEMENT, TYPE=U4, ELSET=MECH_TRIS
9215, 3796, 3907, 3727
9216, 3956, 3415, 3384
9217, 2321, 1888, 2160
9218, 3714, 3516, 233
9219, 2330, 2179, 2056
9220, 340, 2246, 1856
9221, 4248, 2536, 2664
9222, 3682, 3671, 532
9223, 2973, 2934, 2820
9224, 4456, 3942, 3845
9225, 4330, 3228, 2951
9226, 828, 783, 780
9227, 869, 783, 828
9228, 4055, 817, 855
9229, 921, 916, 890
9230, 860, 924, 861
9231, 4065, 821, 889
9232, 891, 4078, 853
9233, 896, 893, 867
9234, 905, 929, 903
9235, 4138, 944, 913
9236, 975, 4061, 945
9237, 995, 989, 1008
9238, 1009, 991, 972
9239, 1012, 996, 968
9240, 4165, 4197, 1060
9241, 323, 4264, 1071
9242, 4150, 1088, 1069
9243, 1165, 1142, 1126
9244, 1151, 1103, 1131
9245, 4322, 4320, 1184
9246, 1189, 1187, 1147
9247, 1264, 1213, 1227
9248, 1358, 1316, 381
9249, 1360, 1245, 1272
9250, 358, 4387, 1276
9251, 4467, 1308, 1329
9252, 4437, 1298, 1297
9253, 1300, 1320, 4469
9254, 4530, 1386, 1372
9255, 1377, 1331, 1352
9256, 1403, 1313, 1361
9257, 1381, 4409, 1355
9258, 4580, 1384, 1393
9259, 1432, 1383, 1408
9260, 1472, 1470, 1469
9261, 1472, 1450, 1470
9262, 1410, 1389, 1427
9263, 4641, 1536, 4627
9264, 360, 1625, 1602
9265, 1662, 1661, 1638
9266, 1742, 1694, 1711
9267, 1759, 1719, 364
9268, 1753, 4700, 4703
9269, 1778, 1756, 1737
9270, 1792, 1777, 1758
9271, 1854, 1842, 1841
9272, 1882, 1889, 1708
9273, 2359, 411, 2330
9274, 2374, 2144, 2251
9275, 318, 2438, 2400
9276, 4311, 2684, 2536
9277, 2537, 128, 2470
9278, 277, 2428, 2545
9279, 2695, 300, 2562
9280, 2596, 177, 2513
9281, 2616, 288, 2456
9282, 2617, 559, 2852
9283, 4681, 2697, 431
9284, 4250, 2884, 2700
9285, 2775, 3119, 223
9286, 4192, 2845, 4247
9287, 2760, 2869, 399
9288, 4162, 2989, 136
9289, 3066, 2838, 539
9290, 2850, 311, 2784
9291, 2819, 3004, 3047
9292, 2931, 3091, 2816
9293, 4287, 2993, 149
9294, 2985, 2828, 517
9295, 3092, 3194, 2996
9296, 4161, 3070, 2919
9297, 3098, 3479, 2925
9298, 3152, 3142, 3102
9299, 3145, 265, 3075
9300, 3319, 3184, 3254
9301, 4358, 3205, 3345
9302, 3425, 3222, 3355
9303, 3224, 4225, 3050
9304, 4148, 309, 3697
9305, 3395, 3389, 3361
9306, 3285, 3154, 3256
9307, 3804, 3369, 3287
9308, 3406, 3199, 3364
9309, 4690, 3462, 478
9310, 3325, 4650, 252
9311, 3612, 3379, 264
9312, 3842, 3527, 3397
9313, 4356, 3412, 545
9314, 3204, 3303, 201
9315, 3423, 3180, 3409
9316, 3468, 3424, 3211
9317, 3472, 3432, 3239
9318, 3914, 3446, 3857
9319, 4622, 3392, 3593
9320, 3730, 3535, 190
9321, 3541, 474, 3474
9322, 4028, 3852, 3849
9323, 4494, 4405, 3715
9324, 4504, 3816, 3756
9325, 3902, 3702, 3762
9326, 4689, 3576, 4675
9327, 180, 4351, 4354
9328, 3712, 3510, 3648
9329, 3976, 3703, 3748
9330, 485, 4015, 3880
9331, 3605, 3977, 3660
9332, 3911, 3823, 507
9333, 4572, 4024, 488
9334, 4653, 4675, 3887
9335, 3890, 210, 4422
9336, 3935, 483, 3928
9337, 4450, 3940, 3951
9338, 4416, 3996, 3838
9339, 4500, 237, 4006
9340, 4572, 488, 3946
9341, 4021, 486, 4512
9342, 4009, 3886, 3930
9343, 4581, 3981, 236
9344, 4029, 506, 4028
9345, 4107, 4159, 4089
9346, 4106, 4150, 4099
9347, 4136, 918, 4114
9348, 4137, 948, 4136
9349, 4196, 4140, 923
9350, 1120, 1057, 4139
9351, 4224, 4203, 2502
9352, 972, 4158, 992
9353, 4235, 552, 2887
9354, 3513, 3463, 519
9355, 4329, 4334, 4335
9356, 4304, 3342, 468
9357, 4329, 4335, 4284
9358, 4337, 167, 3127
9359, 3578, 4350, 179
9360, 4396, 3913, 3939
9361, 4412, 3833, 261
9362, 4440, 4439, 1307
9363, 3809, 3623, 3622
9364, 4490, 3795, 3858
9365, 3340, 278, 2789
9366, 4577, 4426, 3767
9367, 4523, 3658, 3645
9368, 453, 3140, 3136
9369, 4607, 2931, 4567
9370, 1449, 1428, 4584
9371, 4564, 4608, 4584
9372, 4613, 3983, 4593
9373, 1508, 4537, 1467
9374, 4635, 503, 3699
9375, 4643, 2157, 1750
9376, 3122, 253, 3157
9377, 3978, 3920, 4026
9378, 4650, 3009, 3161
9379, 4651, 3503, 479
9380, 4661, 1855, 1857
9381, 4673, 3743, 3852
9382, 4672, 4677, 505
9383, 2800, 2671, 4662
9384, 1751, 1723, 4715
*ELEMENT, TYPE=CPE4, ELSET=UMAT_QUADS
9385, 630, 2012, 745, 25
9386, 745, 2012, 2128, 98
9387, 99, 746, 2127, 2124
9388, 2102, 2097, 100, 747
9389, 101, 748, 2074, 2076
9390, 2076, 2099, 749, 101
9391, 2121, 2125, 750, 102
9392, 2126, 2129, 751, 103
9393, 2053, 1985, 105, 753
9394, 754, 105, 1985, 1945
9395, 1957, 1998, 755, 106
9396, 2077, 2103, 756, 107
9397, 4759, 757, 4034, 4758
9398, 757, 108, 2130, 4034
9399, 629, 1946, 1987, 23
9400, 1946, 629, 22, 1935
9401, 2240, 2390, 152, 4042
9402, 152, 2551, 2270, 4042
9403, 2263, 2355, 2558, 198
9404, 2333, 2665, 2493, 4070
9405, 2574, 2325, 2656, 243
9406, 2678, 2574, 243, 2862
9407, 289, 2456, 2440, 2416
9408, 2602, 2454, 2316, 2440
9409, 334, 2208, 2370, 2483
9410, 2276, 356, 2237, 2382
9411, 4756, 2066, 2064, 4755
9412, 2064, 2066, 2276, 355
9413, 628, 1925, 1935, 22
9414, 2185, 2345, 1921, 1927
9415, 3002, 2957, 2706, 2911
9416, 2999, 2967, 2741, 4205
9417, 2809, 3063, 2963, 220
9418, 243, 2978, 2968, 2862
9419, 2862, 2968, 3075, 265
9420, 3013, 2892, 4190, 2776
9421, 3038, 2810, 288, 2975
9422, 354, 2265, 2360, 2490
9423, 4754, 2062, 2051, 4753
9424, 2062, 4754, 4755, 2064
9425, 1921, 21, 627, 1927
9426, 2561, 149, 2716, 4143
9427, 3098, 2925, 2974, 3554
9428, 3486, 3333, 3276, 3501
9429, 3333, 3449, 3214, 196
9430, 3357, 3201, 3460, 241
9431, 3313, 3487, 4310, 3555
9432, 3293, 3279, 4338, 3401
9433, 4260, 4263, 4238, 2941
9434, 332, 2826, 2924, 3035
9435, 354, 2490, 2336, 2260
9436, 4752, 2017, 2006, 4751
9437, 2006, 353, 2216, 2005
9438, 20, 1993, 1942, 626
9439, 1942, 1993, 2424, 2190
9440, 2356, 2267, 125, 2506
9441, 4291, 2993, 4287, 2730
9442, 3713, 3546, 3317, 3452
9443, 3782, 3627, 3733, 3618
9444, 3688, 3785, 3577, 218
9445, 3865, 263, 4371, 3792
9446, 3533, 3388, 3646, 309
9447, 331, 2918, 2773, 2622
9448, 353, 2463, 2298, 2216
9449, 740, 2009, 2004, 93
9450, 4750, 2005, 2010, 4749
9451, 19, 2034, 2019, 625
9452, 2034, 2038, 2277, 125
9453, 2381, 2277, 124, 2526
9454, 2935, 3064, 2704, 147
9455, 3505, 3452, 3338, 3175
9456, 3606, 3762, 3702, 194
9457, 3821, 3883, 261, 3676
9458, 4276, 3680, 3613, 3436
9459, 3352, 3227, 308, 3448
9460, 2304, 351, 2228, 3067
9461, 4748, 2022, 2054, 4747
9462, 2022, 352, 3067, 2054
9463, 623, 2037, 2045, 18
9464, 18, 2045, 2038, 624
9465, 2397, 2225, 123, 2532
9466, 2935, 4245, 3084, 170
9467, 169, 3495, 3175, 3084
9468, 3712, 216, 3667, 4474
9469, 4016, 4459, 4023, 4519
9470, 3954, 4016, 3924, 4412
9471, 3584, 3640, 283, 3326
9472, 3320, 3442, 307, 3227
9473, 329, 2922, 3116, 2856
9474, 350, 2259, 2339, 2507
9475, 4746, 2058, 2067, 4745
9476, 4745, 2067, 2060, 4744
9477, 622, 2008, 2025, 17
9478, 2025, 2008, 2219, 123
9479, 2398, 2219, 122, 2503
9480, 3055, 2727, 3128, 4244
9481, 3747, 3617, 3419, 3370
9482, 3893, 3858, 3795, 3753
9483, 3945, 4500, 4006, 4551
9484, 3974, 3830, 260, 3995
9485, 3666, 4302, 3574, 4340
9486, 3478, 3266, 3326, 283
9487, 328, 2909, 3008, 2737
9488, 349, 2273, 2364, 2489
9489, 4743, 2048, 2000, 4742
9490, 2000, 2048, 2273, 349
9491, 621, 1960, 1986, 16
9492, 1960, 621, 15, 1951
9493, 2504, 2205, 2354, 121
9494, 3359, 3480, 3294, 3218
9495, 4027, 4020, 237, 3998
9496, 4008, 3862, 4427, 3951
9497, 3604, 282, 3674, 3769
9498, 4236, 3301, 4281, 305
9499, 3082, 2995, 4210, 327
9500, 348, 2285, 2393, 2508
9501, 4741, 1978, 1937, 4740
9502, 1937, 1978, 2285, 348
9503, 1951, 15, 620, 1963
9504, 1951, 1963, 2197, 2354
9505, 2761, 2319, 2461, 143
9506, 166, 3127, 2982, 2890
9507, 3180, 3127, 166, 3292
9508, 3717, 3548, 3765, 4475
9509, 3983, 4613, 235, 3969
9510, 3958, 235, 4613, 3990
9511, 3630, 3746, 3526, 4436
9512, 4281, 304, 4323, 3072
9513, 4179, 2693, 2534, 4180
9514, 348, 2508, 2343, 2431
9515, 4739, 1916, 1885, 4738
9516, 1885, 1916, 2431, 2156
9517, 14, 1992, 1963, 620
9518, 1992, 2015, 2214, 2418
9519, 2749, 119, 2966, 2747
9520, 2890, 3012, 3124, 166
9521, 3568, 188, 3872, 3813
9522, 4518, 3992, 3948, 3881
9523, 3841, 257, 3829, 4578
9524, 3163, 3407, 279, 3059
9525, 2956, 2843, 303, 3060
9526, 2433, 325, 2613, 2447
9527, 346, 1158, 1020, 1003
9528, 731, 805, 808, 732
9529, 4735, 809, 804, 4734
9530, 13, 2027, 2021, 618
9531, 2021, 2027, 2966, 119
9532, 2308, 2453, 2607, 2747
9533, 2906, 164, 3159, 3017
9534, 3522, 3692, 4007, 3465
9535, 3937, 3763, 4422, 210
9536, 3714, 233, 3786, 3794
9537, 3869, 3800, 4498, 256
9538, 2674, 301, 2789, 278
9539, 1048, 4261, 1017, 1003
9540, 721, 767, 765, 722
9541, 770, 4722, 4723, 768
9542, 616, 2041, 2046, 12
9543, 12, 2046, 2042, 617
9544, 2625, 2341, 2478, 140
9545, 2763, 3070, 2988, 141
9546, 3396, 4265, 163, 4211
9547, 3890, 209, 3825, 210
9548, 3914, 3857, 255, 3030
9549, 4544, 2674, 278, 4567
9550, 323, 2144, 1090, 4264
9551, 345, 1047, 1034, 1014
9552, 858, 827, 97, 4032
9553, 1065, 1113, 1156, 982
9554, 2244, 2329, 2414, 392
9555, 2894, 415, 2884, 4273
9556, 3458, 4361, 4294, 3500
9557, 3876, 3968, 3955, 4362
9558, 510, 3926, 4411, 3840
9559, 3597, 3772, 3682, 532
9560, 3328, 3252, 3450, 533
9561, 2840, 3113, 2953, 580
9562, 2366, 2268, 602, 2484
9563, 2089, 2090, 2274, 602
9564, 677, 1989, 2082, 50
9565, 716, 1989, 677, 73
9566, 715, 1947, 1956, 84
9567, 2745, 4141, 2915, 559
9568, 3431, 3596, 3434, 3319
9569, 512, 3853, 3832, 3675
9570, 465, 3870, 3816, 4504
9571, 3224, 3336, 3344, 4225
9572, 3111, 2849, 416, 3308
9573, 4203, 4105, 2533, 2502
9574, 848, 805, 4031, 843
9575, 730, 729, 797, 4030
9576, 775, 761, 814, 865
9577, 615, 2031, 2039, 11
9578, 117, 2223, 2031, 2024
9579, 2373, 2223, 117, 2518
9580, 3021, 2897, 162, 3232
9581, 3321, 3484, 3337, 3232
9582, 185, 3553, 3484, 3321
9583, 232, 3651, 3774, 3614
9584, 3360, 3197, 3174, 3274
9585, 2816, 3091, 277, 2545
9586, 4486, 2545, 2428, 4487
9587, 321, 1405, 1896, 2171
9588, 344, 1151, 1176, 1199
9589, 1244, 1221, 1219, 1292
9590, 2780, 2655, 4483, 434
9591, 3171, 3088, 2984, 3085
9592, 3469, 3385, 3461, 4604
9593, 4633, 3603, 4604, 480
9594, 525, 3672, 3582, 3447
9595, 548, 3343, 3248, 3046
9596, 571, 2944, 2732, 2650
9597, 591, 2257, 2337, 2501
9598, 2083, 2072, 63, 692
9599, 2094, 2083, 692, 62
9600, 2032, 2080, 691, 61
9601, 1953, 2189, 2362, 2032
9602, 2643, 2577, 572, 2718
9603, 3068, 2949, 549, 3244
9604, 3350, 3496, 3343, 3244
9605, 3563, 4602, 4546, 526
9606, 3665, 3759, 3662, 481
9607, 3264, 4524, 3405, 3611
9608, 3007, 3185, 4457, 3354
9609, 2680, 2567, 412, 2792
9610, 1084, 1107, 1063, 4131
9611, 827, 858, 4039, 888
9612, 1095, 1116, 1074, 1056
9613, 614, 2020, 2024, 10
9614, 2220, 2020, 2003, 116
9615, 2220, 116, 2528, 2391
9616, 3086, 3188, 4212, 3213
9617, 162, 4213, 3321, 3232
9618, 3644, 3488, 184, 3655
9619, 231, 3664, 3580, 3457
9620, 3306, 3229, 254, 4550
9621, 2708, 276, 2900, 3033
9622, 298, 2435, 2521, 2702
9623, 1322, 1301, 1281, 1302
9624, 1442, 1357, 1380, 1419
9625, 2056, 4431, 2150, 2330
9626, 4483, 2885, 4558, 2846
9627, 4605, 2846, 4558, 433
9628, 3481, 3503, 4651, 480
9629, 3788, 3699, 3569, 3677
9630, 3844, 4601, 3905, 3962
9631, 3523, 3403, 3558, 3621
9632, 2765, 3150, 3281, 2879
9633, 590, 2271, 2350, 2477
9634, 1997, 1943, 64, 693
9635, 2271, 1997, 2072, 591
9636, 613, 1991, 2003, 9
9637, 2003, 1991, 2211, 116
9638, 2520, 2211, 115, 2476
9639, 3024, 161, 2905, 138
9640, 3433, 3489, 3318, 3230
9641, 3489, 183, 3654, 3560
9642, 3912, 230, 3580, 3767
9643, 3456, 3507, 253, 4619
9644, 3122, 3157, 3043, 275
9645, 2888, 2800, 4662, 2310
9646, 2252, 1886, 2181, 2310
9647, 342, 1490, 1505, 1535
9648, 1537, 1516, 1560, 1561
9649, 1655, 1575, 1597, 4664
9650, 4643, 1750, 2154, 4644
9651, 432, 4637, 2458, 2608
9652, 2692, 4637, 2795, 433
9653, 3365, 3462, 4690, 3503
9654, 3819, 3576, 4685, 4657
9655, 3802, 4523, 523, 3844
9656, 3395, 3361, 4446, 546
9657, 2765, 3106, 569, 2611
9658, 589, 2284, 2389, 2479
9659, 1932, 1928, 65, 694
9660, 2284, 1932, 1943, 590
9661, 8, 1994, 1991, 613
9662, 1994, 2013, 2279, 115
9663, 2375, 2279, 114, 2485
9664, 2989, 3117, 2880, 2771
9665, 183, 3353, 3451, 3600
9666, 3695, 4400, 3848, 3764
9667, 3939, 3900, 3843, 4004
9668, 3518, 3559, 252, 3572
9669, 274, 3161, 3009, 2946
9670, 2566, 297, 2830, 296
9671, 2247, 319, 2371, 2405
9672, 1663, 1687, 1708, 1730
9673, 1599, 1620, 1638, 1619
9674, 1739, 1766, 1726, 1675
9675, 2152, 1769, 1883, 385
9676, 4667, 2597, 2444, 2303
9677, 2881, 4682, 3108, 455
9678, 3187, 3528, 3726, 3438
9679, 4591, 3716, 500, 3820
9680, 3678, 4547, 3771, 4590
9681, 3286, 544, 3228, 3426
9682, 3041, 568, 4296, 545
9683, 2479, 2549, 2188, 589
9684, 1928, 1934, 695, 65
9685, 1928, 589, 2188, 1934
9686, 7, 2033, 2013, 612
9687, 2033, 2040, 2266, 114
9688, 2348, 2266, 113, 2498
9689, 2901, 3249, 4292, 4227
9690, 4363, 3502, 4339, 3331
9691, 181, 3564, 3502, 4363
9692, 3725, 3776, 3895, 227
9693, 4576, 251, 4610, 3540
9694, 3245, 3183, 3110, 273
9695, 296, 2872, 2774, 2694
9696, 2441, 2687, 2438, 318
9697, 2151, 1865, 1889, 4656
9698, 1762, 1722, 1745, 1785
9699, 1860, 1869, 1876, 1872
9700, 1879, 384, 2122, 2250
9701, 2666, 2560, 2291, 4616
9702, 2868, 4663, 2882, 3010
9703, 3593, 3392, 3453, 4585
9704, 3847, 3721, 3793, 4472
9705, 3179, 3192, 3373, 4369
9706, 567, 2951, 3090, 2811
9707, 2543, 2324, 588, 2582
9708, 1944, 1996, 696, 66
9709, 1944, 2347, 2207, 1996
9710, 610, 2029, 2044, 6
9711, 2029, 2016, 112, 2222
9712, 2572, 3295, 2652, 2332
9713, 158, 2936, 3042, 4228
9714, 3355, 3719, 3517, 3425
9715, 3882, 3822, 4489, 227
9716, 3855, 3670, 4489, 3822
9717, 272, 3464, 3530, 3390
9718, 2436, 2584, 2698, 2580
9719, 1591, 4670, 4678, 1631
9720, 1748, 1715, 1701, 1763
9721, 1858, 1899, 2242, 2147
9722, 429, 2783, 2527, 2689
9723, 2877, 2783, 429, 2948
9724, 3377, 3136, 3454, 4579
9725, 3834, 3831, 3931, 499
9726, 3642, 3752, 3615, 3537
9727, 543, 3291, 3468, 3211
9728, 2960, 2752, 566, 4172
9729, 587, 2492, 2331, 2234
9730, 2073, 2091, 697, 67
9731, 2073, 587, 2234, 2091
9732, 609, 1999, 2016, 5
9733, 4052, 2801, 1999, 1990
9734, 3467, 2572, 2673, 3056
9735, 3394, 3173, 3534, 3273
9736, 3441, 3719, 3355, 4178
9737, 3703, 203, 3779, 4354
9738, 3521, 225, 4255, 3632
9739, 3684, 4306, 3811, 226
9740, 3623, 271, 3598, 3622
9741, 3104, 3198, 2876, 294
9742, 315, 2686, 2651, 2547
9743, 2135, 2162, 1686, 339
9744, 1446, 1467, 1425, 1399
9745, 382, 1596, 1533, 1486
9746, 2442, 2411, 2166, 1890
9747, 428, 2689, 2684, 4311
9748, 3203, 2948, 3065, 451
9749, 3278, 3203, 451, 3387
9750, 3641, 3720, 3810, 3520
9751, 3751, 3624, 4383, 3615
9752, 542, 3315, 3243, 4241
9753, 2933, 4241, 4182, 565
9754, 2987, 2300, 2785, 585
9755, 69, 698, 2093, 2096
9756, 698, 68, 2095, 2093
9757, 4, 1995, 1990, 608
9758, 1995, 111, 4052, 1990
9759, 2469, 2619, 2313, 2570
9760, 3011, 2883, 4270, 3154
9761, 3542, 3444, 3371, 4249
9762, 3016, 3235, 3304, 178
9763, 3363, 225, 3521, 3420
9764, 3422, 3592, 3322, 3251
9765, 3711, 3310, 3367, 3466
9766, 2819, 2817, 292, 2691
9767, 2691, 2529, 2547, 293
9768, 1895, 2134, 2158, 2175
9769, 4312, 1266, 4359, 1294
9770, 1486, 1447, 1468, 382
9771, 1468, 1424, 4259, 2139
9772, 450, 3118, 2952, 2954
9773, 3186, 3277, 3387, 451
9774, 3413, 3638, 3364, 4176
9775, 3499, 3334, 541, 3694
9776, 3165, 3049, 3608, 3265
9777, 2295, 2764, 2904, 2615
9778, 2075, 2014, 70, 700
9779, 3, 2026, 2011, 607
9780, 2011, 2026, 2419, 2213
9781, 2351, 2264, 110, 2510
9782, 2867, 2889, 2728, 131
9783, 3101, 2934, 2973, 3132
9784, 3016, 178, 2895, 4194
9785, 201, 2938, 3057, 3204
9786, 3054, 2990, 247, 3251
9787, 2908, 3130, 3109, 2977
9788, 2690, 292, 2817, 2929
9789, 2288, 314, 2404, 2531
9790, 1359, 1296, 1339, 1363
9791, 1051, 1019, 1036, 4195
9792, 380, 1220, 1173, 1149
9793, 2452, 1982, 2138, 2164
9794, 2630, 2719, 2552, 2812
9795, 2719, 4157, 2845, 4192
9796, 2748, 4168, 3096, 3240
9797, 2740, 3123, 3040, 2930
9798, 3275, 3153, 2985, 518
9799, 3058, 2964, 2838, 540
9800, 2947, 2794, 3020, 2903
9801, 2439, 2314, 2210, 2415
9802, 1962, 1939, 71, 701
9803, 2210, 1962, 2014, 2415
9804, 605, 2035, 2043, 2
9805, 2, 2043, 2036, 606
9806, 2685, 2510, 2379, 2317
9807, 2564, 154, 2766, 2681
9808, 2550, 2281, 176, 2513
9809, 2402, 2287, 199, 2511
9810, 2380, 2204, 222, 2495
9811, 2637, 2571, 246, 2990
9812, 2669, 2841, 2569, 2311
9813, 2675, 2369, 2500, 291
9814, 2535, 2407, 2395, 4072
9815, 2394, 2100, 1983, 313
9816, 932, 957, 906, 904
9817, 1041, 1064, 1055, 1028
9818, 2335, 2409, 2164, 1887
9819, 2530, 2309, 2630, 2812
9820, 2353, 2272, 448, 2497
9821, 2387, 2200, 471, 2525
9822, 2403, 2193, 494, 2481
9823, 517, 2828, 2573, 2559
9824, 2292, 2668, 2559, 516
9825, 2803, 2628, 561, 2471
9826, 2191, 2423, 2539, 2368
9827, 1939, 1941, 702, 71
9828, 604, 4035, 2030, 1
9829, 1915, 1908, 2172, 109
9830, 1903, 2170, 2169, 1904
9831, 2170, 1903, 1905, 2173
9832, 2281, 1930, 1950, 176
9833, 2287, 1970, 1981, 199
9834, 2204, 1980, 1975, 222
9835, 1933, 1920, 4041, 245
9836, 1914, 2429, 2180, 1918
9837, 2429, 1914, 1919, 2280
9838, 2283, 1949, 1973, 312
9839, 1157, 1906, 1902, 961
9840, 810, 961, 663, 662
9841, 833, 834, 791, 788
9842, 793, 796, 659, 658
9843, 758, 648, 647, 759
9844, 841, 802, 807, 846
9845, 909, 911, 1893, 2131
9846, 2201, 1966, 1967, 425
9847, 2200, 1964, 1948, 471
9848, 1948, 1936, 2193, 471
9849, 2344, 1922, 1924, 2183
9850, 1929, 1940, 2426, 2186
9851, 2203, 1974, 1971, 583
9852, 631, 4033, 1971, 26
9853, 4033, 631, 49, 703
9854, 1912, 1953, 690, 689
9855, 1907, 2174, 2178, 1912
9856, 2813, 573, 2821, 2866
9857, 3312, 3215, 3097, 3168
9858, 3519, 3512, 3629, 3849
9859, 3920, 3928, 3898, 3657
9860, 3491, 3557, 459, 4497
9861, 3323, 4429, 3143, 459
9862, 4257, 2609, 2696, 2548
9863, 2249, 2133, 2176, 2383
9864, 1112, 1179, 1091, 367
9865, 1909, 1907, 60, 688
9866, 2386, 2174, 2282, 4090
9867, 2541, 574, 2659, 4090
9868, 2927, 3100, 3290, 550
9869, 3482, 3168, 3290, 3417
9870, 3710, 3818, 3650, 3549
9871, 4595, 4556, 3891, 3988
9872, 3515, 3631, 3619, 3435
9873, 3332, 437, 3247, 3515
9874, 4250, 2798, 414, 2865
9875, 2244, 2142, 391, 2329
9876, 1954, 1913, 59, 687
9877, 2286, 1954, 2050, 596
9878, 2396, 2286, 596, 2523
9879, 3015, 551, 2886, 2714
9880, 3783, 3633, 4434, 3823
9881, 484, 3952, 4002, 3880
9882, 3851, 461, 3729, 4531
9883, 4273, 438, 4295, 2894
9884, 2081, 2050, 58, 686
9885, 2278, 2081, 2092, 597
9886, 2522, 2278, 597, 2512
9887, 4235, 4234, 4274, 3234
9888, 3494, 3316, 3341, 530
9889, 3570, 3708, 3789, 3707
9890, 3754, 3941, 3856, 3909
9891, 4463, 3599, 4415, 462
9892, 3369, 3458, 439, 3287
9893, 2086, 2087, 685, 56
9894, 2367, 2235, 598, 2496
9895, 3023, 553, 3137, 2893
9896, 530, 4217, 3498, 3700
9897, 4366, 4309, 4308, 3565
9898, 4455, 3993, 3997, 3837
9899, 3838, 463, 3799, 4416
9900, 56, 684, 2084, 2086
9901, 2085, 2084, 684, 55
9902, 2342, 2258, 599, 2494
9903, 3061, 554, 2942, 2721
9904, 3429, 531, 3309, 4231
9905, 3671, 3682, 510, 3840
9906, 4411, 3985, 4477, 4413
9907, 2057, 2079, 683, 54
9908, 2057, 2002, 2209, 600
9909, 2654, 2327, 2462, 579
9910, 3071, 555, 2961, 2861
9911, 532, 3335, 3432, 3597
9912, 1955, 2002, 682, 681
9913, 2421, 2198, 1955, 1959
9914, 580, 2815, 2576, 2588
9915, 3053, 2981, 557, 3252
9916, 3300, 3450, 3252, 557
9917, 1959, 1955, 681, 53
9918, 2464, 2994, 2320, 2555
9919, 3044, 4156, 3113, 2840
9920, 52, 2047, 1988, 680
9921, 2078, 679, 51, 2089
9922, 2268, 2366, 2555, 2422
9923, 1956, 1947, 2196, 603
9924, 83, 1984, 1947, 715
9925, 3383, 3378, 4251, 535
9926, 3430, 3311, 3493, 3801
9927, 3787, 3594, 4460, 4461
9928, 3209, 3508, 3609, 3327
9929, 3224, 2928, 417, 3336
9930, 2392, 2194, 370, 2505
9931, 1917, 1900, 2168, 370
9932, 369, 1021, 963, 4077
9933, 2028, 2212, 2425, 1984
9934, 82, 2098, 2028, 714
9935, 3080, 2970, 514, 3253
9936, 2863, 2971, 3074, 514
9937, 3342, 4370, 3202, 4332
9938, 3740, 3635, 3910, 3756
9939, 3233, 3455, 3967, 3351
9940, 2959, 418, 3077, 2739
9941, 2365, 2218, 371, 2491
9942, 370, 2194, 1938, 1917
9943, 734, 1900, 1917, 88
9944, 2098, 2120, 3428, 560
9945, 2114, 712, 711, 2119
9946, 2679, 2575, 492, 2863
9947, 2979, 2971, 2863, 492
9948, 3299, 3416, 3200, 4303
9949, 3529, 444, 3408, 4286
9950, 2939, 419, 3062, 2725
9951, 2644, 2338, 2488, 395
9952, 2218, 2001, 1979, 371
9953, 735, 1938, 1979, 89
9954, 2114, 3176, 537, 2104
9955, 2105, 80, 710, 2113
9956, 2575, 2326, 2658, 492
9957, 4219, 3073, 2713, 3052
9958, 3299, 4303, 3374, 444
9959, 2770, 3231, 2896, 398
9960, 2633, 2305, 2472, 396
9961, 2230, 2061, 2049, 372
9962, 736, 2001, 2049, 90
9963, 709, 2112, 2115, 79
9964, 470, 2255, 2340, 2499
9965, 2707, 3093, 2932, 446
9966, 421, 3155, 2991, 2896
9967, 2623, 2297, 2768, 3386
9968, 2023, 2055, 2998, 374
9969, 737, 2061, 2068, 91
9970, 79, 2115, 2113, 710
9971, 2106, 78, 708, 2118
9972, 447, 2261, 2358, 2509
9973, 2937, 2734, 2869, 422
9974, 2857, 2334, 2467, 4102
9975, 2004, 2009, 2215, 375
9976, 92, 2055, 2023, 739
9977, 2106, 470, 2238, 2112
9978, 2107, 77, 707, 2111
9979, 424, 2269, 2376, 2516
9980, 2361, 2227, 376, 2487
9981, 2004, 375, 2217, 2007
9982, 2009, 740, 739, 2023
9983, 2107, 447, 2255, 2118
9984, 2108, 76, 706, 2117
9985, 401, 2275, 2388, 2524
9986, 2052, 742, 94, 2018
9987, 741, 2007, 2018, 94
9988, 2261, 2111, 2108, 424
9989, 2110, 705, 74, 2116
9990, 2069, 2065, 2231, 378
9991, 742, 2052, 2063, 95
9992, 2109, 2110, 2275, 401
9993, 704, 2071, 2116, 74
9994, 743, 2065, 2069, 96
9995, 744, 2071, 704, 85
9996, 2237, 2103, 2077, 334
9997, 2208, 1998, 1957, 2352
9998, 2199, 1945, 1985, 2416
9999, 244, 2807, 2129, 2126
10000, 2121, 221, 2239, 2125
10001, 2076, 198, 2236, 2099
10002, 2076, 2074, 2263, 198
10003, 2102, 2124, 4042, 2270
10004, 129, 2240, 2127, 2128
10005, 1904, 1908, 675, 47
10006, 2446, 2685, 2317, 130
10007, 2570, 2419, 2264, 2351
10008, 111, 2213, 2313, 2757
10009, 2673, 2572, 112, 2801
10010, 113, 2222, 2332, 2498
10011, 114, 2266, 2348, 2485
10012, 115, 2279, 2375, 2476
10013, 2401, 116, 2211, 2520
10014, 117, 2220, 2391, 2518
10015, 2223, 2373, 2478, 118
10016, 2568, 2417, 2226, 2341
10017, 2308, 2747, 2966, 2221
10018, 2299, 120, 2418, 2214
10019, 2197, 2319, 121, 2354
10020, 2377, 122, 2205, 2504
10021, 123, 2219, 2398, 2532
10022, 124, 2225, 2397, 2526
10023, 125, 2277, 2381, 2506
10024, 2267, 2356, 2563, 2424
10025, 2185, 2294, 127, 2345
10026, 2390, 2240, 129, 2202
10027, 674, 673, 1905, 1903
10028, 2681, 2301, 153, 2564
10029, 2835, 2728, 2902, 2469
10030, 3011, 3144, 2762, 2883
10031, 3173, 3284, 134, 3467
10032, 4152, 2758, 2936, 3162
10033, 136, 2629, 2738, 4162
10034, 137, 2604, 2771, 4113
10035, 138, 2592, 2744, 3024
10036, 2726, 3022, 2827, 2594
10037, 2711, 3036, 2848, 2647
10038, 2699, 2763, 141, 2453
10039, 3216, 142, 2607, 2796
10040, 2610, 2799, 143, 2461
10041, 144, 4204, 2788, 2912
10042, 145, 2634, 2723, 2913
10043, 2727, 146, 4153, 2591
10044, 2717, 147, 4154, 2593
10045, 4220, 2847, 2662, 2704
10046, 2716, 4327, 2974, 2844
10047, 2833, 151, 4087, 4124
10048, 2378, 2551, 152, 2517
10049, 1930, 1911, 46, 672
10050, 3273, 3285, 156, 3394
10051, 4178, 3355, 3222, 157
10052, 4228, 3042, 3222, 3425
10053, 159, 4292, 3249, 3331
10054, 3117, 3241, 160, 2880
10055, 3230, 161, 3024, 3223
10056, 4211, 3232, 3337, 3396
10057, 3226, 3261, 3270, 164
10058, 3159, 3465, 3506, 4163
10059, 166, 3124, 3178, 3292
10060, 3359, 3218, 167, 4337
10061, 170, 3084, 3175, 3338
10062, 3064, 3193, 171, 2920
10063, 3718, 3210, 172, 3554
10064, 174, 2874, 2741, 2612
10065, 2355, 2263, 175, 2480
10066, 1970, 1950, 45, 671
10067, 176, 2287, 2402, 2513
10068, 3016, 4194, 3121, 3221
10069, 3235, 3348, 3485, 3304
10070, 179, 4350, 3696, 3709
10071, 181, 3588, 3626, 3652
10072, 3705, 3502, 3564, 3734
10073, 3489, 3560, 184, 3318
10074, 185, 3362, 3556, 3643
10075, 3722, 3484, 3553, 3731
10076, 3625, 4364, 4313, 3531
10077, 188, 4007, 3692, 4022
10078, 3568, 189, 3415, 3956
10079, 3548, 3717, 3587, 3409
10080, 3888, 3737, 3730, 3950
10081, 3617, 191, 3753, 3620
10082, 3505, 4395, 4474, 193
10083, 3606, 194, 3713, 193
10084, 3733, 3524, 195, 3647
10085, 2809, 4159, 4188, 3063
10086, 198, 2544, 2333, 2236
10087, 1975, 1980, 670, 43
10088, 199, 2204, 2380, 2511
10089, 2712, 3057, 2938, 4133
10090, 3204, 3363, 3420, 3303
10091, 3521, 3748, 3723, 3420
10092, 3979, 3965, 3882, 3943
10093, 228, 3776, 3725, 3540
10094, 229, 3843, 3766, 3559
10095, 3889, 3973, 4495, 3912
10096, 3814, 3664, 208, 3874
10097, 3774, 3806, 3673, 3614
10098, 3714, 3825, 3651, 3516
10099, 3786, 4553, 3886, 3794
10100, 3813, 3881, 212, 3653
10101, 4475, 213, 4019, 3717
10102, 3888, 3980, 214, 4374
10103, 4490, 3858, 4500, 3945
10104, 3812, 3877, 3994, 216
10105, 3902, 3915, 3989, 217
10106, 3627, 3688, 218, 3579
10107, 3201, 219, 3349, 3460
10108, 2751, 220, 2963, 3081
10109, 2325, 4070, 2493, 2656
10110, 1933, 1952, 669, 42
10111, 2637, 4095, 2346, 2571
10112, 2990, 3054, 2775, 2637
10113, 3310, 3422, 3251, 247
10114, 4306, 3589, 248, 3668
10115, 3649, 3339, 230, 4542
10116, 3457, 3580, 230, 3339
10117, 232, 3439, 3360, 3476
10118, 3274, 3219, 3777, 3561
10119, 3786, 4599, 3869, 4553
10120, 3975, 3841, 4578, 3969
10121, 4491, 3836, 4428, 3929
10122, 3940, 237, 4020, 3951
10123, 3821, 262, 3953, 3883
10124, 241, 3796, 3727, 4310
10125, 242, 3357, 3487, 4193
10126, 244, 2574, 2678, 2807
10127, 1918, 1920, 668, 667
10128, 2455, 2669, 2311, 267
10129, 4126, 2908, 2977, 246
10130, 4201, 4202, 3367, 3238
10131, 3466, 3550, 3897, 3711
10132, 3622, 3530, 250, 3809
10133, 3382, 3183, 3245, 4638
10134, 4638, 4650, 3325, 251
10135, 3400, 3258, 3572, 3161
10136, 2900, 254, 3229, 253
10137, 3174, 3091, 2931, 4607
10138, 3030, 3219, 4607, 4567
10139, 279, 3446, 3340, 3246
10140, 3163, 3414, 3272, 4464
10141, 3917, 3628, 3836, 4491
10142, 3674, 3808, 4427, 3862
10143, 4340, 3574, 3478, 283
10144, 3584, 284, 3757, 3640
10145, 3680, 3821, 3676, 3613
10146, 3792, 3907, 262, 3949
10147, 3957, 3443, 263, 3573
10148, 3145, 3075, 3149, 3379
10149, 2293, 2755, 2616, 2456
10150, 1919, 1914, 41, 666
10151, 2855, 2369, 2675, 3131
10152, 2929, 3003, 3005, 3131
10153, 2976, 2817, 2819, 3047
10154, 3398, 3104, 3167, 4473
10155, 4532, 3492, 4473, 3212
10156, 273, 3110, 2872, 2871
10157, 2671, 2830, 297, 4662
10158, 3532, 2800, 2888, 2983
10159, 299, 2521, 2435, 2171
10160, 300, 2695, 2545, 4486
10161, 2956, 3414, 3163, 3059
10162, 3146, 3288, 3060, 2907
10163, 3169, 3301, 3604, 281
10164, 3478, 3574, 3445, 3266
10165, 3584, 3326, 3250, 3442
10166, 3352, 285, 4276, 3436
10167, 287, 3182, 4263, 4260
10168, 4190, 2975, 288, 2616
10169, 2440, 2316, 2199, 2416
10170, 1949, 1931, 40, 665
10171, 2407, 2283, 312, 2395
10172, 4104, 4103, 2531, 2690
10173, 2547, 2529, 2413, 315
10174, 2586, 2465, 316, 4462
10175, 4471, 2873, 2733, 2580
10176, 2441, 2694, 2980, 2687
10177, 2566, 2371, 2252, 297
10178, 2181, 1886, 320, 2262
10179, 1405, 322, 2143, 1896
10180, 301, 2374, 2251, 4372
10181, 1884, 2160, 1888, 1052
10182, 2447, 302, 2328, 2433
10183, 304, 2907, 2693, 4242
10184, 2767, 4243, 4242, 326
10185, 2736, 3008, 3158, 3082
10186, 2731, 306, 2909, 4130
10187, 3045, 307, 2922, 2715
10188, 2918, 3646, 3027, 2773
10189, 2924, 310, 4183, 3035
10190, 2784, 311, 2870, 2754
10191, 2208, 2352, 2482, 2370
10192, 1902, 1977, 664, 38
10193, 1906, 2137, 2248, 4040
10194, 1363, 1339, 1295, 337
10195, 2134, 1556, 338, 2177
10196, 2243, 2289, 2162, 2135
10197, 1898, 1856, 2246, 2322
10198, 1687, 1729, 1882, 1708
10199, 1505, 1490, 1514, 1581
10200, 1361, 1426, 4555, 1403
10201, 1202, 1176, 1154, 4319
10202, 1110, 1066, 4264, 1090
10203, 1092, 1071, 4261, 1048
10204, 2161, 4181, 2132, 2165
10205, 2343, 2412, 2165, 4086
10206, 2393, 2285, 349, 2489
10207, 2364, 2273, 350, 2507
10208, 2475, 2648, 2339, 351
10209, 2790, 2777, 330, 2715
10210, 2622, 2298, 2463, 331
10211, 2336, 2490, 2638, 2834
10212, 2360, 2265, 355, 2515
10213, 355, 2276, 2382, 2515
10214, 901, 872, 875, 927
10215, 1050, 1087, 1036, 4121
10216, 1425, 1381, 1355, 1399
10217, 1600, 1574, 1617, 1680
10218, 1786, 1818, 1829, 4640
10219, 1674, 1661, 1684, 1697
10220, 1501, 1525, 1506, 1482
10221, 1345, 1328, 1305, 1319
10222, 777, 824, 894, 886
10223, 1030, 981, 1046, 1041
10224, 1198, 1240, 4254, 1173
10225, 1398, 4448, 1429, 4501
10226, 1533, 1576, 1555, 1513
10227, 1673, 4606, 1703, 1710
10228, 384, 1853, 1828, 4557
10229, 1781, 1739, 1759, 1774
10230, 1622, 1597, 1583, 1635
10231, 1392, 1400, 1379, 366
10232, 1112, 367, 1063, 1107
10233, 1219, 1221, 1167, 1241
10234, 2142, 2244, 2145, 1181
10235, 368, 1180, 2142, 1181
10236, 370, 2168, 4068, 2505
10237, 371, 2194, 2392, 2491
10238, 372, 2218, 2365, 2488
10239, 373, 2230, 2338, 2472
10240, 2305, 2787, 2998, 2229
10241, 375, 2215, 2297, 2467
10242, 376, 2217, 2334, 2487
10243, 377, 2227, 2361, 2514
10244, 2275, 378, 2231, 2388
10245, 35, 911, 849, 643
10246, 2131, 2335, 379, 909
10247, 2138, 1336, 1220, 380
10248, 2149, 382, 1468, 2139
10249, 4423, 1890, 2166, 1899
10250, 2546, 408, 2557, 4679
10251, 1727, 4626, 1897, 1683
10252, 388, 1511, 2150, 4431
10253, 2357, 2254, 2136, 412
10254, 2136, 4432, 4378, 2056
10255, 2688, 4203, 4224, 2806
10256, 4105, 4203, 2688, 393
10257, 3051, 2832, 2750, 2955
10258, 2722, 3076, 2825, 394
10259, 396, 2644, 2739, 2939
10260, 397, 2633, 2725, 3172
10261, 2623, 2770, 398, 4102
10262, 2857, 399, 2487, 2334
10263, 2361, 2756, 400, 2514
10264, 2376, 2269, 401, 2524
10265, 34, 1958, 1893, 642
10266, 2530, 2409, 402, 2420
10267, 2408, 404, 2159, 403
10268, 4348, 4300, 2430, 405
10269, 4508, 2451, 2527, 2406
10270, 2291, 4646, 2307, 2253
10271, 2303, 2444, 409, 4644
10272, 2312, 2363, 4594, 410
10273, 2359, 2554, 4488, 411
10274, 2680, 435, 4418, 2921
10275, 2792, 2780, 435, 2680
10276, 2290, 2383, 2176, 2245
10277, 3111, 3308, 4229, 3195
10278, 3189, 416, 3000, 3142
10279, 419, 3077, 3209, 3327
10280, 420, 3062, 3233, 3351
10281, 420, 3351, 3391, 3260
10282, 3408, 3155, 421, 4286
10283, 423, 2824, 2937, 2707
10284, 2358, 2261, 424, 2516
10285, 33, 1967, 1966, 640
10286, 2473, 2353, 2645, 426
10287, 2954, 2742, 2943, 450
10288, 428, 4311, 2837, 3255
10289, 2689, 428, 2781, 429
10290, 2877, 3129, 4529, 2783
10291, 2875, 4663, 431, 2746
10292, 432, 2608, 2697, 2881
10293, 2958, 3095, 2846, 4605
10294, 3185, 4418, 3088, 3368
10295, 3099, 4273, 2865, 4357
10296, 3567, 3497, 4177, 440
10297, 3497, 3567, 3689, 441
10298, 3609, 3552, 4393, 4405
10299, 443, 3967, 3455, 3607
10300, 3701, 444, 3529, 3863
10301, 446, 2932, 2713, 4122
10302, 2340, 2255, 447, 2509
10303, 638, 1964, 1968, 32
10304, 448, 2200, 2387, 2497
10305, 3277, 3186, 3177, 3296
10306, 3203, 3278, 452, 3078
10307, 454, 4682, 2986, 3269
10308, 3187, 4688, 3108, 4682
10309, 456, 3092, 3181, 4694
10310, 3283, 457, 3141, 4634
10311, 3611, 3405, 481, 4018
10312, 458, 3368, 3385, 3469
10313, 3247, 3048, 3475, 460
10314, 3435, 3619, 3345, 3205
10315, 464, 3982, 3921, 3781
10316, 4572, 3921, 3982, 4024
10317, 3816, 3870, 3906, 466
10318, 3685, 4461, 4460, 467
10319, 469, 2962, 2735, 2658
10320, 470, 2499, 2326, 2238
10321, 637, 1936, 1948, 31
10322, 471, 2193, 2403, 2525
10323, 3404, 3520, 475, 3289
10324, 4528, 3377, 4579, 3585
10325, 4592, 4559, 3791, 4549
10326, 4658, 3438, 477, 3562
10327, 4690, 3576, 479, 3503
10328, 3662, 3759, 3850, 3936
10329, 4570, 3665, 481, 3405
10330, 3575, 3471, 3657, 3898
10331, 3729, 3619, 3631, 4541
10332, 3754, 3661, 4015, 485
10333, 4410, 3894, 3835, 3923
10334, 3923, 3835, 511, 4476
10335, 3693, 489, 3871, 3750
10336, 3311, 3356, 4328, 3493
10337, 2575, 2679, 4054, 493
10338, 636, 1923, 1926, 30
10339, 2620, 2481, 2372, 2573
10340, 3153, 2778, 2828, 2985
10341, 3275, 4226, 3375, 3153
10342, 3624, 3728, 3636, 4352
10343, 3959, 4480, 3934, 3846
10344, 4591, 3878, 3770, 4618
10345, 3962, 3918, 3802, 3844
10346, 4546, 3704, 3496, 3350
10347, 3824, 3672, 504, 4628
10348, 4677, 4672, 4673, 3932
10349, 3911, 3960, 4002, 3999
10350, 3856, 4493, 3899, 3970
10351, 508, 4398, 3837, 3997
10352, 3601, 533, 3450, 534
10353, 3683, 3679, 4230, 533
10354, 3430, 3509, 3459, 513
10355, 514, 3074, 3148, 3253
10356, 2970, 3080, 515, 2808
10357, 1924, 635, 634, 1929
10358, 2486, 2668, 2292, 538
10359, 4268, 518, 3058, 3330
10360, 3346, 3536, 3315, 542
10361, 3346, 3424, 3537, 520
10362, 3681, 4420, 4369, 3373
10363, 3426, 3228, 545, 3412
10364, 3329, 3558, 3403, 547
10365, 3350, 3244, 549, 3215
10366, 3447, 524, 3329, 3248
10367, 526, 3512, 3519, 3563
10368, 527, 3482, 3549, 3650
10369, 4391, 528, 3571, 3543
10370, 3570, 529, 3494, 530
10371, 4367, 4366, 3565, 3775
10372, 531, 3429, 3605, 3660
10373, 557, 4184, 3184, 3300
10374, 4191, 4184, 4156, 558
10375, 3148, 3378, 3381, 3253
10376, 2302, 3428, 537, 2769
10377, 28, 1940, 1929, 634
10378, 2947, 540, 2838, 3066
10379, 3019, 3225, 2903, 2772
10380, 3192, 3090, 544, 3373
10381, 3217, 2917, 3025, 3361
10382, 2718, 572, 2949, 3068
10383, 3046, 547, 2926, 2732
10384, 549, 2866, 3097, 3215
10385, 3100, 551, 3417, 3290
10386, 552, 4318, 3427, 3551
10387, 4235, 3234, 4318, 552
10388, 3237, 3307, 4173, 3220
10389, 3207, 3309, 3061, 4160
10390, 3239, 4185, 3071, 556
10391, 2729, 581, 2705, 2624
10392, 559, 2915, 4108, 2804
10393, 632, 1974, 1976, 27
10394, 2203, 2368, 2556, 2427
10395, 2615, 2851, 2457, 2295
10396, 2764, 2295, 2899, 585
10397, 2627, 2300, 2468, 2653
10398, 2331, 4149, 2653, 2468
10399, 2324, 2543, 2660, 2492
10400, 2350, 2271, 591, 2501
10401, 2650, 2337, 2474, 571
10402, 572, 2683, 2813, 2949
10403, 2927, 3094, 2839, 3100
10404, 574, 2639, 2714, 2886
10405, 4120, 575, 2753, 2385
10406, 2710, 576, 2642, 2782
10407, 577, 2649, 2721, 2942
10408, 578, 2654, 2861, 2961
10409, 579, 2621, 2797, 2945
10410, 2196, 2425, 2538, 2384
10411, 2189, 2318, 593, 2362
10412, 2174, 2386, 594, 2178
10413, 595, 2286, 2396, 2541
10414, 2385, 596, 2278, 2522
10415, 597, 2235, 2367, 2512
10416, 598, 2258, 2342, 2496
10417, 599, 2233, 2327, 2494
10418, 600, 2209, 2296, 2462
10419, 2565, 2421, 2206, 2320
10420, 24, 676, 4035, 604
10421, 1, 2030, 2035, 605
10422, 606, 2036, 2026, 3
10423, 607, 2011, 1995, 4
10424, 608, 1990, 1999, 609
10425, 5, 2016, 2029, 610
10426, 611, 2040, 2033, 7
10427, 612, 2013, 1994, 8
10428, 9, 2003, 2020, 614
10429, 10, 2024, 2031, 615
10430, 11, 2039, 2041, 616
10431, 617, 2042, 2027, 13
10432, 618, 2021, 2015, 619
10433, 619, 2015, 1992, 14
10434, 16, 1986, 2008, 622
10435, 17, 2025, 2037, 623
10436, 624, 2038, 2034, 19
10437, 625, 2019, 1993, 20
10438, 626, 1942, 1927, 627
10439, 21, 1921, 1925, 628
10440, 23, 1987, 2012, 630
10441, 26, 1971, 1974, 632
10442, 633, 1961, 1940, 28
10443, 635, 1924, 1922, 29
10444, 29, 1922, 1923, 636
10445, 30, 1926, 1936, 637
10446, 31, 1948, 1964, 638
10447, 32, 1968, 1969, 639
10448, 640, 1966, 1972, 641
10449, 642, 1893, 911, 35
10450, 643, 849, 807, 644
10451, 644, 807, 802, 645
10452, 646, 799, 786, 36
10453, 36, 786, 759, 647
10454, 649, 648, 758, 760
10455, 650, 649, 760, 764
10456, 651, 650, 764, 779
10457, 779, 782, 652, 651
10458, 782, 785, 653, 652
10459, 785, 787, 654, 653
10460, 787, 788, 655, 654
10461, 788, 791, 656, 655
10462, 791, 792, 657, 656
10463, 792, 793, 658, 657
10464, 37, 660, 800, 803
10465, 661, 37, 803, 806
10466, 806, 810, 662, 661
10467, 1973, 1949, 665, 39
10468, 1931, 1919, 666, 40
10469, 667, 41, 1914, 1918
10470, 1920, 1933, 42, 668
10471, 1952, 1975, 43, 669
10472, 1980, 1981, 44, 670
10473, 1950, 1930, 672, 45
10474, 1911, 1905, 673, 46
10475, 1903, 1904, 47, 674
10476, 1908, 1915, 48, 675
10477, 50, 2082, 2090, 678
10478, 679, 2078, 2047, 52
10479, 680, 1988, 1959, 53
10480, 2002, 2057, 54, 682
10481, 2079, 2085, 55, 683
10482, 2087, 2092, 57, 685
10483, 2050, 1954, 687, 58
10484, 1913, 1909, 688, 59
10485, 689, 60, 1907, 1912
10486, 1953, 2032, 61, 690
10487, 2080, 2094, 62, 691
10488, 2072, 1997, 693, 63
10489, 1943, 1932, 694, 64
10490, 1934, 1944, 66, 695
10491, 1996, 2073, 67, 696
10492, 2091, 2095, 68, 697
10493, 2088, 2075, 700, 699
10494, 2014, 1962, 701, 70
10495, 1941, 1965, 72, 702
10496, 705, 2110, 2109, 75
10497, 75, 2109, 2117, 706
10498, 77, 2107, 2118, 708
10499, 78, 2106, 2112, 709
10500, 80, 2105, 2119, 711
10501, 712, 2114, 2104, 81
10502, 81, 2104, 2120, 713
10503, 714, 2028, 1984, 83
10504, 84, 1956, 1989, 716
10505, 772, 4721, 4722, 770
10506, 720, 769, 767, 721
10507, 768, 4723, 4724, 766
10508, 766, 4724, 4725, 763
10509, 769, 720, 719, 771
10510, 763, 4725, 4726, 762
10511, 724, 723, 761, 775
10512, 776, 4727, 4728, 781
10513, 781, 4728, 4729, 784
10514, 725, 724, 775, 780
10515, 784, 4729, 4730, 790
10516, 776, 4043, 820, 762
10517, 780, 783, 726, 725
10518, 4727, 776, 762, 4726
10519, 783, 789, 727, 726
10520, 729, 728, 794, 797
10521, 4732, 798, 795, 4731
10522, 4731, 795, 790, 4730
10523, 4733, 801, 798, 4732
10524, 732, 808, 986, 733
10525, 804, 847, 844, 801
10526, 4737, 960, 850, 4736
10527, 4736, 850, 809, 4735
10528, 4738, 1885, 960, 4737
10529, 2155, 1900, 734, 87
10530, 4740, 1937, 1916, 4739
10531, 88, 1917, 1938, 735
10532, 4742, 2000, 1978, 4741
10533, 89, 1979, 2001, 736
10534, 4744, 2060, 2048, 4743
10535, 90, 2049, 2061, 737
10536, 4747, 2054, 2058, 4746
10537, 738, 2059, 2055, 92
10538, 4749, 2010, 2022, 4748
10539, 2005, 4750, 4751, 2006
10540, 93, 2004, 2007, 741
10541, 4753, 2051, 2017, 4752
10542, 95, 2063, 2065, 743
10543, 4757, 2070, 2066, 4756
10544, 96, 2069, 2071, 744
10545, 2127, 746, 98, 2128
10546, 2124, 2102, 747, 99
10547, 2097, 2074, 748, 100
10548, 2099, 2121, 102, 749
10549, 2125, 2126, 103, 750
10550, 2123, 2101, 752, 104
10551, 2101, 2053, 753, 752
10552, 1945, 1957, 106, 754
10553, 1998, 2077, 107, 755
10554, 356, 2130, 2103, 2237
10555, 758, 811, 812, 760
10556, 799, 646, 645, 802
10557, 759, 4074, 811, 758
10558, 761, 723, 722, 765
10559, 828, 780, 775, 865
10560, 815, 763, 762, 820
10561, 771, 719, 718, 773
10562, 814, 761, 765, 4058
10563, 763, 815, 816, 766
10564, 760, 812, 813, 764
10565, 773, 718, 717, 778
10566, 767, 818, 4058, 765
10567, 778, 717, 97, 827
10568, 767, 769, 4048, 818
10569, 766, 816, 817, 768
10570, 771, 821, 4048, 769
10571, 4721, 772, 774, 4720
10572, 819, 770, 768, 817
10573, 825, 773, 778, 864
10574, 822, 772, 770, 819
10575, 4720, 774, 777, 97
10576, 784, 4044, 830, 781
10577, 894, 824, 857, 917
10578, 812, 852, 4057, 813
10579, 826, 779, 764, 813
10580, 728, 727, 789, 794
10581, 782, 829, 831, 785
10582, 837, 786, 799, 4046
10583, 785, 831, 832, 787
10584, 787, 832, 833, 788
10585, 830, 868, 820, 4043
10586, 875, 872, 839, 836
10587, 792, 791, 834, 4038
10588, 660, 659, 796, 800
10589, 801, 4733, 4734, 804
10590, 793, 792, 4038, 836
10591, 797, 794, 838, 843
10592, 4031, 4030, 797, 843
10593, 790, 4045, 4044, 784
10594, 800, 796, 839, 842
10595, 4031, 805, 731, 86
10596, 798, 840, 835, 795
10597, 4081, 4046, 841, 900
10598, 803, 800, 842, 845
10599, 801, 844, 840, 798
10600, 848, 880, 910, 883
10601, 845, 851, 806, 803
10602, 902, 881, 846, 878
10603, 986, 808, 883, 1021
10604, 809, 935, 847, 804
10605, 961, 810, 884, 1157
10606, 852, 812, 811, 890
10607, 779, 826, 829, 782
10608, 869, 4047, 926, 874
10609, 815, 853, 4078, 816
10610, 816, 4078, 855, 817
10611, 821, 771, 773, 825
10612, 4048, 867, 893, 818
10613, 772, 822, 823, 774
10614, 795, 835, 4045, 790
10615, 4044, 4045, 870, 830
10616, 865, 814, 4058, 866
10617, 4055, 856, 823, 822
10618, 774, 823, 824, 777
10619, 4032, 886, 912, 885
10620, 778, 827, 888, 864
10621, 825, 864, 889, 821
10622, 4037, 915, 4039, 858
10623, 4032, 97, 777, 886
10624, 889, 864, 888, 914
10625, 828, 865, 4047, 869
10626, 826, 854, 4056, 829
10627, 820, 868, 853, 815
10628, 4056, 859, 831, 829
10629, 831, 859, 860, 832
10630, 4036, 789, 783, 869
10631, 832, 860, 861, 833
10632, 834, 833, 861, 862
10633, 796, 793, 836, 839
10634, 868, 830, 870, 899
10635, 834, 862, 863, 4038
10636, 802, 841, 4046, 799
10637, 871, 837, 4046, 4081
10638, 838, 874, 908, 843
10639, 877, 882, 845, 842
10640, 868, 899, 891, 853
10641, 872, 877, 842, 839
10642, 848, 843, 908, 880
10643, 847, 879, 873, 844
10644, 849, 878, 846, 807
10645, 881, 900, 841, 846
10646, 935, 809, 850, 1178
10647, 808, 805, 848, 883
10648, 878, 849, 911, 909
10649, 847, 935, 907, 879
10650, 882, 933, 851, 845
10651, 810, 806, 851, 884
10652, 854, 826, 813, 4057
10653, 4110, 4057, 852, 887
10654, 856, 4055, 855, 895
10655, 823, 856, 857, 824
10656, 920, 886, 894, 4053
10657, 4032, 885, 4037, 858
10658, 939, 885, 912, 965
10659, 4110, 898, 854, 4057
10660, 913, 924, 860, 4111
10661, 836, 4038, 863, 875
10662, 922, 927, 875, 863
10663, 865, 866, 892, 4047
10664, 867, 4048, 821, 4065
10665, 4065, 889, 914, 928
10666, 840, 876, 4080, 835
10667, 4036, 869, 874, 838
10668, 4115, 899, 870, 4080
10669, 4138, 887, 916, 944
10670, 930, 932, 904, 901
10671, 844, 873, 876, 840
10672, 4036, 838, 794, 789
10673, 877, 872, 901, 904
10674, 379, 981, 934, 909
10675, 346, 956, 879, 907
10676, 910, 880, 368, 1181
10677, 4109, 923, 4140, 4114
10678, 933, 882, 906, 4066
10679, 851, 933, 958, 884
10680, 986, 1021, 2410, 2155
10681, 1157, 884, 958, 335
10682, 965, 912, 937, 987
10683, 894, 917, 936, 4053
10684, 4111, 860, 859, 4056
10685, 922, 863, 862, 942
10686, 887, 852, 890, 916
10687, 978, 970, 4075, 4083
10688, 892, 866, 893, 896
10689, 4074, 837, 871, 921
10690, 897, 857, 856, 895
10691, 818, 893, 866, 4058
10692, 4059, 926, 4047, 892
10693, 896, 928, 4059, 892
10694, 964, 920, 4053, 971
10695, 899, 4115, 919, 891
10696, 945, 897, 919, 943
10697, 917, 857, 897, 945
10698, 4111, 898, 4138, 913
10699, 4111, 4056, 854, 898
10700, 903, 876, 873, 905
10701, 895, 891, 919, 897
10702, 944, 967, 973, 942
10703, 4081, 900, 4109, 871
10704, 962, 984, 908, 874
10705, 862, 861, 924, 942
10706, 942, 924, 913, 944
10707, 905, 873, 879, 956
10708, 934, 902, 878, 909
10709, 931, 923, 881, 902
10710, 925, 943, 919, 4115
10711, 877, 904, 906, 882
10712, 929, 905, 956, 979
10713, 4066, 906, 957, 1002
10714, 907, 935, 1178, 959
10715, 880, 908, 984, 368
10716, 963, 910, 1181, 2145
10717, 938, 4049, 966, 990
10718, 4050, 4039, 915, 938
10719, 4059, 928, 949, 4075
10720, 4049, 4037, 885, 939
10721, 4074, 921, 890, 811
10722, 918, 871, 4109, 4114
10723, 971, 4053, 936, 989
10724, 900, 881, 923, 4109
10725, 946, 948, 967, 944
10726, 921, 871, 918, 946
10727, 4065, 928, 896, 867
10728, 926, 4059, 4075, 940
10729, 920, 964, 4060, 937
10730, 912, 886, 920, 937
10731, 922, 942, 973, 941
10732, 4115, 903, 929, 925
10733, 927, 922, 941, 951
10734, 954, 925, 929, 979
10735, 926, 940, 962, 874
10736, 930, 901, 927, 951
10737, 4064, 949, 928, 914
10738, 947, 943, 925, 954
10739, 955, 930, 951, 977
10740, 902, 934, 953, 931
10741, 4140, 4137, 4136, 4114
10742, 957, 932, 980, 1018
10743, 985, 958, 933, 983
10744, 934, 981, 1030, 953
10745, 1178, 850, 960, 4051
10746, 988, 939, 965, 1005
10747, 950, 4063, 968, 996
10748, 4050, 914, 888, 4039
10749, 1005, 965, 987, 1025
10750, 970, 4069, 940, 4075
10751, 948, 4137, 993, 967
10752, 969, 941, 973, 994
10753, 943, 947, 975, 945
10754, 946, 944, 916, 921
10755, 918, 4136, 948, 946
10756, 936, 917, 945, 4061
10757, 923, 931, 4158, 4196
10758, 997, 1013, 1011, 4218
10759, 950, 4083, 4064, 4063
10760, 968, 4063, 4050, 938
10761, 969, 977, 951, 941
10762, 976, 4084, 947, 954
10763, 1002, 957, 1018, 4121
10764, 932, 930, 955, 980
10765, 956, 346, 1003, 979
10766, 4073, 4106, 4099, 983
10767, 2132, 1158, 959, 347
10768, 346, 907, 959, 1158
10769, 1885, 2156, 4051, 960
10770, 38, 663, 961, 1902
10771, 1001, 1065, 982, 4069
10772, 883, 910, 963, 1021
10773, 989, 936, 4061, 4062
10774, 1006, 966, 988, 1024
10775, 4049, 938, 915, 4037
10776, 967, 993, 994, 973
10777, 990, 1012, 968, 938
10778, 1011, 1013, 974, 991
10779, 1025, 987, 1007, 1037
10780, 931, 953, 992, 4158
10781, 991, 974, 952, 972
10782, 974, 993, 4137, 952
10783, 1014, 976, 999, 345
10784, 999, 976, 954, 979
10785, 1008, 989, 4062, 998
10786, 1000, 980, 955, 4166
10787, 1032, 978, 1015, 1043
10788, 1044, 970, 978, 1032
10789, 1017, 999, 979, 1003
10790, 4166, 955, 977, 1016
10791, 1002, 1019, 4073, 4066
10792, 992, 1010, 1004, 972
10793, 1067, 1046, 981, 379
10794, 962, 940, 4069, 982
10795, 983, 4099, 1089, 985
10796, 983, 933, 4066, 4073
10797, 984, 962, 982, 1156
10798, 985, 1089, 1114, 4071
10799, 335, 958, 985, 4071
10800, 995, 964, 971, 989
10801, 990, 966, 1006, 1027
10802, 939, 988, 966, 4049
10803, 4084, 998, 4062, 4082
10804, 1009, 972, 1004, 1022
10805, 1000, 4166, 1016, 1136
10806, 1010, 992, 953, 1030
10807, 994, 993, 974, 1013
10808, 1031, 998, 1014, 1034
10809, 995, 1023, 4060, 964
10810, 1015, 950, 996, 1043
10811, 977, 969, 997, 1016
10812, 969, 994, 1013, 997
10813, 1040, 1008, 998, 1031
10814, 970, 1044, 1001, 4069
10815, 950, 1015, 978, 4083
10816, 1035, 4167, 1000, 1136
10817, 1065, 1001, 367, 1091
10818, 1018, 980, 1000, 4167
10819, 1002, 4121, 1036, 1019
10820, 4060, 1007, 987, 937
10821, 1024, 988, 1005, 1038
10822, 1023, 995, 1008, 1040
10823, 4076, 1007, 4060, 1023
10824, 1026, 1011, 991, 1009
10825, 1010, 1030, 1041, 1028
10826, 4275, 1004, 1010, 1028
10827, 1027, 1042, 1012, 990
10828, 976, 1014, 998, 4084
10829, 996, 1012, 1042, 1043
10830, 1011, 1026, 1029, 4218
10831, 345, 999, 1017, 1033
10832, 4195, 1086, 1088, 1051
10833, 1052, 1048, 1003, 1020
10834, 2410, 1021, 369, 4067
10835, 733, 986, 2155, 87
10836, 1039, 1026, 1009, 1022
10837, 1038, 1005, 1025, 1076
10838, 1056, 1074, 1024, 1038
10839, 1074, 1059, 1006, 1024
10840, 1025, 1037, 1057, 1076
10841, 4218, 1045, 1016, 997
10842, 1027, 1006, 1059, 4116
10843, 1045, 4218, 1029, 1073
10844, 1023, 1040, 1054, 4076
10845, 1044, 1032, 4131, 1063
10846, 4131, 1032, 1061, 4169
10847, 1033, 1066, 1047, 345
10848, 1058, 1031, 1049, 1077
10849, 4167, 1050, 4121, 1018
10850, 1068, 1099, 1106, 4223
10851, 4076, 1075, 1037, 1007
10852, 1098, 1093, 1053, 1072
10853, 4275, 357, 1022, 1004
10854, 1039, 1022, 357, 1053
10855, 1049, 1031, 1034, 1062
10856, 1058, 1054, 1040, 1031
10857, 1064, 1041, 1046, 1083
10858, 1060, 4116, 1079, 4165
10859, 1029, 1026, 1039, 1073
10860, 357, 4275, 1072, 1053
10861, 1042, 1060, 4197, 1043
10862, 367, 1001, 1044, 1063
10863, 1072, 1055, 1081, 1098
10864, 1136, 1016, 1045, 1104
10865, 1149, 1067, 1887, 380
10866, 4261, 1071, 1033, 1017
10867, 1066, 1033, 1071, 4264
10868, 1062, 1034, 1047, 1085
10869, 1104, 1070, 1035, 1136
10870, 4195, 1068, 4223, 1086
10871, 4223, 1106, 1130, 1086
10872, 1884, 1052, 1020, 4181
10873, 1052, 1888, 1092, 1048
10874, 1055, 1072, 4275, 1028
10875, 4076, 1054, 4119, 1075
10876, 1115, 1093, 1098, 1127
10877, 1122, 1140, 1168, 1148
10878, 1057, 1037, 1075, 4139
10879, 1076, 1057, 1120, 1119
10880, 1054, 1058, 1078, 4119
10881, 1096, 1059, 1074, 1116
10882, 1079, 4116, 1059, 1096
10883, 1080, 1061, 4197, 4165
10884, 1061, 1032, 1043, 4197
10885, 1085, 1047, 1066, 1110
10886, 1077, 1049, 1082, 1094
10887, 1155, 1091, 1179, 390
10888, 1083, 1046, 1067, 1149
10889, 1123, 1087, 1100, 1139
10890, 1113, 1065, 1091, 1155
10891, 1135, 1154, 1110, 1090
10892, 1887, 1067, 379, 2335
10893, 1128, 1083, 1149, 1173
10894, 1036, 1087, 1068, 4195
10895, 1130, 1106, 1144, 1172
10896, 1109, 1114, 1089, 1069
10897, 4150, 4106, 1051, 1088
10898, 4279, 4216, 1035, 1070
10899, 1053, 1093, 1073, 1039
10900, 1055, 1064, 1097, 1081
10901, 1104, 1045, 1073, 1093
10902, 1076, 1119, 1056, 1038
10903, 1078, 1058, 1077, 1094
10904, 1120, 4139, 1101, 4206
10905, 1120, 1141, 1145, 1119
10906, 1082, 1049, 1062, 1103
10907, 1101, 4119, 1078, 4164
10908, 1122, 1079, 1096, 1140
10909, 4116, 1060, 1042, 1027
10910, 1080, 4165, 1102, 1108
10911, 4170, 4169, 1108, 1150
10912, 1164, 4280, 1138, 1117
10913, 1103, 1062, 1085, 1131
10914, 1126, 1082, 1103, 1151
10915, 1097, 1064, 1111, 1118
10916, 1061, 1080, 1108, 4169
10917, 1152, 1196, 1132, 1125
10918, 1131, 1085, 1110, 1154
10919, 1088, 1086, 1105, 1134
10920, 1109, 1134, 1133, 4129
10921, 4216, 1100, 1087, 1050
10922, 1089, 4099, 4150, 1069
10923, 1090, 2144, 4341, 1135
10924, 323, 1071, 1092, 2256
10925, 1075, 4119, 1101, 4139
10926, 1171, 1145, 1163, 1192
10927, 1119, 1137, 1095, 1056
10928, 1140, 1096, 1116, 1159
10929, 1111, 1064, 1083, 1128
10930, 1139, 1100, 4280, 1164
10931, 1081, 1097, 1117, 1138
10932, 1099, 1068, 1087, 1123
10933, 1115, 1127, 4279, 1070
10934, 1164, 1117, 1147, 1187
10935, 1104, 1093, 1115, 1070
10936, 1172, 1197, 1146, 1130
10937, 1106, 1099, 1124, 1144
10938, 1084, 1125, 1132, 1107
10939, 1129, 1112, 1107, 1273
10940, 1150, 1108, 1102, 1170
10941, 1088, 1134, 1109, 1069
10942, 4098, 2100, 4071, 1114
10943, 1117, 1097, 1118, 1147
10944, 1179, 1112, 1129, 390
10945, 2141, 1113, 1155, 2133
10946, 1180, 1156, 1113, 2141
10947, 4072, 2394, 313, 2399
10948, 1137, 1159, 1116, 1095
10949, 4253, 1111, 1128, 4252
10950, 1160, 1143, 1169, 1191
10951, 4164, 1121, 4206, 1101
10952, 1141, 1120, 4206, 4262
10953, 4206, 1121, 4320, 4262
10954, 4262, 4320, 4322, 1141
10955, 1142, 1094, 1082, 1126
10956, 1079, 1122, 1102, 4165
10957, 1143, 1123, 1139, 1169
10958, 1099, 1123, 1143, 1124
10959, 1166, 1188, 1144, 1124
10960, 1177, 4170, 1150, 1182
10961, 1102, 1122, 1148, 1170
10962, 1273, 1107, 1132, 1245
10963, 1125, 1084, 4170, 1177
10964, 1142, 1161, 1121, 4164
10965, 4280, 4279, 1127, 1138
10966, 1138, 1127, 1098, 1081
10967, 4254, 4252, 1128, 1173
10968, 1105, 1086, 1130, 1146
10969, 1176, 1151, 1131, 1154
10970, 1152, 1125, 1177, 1186
10971, 1243, 1175, 1224, 1271
10972, 2100, 4098, 336, 1983
10973, 1153, 1105, 1146, 1174
10974, 1133, 1134, 1175, 1243
10975, 1135, 322, 4319, 1154
10976, 1194, 1159, 1137, 1171
10977, 1169, 1139, 1164, 1187
10978, 1191, 1204, 1226, 1252
10979, 1147, 1118, 1162, 1189
10980, 1140, 1159, 1185, 1168
10981, 1165, 1201, 1161, 1142
10982, 1160, 1166, 1124, 1143
10983, 1183, 1206, 1166, 1160
10984, 1145, 1171, 1137, 1119
10985, 4253, 1162, 1118, 1111
10986, 344, 1165, 1126, 1151
10987, 1245, 1132, 1196, 1272
10988, 1200, 1153, 1174, 1223
10989, 1134, 1105, 1153, 1175
10990, 1199, 1176, 1202, 1225
10991, 2133, 1155, 390, 2176
10992, 984, 1156, 1180, 368
10993, 1906, 1157, 335, 2137
10994, 1884, 4181, 2161, 324
10995, 1190, 4285, 4253, 4252
10996, 4336, 1249, 1205, 4285
10997, 1163, 1145, 1141, 4322
10998, 1207, 1227, 1213, 1185
10999, 1165, 344, 1222, 1201
11000, 1183, 1209, 1228, 1206
11001, 1167, 1195, 4406, 1241
11002, 1193, 1170, 1148, 1168
11003, 1259, 1198, 1246, 1282
11004, 1215, 1190, 4252, 4254
11005, 1186, 1177, 1182, 4314
11006, 1194, 1171, 1192, 1218
11007, 1188, 1214, 1172, 1144
11008, 1198, 1173, 1220, 1246
11009, 1263, 4380, 1237, 1287
11010, 1175, 1153, 1200, 1224
11011, 1270, 1271, 1224, 1294
11012, 1182, 1150, 1170, 1212
11013, 347, 959, 1178, 4051
11014, 390, 1129, 1203, 2146
11015, 1188, 1166, 1206, 1230
11016, 1161, 1201, 1208, 1184
11017, 1208, 1233, 1210, 1184
11018, 1194, 1207, 1185, 1159
11019, 1211, 1195, 1186, 4314
11020, 1152, 1186, 1195, 1167
11021, 4285, 1205, 1162, 4253
11022, 1187, 1189, 1226, 1204
11023, 1229, 4336, 4285, 1190
11024, 1160, 1191, 1209, 1183
11025, 1204, 1191, 1169, 1187
11026, 1210, 1163, 4322, 1184
11027, 1218, 1234, 1255, 1238
11028, 1236, 1193, 1213, 1264
11029, 1212, 1170, 1193, 1236
11030, 4406, 1195, 1211, 4435
11031, 1196, 1152, 1167, 1221
11032, 1214, 1237, 1197, 1172
11033, 1174, 1146, 1197, 1216
11034, 1215, 4254, 1240, 1260
11035, 1217, 1199, 1225, 1232
11036, 1223, 1174, 1216, 4380
11037, 1224, 1200, 4312, 1294
11038, 1222, 344, 1199, 1217
11039, 322, 1405, 1247, 4319
11040, 1267, 1332, 1361, 1313
11041, 1203, 389, 2254, 2146
11042, 1205, 1226, 1189, 1162
11043, 4389, 4388, 1275, 1251
11044, 1277, 1228, 1251, 1299
11045, 1206, 1228, 1253, 1230
11046, 1192, 4344, 1234, 1218
11047, 1239, 4315, 1212, 1236
11048, 1231, 1222, 1217, 1232
11049, 1251, 1228, 1209, 4389
11050, 1233, 1257, 4344, 1210
11051, 1163, 1210, 4344, 1192
11052, 4314, 1182, 1212, 4315
11053, 1218, 1238, 1207, 1194
11054, 1213, 1193, 1168, 1185
11055, 1230, 1256, 1214, 1188
11056, 1235, 1211, 4314, 4315
11057, 1250, 1229, 1190, 1215
11058, 1238, 1255, 1281, 1254
11059, 1246, 1220, 1336, 1316
11060, 4289, 1282, 1246, 1316
11061, 1244, 1272, 1196, 1221
11062, 1231, 1208, 1201, 1222
11063, 1296, 1243, 1271, 1339
11064, 4343, 1202, 4319, 1247
11065, 1264, 1227, 1254, 1280
11066, 4387, 4336, 1229, 1276
11067, 1253, 1278, 1256, 1230
11068, 1258, 1284, 1257, 1233
11069, 1231, 1232, 1268, 1258
11070, 1232, 1225, 1248, 1265
11071, 1258, 1233, 1208, 1231
11072, 1238, 1254, 1227, 1207
11073, 4381, 4380, 1263, 4438
11074, 1216, 1197, 1237, 4380
11075, 1283, 1239, 1236, 1264
11076, 1235, 4315, 1239, 1261
11077, 1300, 4469, 1277, 1318
11078, 4288, 1259, 4331, 1279
11079, 1211, 1235, 1262, 4435
11080, 1269, 1311, 1219, 1241
11081, 1325, 1288, 4439, 4440
11082, 1337, 1294, 4359, 1334
11083, 1266, 4312, 1242, 1291
11084, 1243, 1296, 336, 1133
11085, 1338, 1244, 1292, 1357
11086, 1273, 389, 1203, 1129
11087, 4331, 1259, 1282, 1326
11088, 1247, 1332, 1267, 4343
11089, 4343, 1248, 1225, 1202
11090, 1267, 1289, 1248, 4343
11091, 4387, 358, 1275, 4388
11092, 1226, 1205, 1249, 1252
11093, 1250, 1215, 1260, 1298
11094, 1229, 1250, 1274, 1276
11095, 4288, 1279, 1260, 1240
11096, 1209, 1191, 1252, 4389
11097, 1283, 4441, 4442, 1304
11098, 1257, 1285, 1234, 4344
11099, 1254, 1281, 1301, 1280
11100, 1256, 1278, 1303, 1287
11101, 1237, 1214, 1256, 1287
11102, 1284, 1293, 4454, 1314
11103, 1258, 1268, 1293, 1284
11104, 1318, 1277, 1299, 1306
11105, 1240, 1198, 1259, 4288
11106, 1274, 1250, 1298, 4437
11107, 1286, 1262, 1235, 1261
11108, 1290, 1269, 1241, 4406
11109, 1307, 1263, 1287, 1324
11110, 1291, 1242, 4381, 1288
11111, 1331, 1291, 1310, 1352
11112, 1267, 1313, 1375, 1289
11113, 1268, 1232, 1265, 4451
11114, 1292, 1219, 1311, 1333
11115, 1271, 1270, 1295, 1339
11116, 1360, 1272, 4377, 4378
11117, 358, 1276, 1274, 4437
11118, 4388, 4389, 1252, 1249
11119, 1275, 358, 4437, 1297
11120, 1253, 1228, 1277, 4469
11121, 1299, 1251, 1275, 1297
11122, 4469, 1320, 1278, 1253
11123, 1306, 1298, 1260, 1279
11124, 4521, 1335, 1378, 1421
11125, 1301, 1323, 4441, 1280
11126, 1285, 1257, 1284, 1314
11127, 1302, 1281, 1255, 4401
11128, 1320, 1344, 1303, 1278
11129, 1261, 1239, 1283, 1304
11130, 1283, 1264, 1280, 4441
11131, 4451, 1265, 1248, 1289
11132, 1285, 4401, 1255, 1234
11133, 1307, 4439, 4438, 1263
11134, 1310, 1291, 1288, 1325
11135, 4452, 4451, 1309, 1354
11136, 1262, 1286, 4468, 1308
11137, 1353, 4507, 1329, 1368
11138, 1331, 1377, 1317, 4408
11139, 1357, 1292, 1333, 1380
11140, 1309, 4451, 1289, 1375
11141, 1367, 1397, 1343, 4466
11142, 1315, 1326, 1282, 4289
11143, 4408, 1266, 1291, 1331
11144, 1362, 1382, 1337, 1381
11145, 1270, 1294, 1337, 1382
11146, 1321, 1318, 1306, 1279
11147, 1279, 4331, 1312, 1321
11148, 4521, 1388, 1367, 1351
11149, 4452, 1335, 4454, 1293
11150, 4442, 4441, 1323, 4506
11151, 1304, 1305, 1286, 1261
11152, 1324, 1287, 1303, 4470
11153, 1286, 1305, 1328, 4468
11154, 1308, 4468, 1346, 1329
11155, 1354, 1309, 1375, 1387
11156, 1385, 1349, 1366, 4568
11157, 1269, 1290, 4507, 1311
11158, 1353, 1333, 1311, 4507
11159, 1365, 1312, 1341, 1386
11160, 1375, 1313, 343, 1387
11161, 1314, 1327, 4401, 1285
11162, 1330, 4289, 1316, 1358
11163, 1317, 4359, 1266, 4408
11164, 1306, 1299, 1297, 1298
11165, 1345, 1319, 1364, 1383
11166, 1319, 1305, 1304, 4442
11167, 1340, 1300, 1318, 1321
11168, 1302, 4466, 1343, 1322
11169, 1327, 1314, 4454, 1351
11170, 1301, 1322, 1347, 1323
11171, 1326, 1315, 1342, 1341
11172, 4440, 1348, 1366, 1325
11173, 1312, 4331, 1326, 1341
11174, 4401, 1327, 4466, 1302
11175, 4468, 1328, 4522, 1346
11176, 4467, 1329, 4507, 1290
11177, 1342, 1315, 1356, 1373
11178, 1315, 4289, 1330, 1356
11179, 1352, 1310, 1349, 1371
11180, 1332, 1247, 1405, 321
11181, 1361, 1332, 321, 1426
11182, 1333, 1353, 1379, 1380
11183, 1381, 1337, 1334, 4409
11184, 1354, 1378, 1335, 4452
11185, 1397, 1417, 1374, 1343
11186, 1336, 2138, 1982, 4258
11187, 1316, 1336, 4258, 381
11188, 1295, 1270, 1382, 4360
11189, 4431, 4377, 1338, 388
11190, 1272, 1244, 1338, 4377
11191, 1910, 1359, 1363, 2175
11192, 1300, 1340, 1344, 1320
11193, 1348, 1324, 4470, 1370
11194, 1373, 1407, 1372, 1342
11195, 1347, 1322, 1343, 1374
11196, 1344, 4502, 4470, 1303
11197, 1364, 4506, 1350, 4565
11198, 1328, 1345, 1369, 4522
11199, 1368, 1329, 1346, 4580
11200, 1347, 1350, 4506, 1323
11201, 1325, 1366, 1349, 1310
11202, 1350, 1347, 1374, 1390
11203, 4506, 1364, 1319, 4442
11204, 1327, 1351, 1367, 4466
11205, 1317, 1377, 1355, 4409
11206, 366, 1379, 1353, 1368
11207, 1354, 1387, 1396, 1378
11208, 1402, 1362, 1381, 1425
11209, 1330, 1358, 1376, 4402
11210, 1373, 1356, 4403, 4443
11211, 388, 1338, 1357, 1442
11212, 1401, 1358, 381, 1424
11213, 1415, 4448, 4447, 1401
11214, 1983, 1359, 1910, 313
11215, 336, 1296, 1359, 1983
11216, 4378, 4377, 4431, 2056
11217, 1245, 1360, 389, 1273
11218, 1404, 1362, 1402, 1531
11219, 4360, 1895, 337, 1295
11220, 1383, 1364, 4565, 1408
11221, 1383, 1432, 1369, 1345
11222, 1340, 1321, 1312, 1365
11223, 1372, 1389, 1370, 4530
11224, 1371, 1349, 1385, 1411
11225, 4522, 1384, 4580, 1346
11226, 4522, 1369, 4583, 1384
11227, 4502, 1365, 1386, 4530
11228, 1341, 1342, 1372, 1386
11229, 1494, 1473, 1515, 1493
11230, 1377, 1352, 1394, 4496
11231, 1407, 1427, 1389, 1372
11232, 1416, 1440, 1396, 1395
11233, 1391, 4449, 4403, 4402
11234, 1394, 1352, 1371, 1413
11235, 1418, 1441, 1400, 1392
11236, 1419, 1462, 1463, 1442
11237, 1355, 1377, 4496, 1399
11238, 1448, 4600, 1492, 1509
11239, 1556, 4360, 1404, 1578
11240, 1404, 4360, 1382, 1362
11241, 1387, 343, 1395, 1396
11242, 1390, 1408, 4565, 1350
11243, 1368, 4580, 1393, 366
11244, 1410, 1427, 1449, 1431
11245, 1410, 1431, 1385, 4568
11246, 1420, 343, 1313, 1403
11247, 1422, 1433, 1417, 1397
11248, 1422, 1397, 1367, 1388
11249, 1474, 1348, 1370, 1389
11250, 4568, 1474, 1389, 1410
11251, 1436, 1452, 1408, 1390
11252, 1406, 4509, 4449, 1391
11253, 1398, 1391, 4402, 1376
11254, 1409, 1407, 1373, 4443
11255, 1414, 1393, 1384, 4583
11256, 1413, 1371, 1411, 1434
11257, 1439, 1394, 1413, 1455
11258, 1432, 1408, 1452, 1435
11259, 1421, 1378, 1396, 1440
11260, 4447, 1376, 1358, 1401
11261, 4448, 1415, 1456, 1429
11262, 1423, 4496, 1394, 1439
11263, 1459, 1485, 1441, 1418
11264, 1380, 1379, 1400, 1419
11265, 1415, 1401, 1447, 1443
11266, 1531, 1448, 1509, 1550
11267, 1448, 1531, 1402, 4537
11268, 1445, 1420, 1403, 4555
11269, 1409, 4510, 1428, 1407
11270, 1391, 1398, 4501, 1406
11271, 1385, 1431, 1450, 1411
11272, 1390, 1374, 1417, 1436
11273, 1393, 1414, 1430, 1437
11274, 1409, 4449, 4509, 4510
11275, 1481, 1443, 1466, 1502
11276, 1412, 4583, 1369, 1432
11277, 1437, 1392, 366, 1393
11278, 1455, 1413, 1434, 1475
11279, 1456, 1415, 1443, 1481
11280, 4501, 1429, 1471, 1451
11281, 1420, 1444, 1395, 343
11282, 1440, 1416, 1461, 1484
11283, 1436, 1417, 1433, 1460
11284, 4611, 1438, 1458, 4652
11285, 1419, 1400, 1441, 1462
11286, 388, 1442, 1463, 1511
11287, 1420, 1445, 1465, 1444
11288, 1388, 4521, 1421, 1438
11289, 1458, 1438, 1421, 1440
11290, 1399, 4496, 1423, 1446
11291, 1491, 1526, 1467, 1446
11292, 4482, 1426, 321, 2171
11293, 4555, 2140, 1514, 1445
11294, 1406, 4501, 1451, 4562
11295, 1435, 1476, 1412, 1432
11296, 1453, 1457, 1430, 1414
11297, 1434, 1411, 1450, 1473
11298, 1435, 1452, 1500, 1476
11299, 1412, 1453, 1414, 4583
11300, 4612, 4611, 4652, 1482
11301, 1454, 1418, 1392, 1437
11302, 1422, 1388, 1438, 4611
11303, 1446, 1423, 1464, 1491
11304, 1444, 1461, 1416, 1395
11305, 1489, 4612, 1482, 1506
11306, 1459, 1418, 1454, 1477
11307, 1462, 1512, 1488, 1463
11308, 1447, 1401, 1424, 1468
11309, 1584, 1558, 4627, 1559
11310, 1445, 1514, 1490, 1465
11311, 1464, 1423, 1439, 1483
11312, 4600, 1448, 4537, 1508
11313, 1447, 1486, 1466, 1443
11314, 1428, 1449, 1427, 1407
11315, 1469, 1470, 359, 4562
11316, 1493, 1451, 1471, 1494
11317, 4562, 1451, 1493, 1469
11318, 1471, 1429, 1456, 1495
11319, 1454, 1437, 1430, 1457
11320, 1498, 1455, 1475, 4614
11321, 1515, 1472, 1469, 1493
11322, 1500, 1452, 1480, 4630
11323, 1478, 1477, 1454, 1457
11324, 1462, 1441, 1485, 1512
11325, 1477, 1478, 1497, 1517
11326, 1436, 1460, 1480, 1452
11327, 1487, 1444, 1465, 1510
11328, 1501, 1482, 4652, 1484
11329, 1460, 1433, 4612, 1489
11330, 1458, 1440, 1484, 4652
11331, 1511, 1463, 1488, 387
11332, 1483, 1439, 1455, 1498
11333, 1510, 1465, 1490, 342
11334, 1494, 1524, 4614, 1475
11335, 4645, 4600, 1508, 1540
11336, 1470, 4608, 4564, 359
11337, 1475, 1434, 1473, 1494
11338, 1348, 1474, 4568, 1366
11339, 1495, 1521, 1536, 1524
11340, 1479, 1478, 1457, 1453
11341, 1453, 1412, 1476, 1479
11342, 1485, 1459, 1503, 1520
11343, 1499, 1497, 1478, 1479
11344, 1496, 1480, 1460, 1489
11345, 1516, 1497, 1499, 1518
11346, 1464, 1507, 1541, 1491
11347, 1487, 1504, 1461, 1444
11348, 1484, 1461, 1504, 1501
11349, 1503, 1459, 1477, 1517
11350, 1512, 1548, 1575, 1488
11351, 1486, 1533, 1513, 1466
11352, 1502, 1466, 1513, 1532
11353, 320, 1886, 1601, 1581
11354, 1507, 1464, 1483, 1522
11355, 1508, 1467, 1526, 1540
11356, 1547, 1527, 4624, 4669
11357, 1527, 1530, 1492, 4624
11358, 1494, 1471, 1495, 1524
11359, 1495, 1456, 1481, 1521
11360, 1521, 1481, 1502, 1542
11361, 4647, 1479, 1476, 1500
11362, 4630, 1523, 4647, 1500
11363, 1521, 1542, 4596, 1536
11364, 1501, 1504, 1528, 1525
11365, 4630, 1480, 1496, 1523
11366, 1572, 1544, 1598, 1608
11367, 1504, 1487, 1534, 1528
11368, 1523, 1551, 1518, 4647
11369, 1522, 1564, 1558, 1507
11370, 1543, 1503, 1517, 1537
11371, 1534, 1487, 1510, 1529
11372, 1505, 1581, 1553, 1535
11373, 1535, 1554, 4676, 342
11374, 1489, 1506, 1519, 1496
11375, 1483, 1498, 1564, 1522
11376, 1541, 1565, 1526, 1491
11377, 1527, 1547, 1570, 4625
11378, 4669, 4624, 4645, 1540
11379, 1550, 1549, 1573, 1578
11380, 1549, 1550, 1509, 4538
11381, 1528, 1534, 1552, 1545
11382, 1901, 1511, 387, 4603
11383, 2150, 1511, 1901, 4560
11384, 1512, 1485, 1520, 1548
11385, 4492, 1532, 1513, 1555
11386, 320, 1581, 1514, 2140
11387, 1515, 1473, 1450, 1472
11388, 1537, 1517, 1497, 1516
11389, 4647, 1518, 1499, 1479
11390, 1520, 1503, 1543, 1566
11391, 1518, 1551, 1539, 1516
11392, 1506, 1525, 1544, 1519
11393, 1548, 1520, 1566, 1583
11394, 1523, 1496, 1519, 1551
11395, 4641, 4614, 1524, 1536
11396, 1571, 1572, 1608, 1587
11397, 1507, 1538, 1569, 1541
11398, 1546, 1530, 1527, 4625
11399, 1510, 342, 4676, 1529
11400, 1552, 1534, 1529, 1579
11401, 1599, 1554, 1580, 1620
11402, 1546, 4648, 1595, 4563
11403, 1509, 1492, 1530, 4538
11404, 1531, 1550, 1578, 1404
11405, 1576, 1533, 1596, 1621
11406, 4676, 1554, 1579, 1529
11407, 1564, 4641, 4627, 1558
11408, 1560, 1516, 1539, 4693
11409, 1607, 1585, 1569, 1538
11410, 1544, 1525, 1568, 1598
11411, 1547, 4669, 1567, 4683
11412, 1502, 1532, 4554, 1542
11413, 1562, 1602, 1563, 4554
11414, 1543, 1537, 1561, 4695
11415, 365, 1566, 1543, 4695
11416, 1532, 4492, 1562, 4554
11417, 1545, 1568, 1525, 1528
11418, 1612, 1608, 1598, 1568
11419, 1617, 1633, 1658, 1680
11420, 1549, 1574, 1600, 1573
11421, 1565, 1589, 1540, 1526
11422, 1547, 4683, 1590, 1570
11423, 1548, 1583, 1597, 1575
11424, 1578, 1573, 338, 1556
11425, 1519, 1544, 1572, 1551
11426, 1577, 1552, 1579, 1593
11427, 1601, 1707, 1553, 1581
11428, 1580, 1553, 1707, 341
11429, 1580, 1554, 1535, 1553
11430, 1588, 1555, 1576, 1616
11431, 1557, 4492, 1555, 1588
11432, 1556, 2134, 1895, 4360
11433, 1603, 1557, 1588, 1628
11434, 1557, 1582, 1562, 4492
11435, 1538, 1507, 1558, 1584
11436, 1542, 4554, 1563, 4596
11437, 1538, 1584, 1605, 1607
11438, 1560, 4693, 4706, 1615
11439, 1561, 1560, 1615, 1594
11440, 1586, 1605, 1584, 1559
11441, 1559, 4596, 1563, 1586
11442, 1564, 1498, 4614, 4641
11443, 1589, 1565, 1585, 1609
11444, 365, 1611, 1583, 1566
11445, 1603, 1623, 1582, 1557
11446, 1551, 1572, 1571, 1539
11447, 1577, 1592, 1545, 1552
11448, 1541, 1569, 1585, 1565
11449, 1570, 1590, 1610, 4670
11450, 1591, 4625, 1570, 4670
11451, 1539, 1571, 1587, 4693
11452, 1574, 1549, 4538, 4563
11453, 1618, 1686, 1573, 1600
11454, 1617, 1574, 4563, 1595
11455, 387, 1488, 1575, 1655
11456, 1677, 1659, 1621, 1596
11457, 1608, 1612, 1637, 1627
11458, 1593, 1579, 1554, 1599
11459, 1628, 1588, 1616, 1651
11460, 1582, 360, 1602, 1562
11461, 365, 1594, 1632, 1611
11462, 1653, 1656, 1636, 1622
11463, 1644, 4623, 1664, 1665
11464, 1641, 1642, 1625, 360
11465, 1587, 4707, 4706, 4693
11466, 1629, 1604, 1609, 1644
11467, 1604, 1629, 1645, 1606
11468, 1589, 1567, 4669, 1540
11469, 1606, 4691, 1590, 4683
11470, 1546, 4625, 1591, 4648
11471, 4648, 1613, 4649, 1595
11472, 1568, 1545, 1592, 1612
11473, 1614, 1577, 1593, 1640
11474, 1619, 1640, 1593, 1599
11475, 1614, 1630, 1592, 1577
11476, 4710, 1594, 1615, 4706
11477, 1594, 365, 4695, 1561
11478, 1633, 1617, 1595, 4649
11479, 4349, 1677, 1596, 382
11480, 1616, 1576, 1621, 1639
11481, 1636, 4664, 1597, 1622
11482, 1620, 1580, 341, 1634
11483, 1661, 1652, 1619, 1638
11484, 1707, 1601, 1729, 1687
11485, 1586, 1625, 1642, 1605
11486, 1585, 1607, 1624, 1609
11487, 1604, 1606, 4683, 1567
11488, 1604, 1567, 1589, 1609
11489, 1624, 1642, 1641, 4623
11490, 4710, 4706, 4707, 1648
11491, 1646, 1610, 1626, 1690
11492, 4678, 4670, 1610, 1646
11493, 1647, 1668, 1693, 1672
11494, 1654, 1672, 1699, 1681
11495, 1650, 1660, 1637, 1630
11496, 1587, 1608, 1627, 4707
11497, 1658, 4631, 1705, 1680
11498, 339, 1686, 1618, 1747
11499, 1634, 1662, 1638, 1620
11500, 1614, 1640, 1682, 1657
11501, 1639, 1621, 1659, 1678
11502, 1635, 1583, 1611, 1649
11503, 1670, 1700, 1656, 1653
11504, 360, 1582, 1623, 1641
11505, 1624, 1607, 1605, 1642
11506, 1625, 1586, 1563, 1602
11507, 1665, 1645, 1629, 1644
11508, 1626, 4691, 1667, 4699
11509, 1626, 1610, 1590, 4691
11510, 1630, 1637, 1612, 1592
11511, 4716, 1676, 1702, 1669
11512, 1651, 1616, 1639, 1673
11513, 1644, 1609, 1624, 4623
11514, 1623, 1603, 1643, 1664
11515, 1646, 1668, 1631, 4678
11516, 1591, 1631, 1613, 4648
11517, 4674, 1654, 1633, 4649
11518, 1633, 1654, 1681, 1658
11519, 1634, 341, 1663, 1685
11520, 1661, 1674, 1751, 1652
11521, 1649, 1611, 1632, 1695
11522, 4697, 1635, 1649, 4698
11523, 1636, 4687, 1683, 4664
11524, 1640, 1619, 1652, 1682
11525, 1697, 1723, 1751, 1674
11526, 1643, 1603, 1628, 4629
11527, 1664, 4623, 1641, 1623
11528, 1664, 1643, 1671, 1665
11529, 1671, 1688, 1689, 1666
11530, 1647, 1613, 1631, 1668
11531, 1647, 1672, 1654, 4674
11532, 1648, 4712, 4711, 4710
11533, 1627, 1637, 1660, 4709
11534, 4712, 1669, 1692, 1695
11535, 1630, 1614, 1657, 1650
11536, 1649, 1695, 1692, 4698
11537, 1679, 1676, 1650, 1657
11538, 1653, 1622, 1635, 4697
11539, 1700, 1739, 1675, 1656
11540, 1725, 1705, 4631, 1746
11541, 1680, 1705, 1618, 1600
11542, 1659, 383, 1701, 1678
11543, 1673, 1639, 1678, 4606
11544, 4709, 1669, 4712, 1648
11545, 1684, 1661, 1662, 1706
11546, 1722, 1684, 1706, 1745
11547, 1687, 1663, 341, 1707
11548, 1685, 1663, 1730, 1728
11549, 1671, 1643, 4629, 1688
11550, 1667, 4691, 1666, 1689
11551, 1709, 1667, 1689, 1716
11552, 4698, 1711, 1694, 4697
11553, 4629, 1628, 1651, 1691
11554, 1691, 1651, 1673, 1710
11555, 1676, 4716, 1660, 1650
11556, 1660, 4716, 1669, 4709
11557, 1653, 4697, 1694, 1670
11558, 1670, 1712, 1719, 1700
11559, 1645, 1665, 1671, 1666
11560, 1714, 1672, 1693, 1733
11561, 1699, 1718, 1743, 1724
11562, 4629, 1691, 4655, 1688
11563, 1751, 4715, 1682, 1652
11564, 4687, 1696, 1727, 1683
11565, 1636, 1656, 1675, 4687
11566, 1692, 1720, 1711, 4698
11567, 383, 1659, 1677, 4423
11568, 1678, 1701, 1715, 4606
11569, 1657, 1682, 4715, 1679
11570, 1679, 1717, 1698, 1676
11571, 1681, 1699, 1724, 1704
11572, 4664, 1683, 1897, 1655
11573, 1685, 1706, 1662, 1634
11574, 1728, 1745, 1706, 1685
11575, 2135, 339, 1898, 2243
11576, 338, 1573, 1686, 2162
11577, 1882, 1729, 319, 2247
11578, 4655, 1691, 1710, 4654
11579, 1709, 4700, 4699, 1667
11580, 4700, 1731, 1713, 1690
11581, 1668, 1646, 1690, 1713
11582, 1716, 4684, 1736, 1709
11583, 1702, 1720, 1692, 1669
11584, 1713, 4705, 1693, 1668
11585, 4710, 4711, 1632, 1594
11586, 1727, 1696, 386, 4668
11587, 1744, 1697, 1684, 1722
11588, 1760, 1717, 1723, 1697
11589, 1698, 1721, 1702, 1676
11590, 1714, 1718, 1699, 1672
11591, 1739, 1700, 1719, 1759
11592, 1814, 1810, 1783, 1796
11593, 1710, 1703, 1732, 4654
11594, 1740, 4606, 1715, 1757
11595, 1705, 1725, 1747, 1618
11596, 1658, 1681, 1704, 4631
11597, 1746, 4659, 1765, 1786
11598, 319, 1729, 1601, 1886
11599, 1730, 1708, 1889, 1865
11600, 1789, 1772, 1770, 1805
11601, 1719, 1712, 1754, 364
11602, 1712, 1670, 1694, 1742
11603, 1779, 1740, 1757, 1791
11604, 1718, 1714, 1738, 1761
11605, 1757, 1715, 1748, 1783
11606, 1703, 4606, 1740, 1755
11607, 1716, 1689, 1688, 4655
11608, 1773, 1735, 1721, 1756
11609, 1720, 1702, 1721, 1735
11610, 1737, 1698, 1717, 1760
11611, 1737, 1756, 1721, 1698
11612, 1744, 1741, 1760, 1697
11613, 4715, 1723, 1717, 1679
11614, 1741, 1778, 1737, 1760
11615, 1804, 1815, 1785, 1768
11616, 1704, 4659, 1746, 4631
11617, 1696, 1726, 1749, 386
11618, 1696, 4687, 1675, 1726
11619, 4626, 1892, 4603, 1897
11620, 1804, 1841, 1831, 1815
11621, 1771, 1755, 1740, 1779
11622, 1772, 1734, 1752, 1770
11623, 1753, 1775, 1731, 4700
11624, 1758, 1738, 1714, 1733
11625, 4684, 1716, 4655, 4654
11626, 4654, 1732, 1752, 4684
11627, 1734, 1772, 4703, 1736
11628, 4703, 4700, 1709, 1736
11629, 1743, 1718, 1761, 1784
11630, 1794, 1825, 1859, 1766
11631, 1792, 1758, 4702, 4692
11632, 361, 1832, 1755, 1771
11633, 1773, 1790, 1754, 1735
11634, 1735, 1742, 1711, 1720
11635, 1768, 1785, 1745, 1728
11636, 1762, 1782, 1744, 1722
11637, 1787, 1768, 1728, 1730
11638, 1844, 1841, 1842, 4686
11639, 4640, 1725, 1746, 1786
11640, 1765, 4659, 1743, 1784
11641, 1767, 1856, 1747, 1725
11642, 1701, 383, 1858, 1763
11643, 1769, 4679, 386, 1749
11644, 2157, 1892, 4626, 1750
11645, 1732, 1832, 1770, 1752
11646, 1753, 1789, 1806, 1775
11647, 1713, 1731, 1775, 4705
11648, 1732, 1703, 1755, 1832
11649, 1808, 1777, 1792, 1807
11650, 4705, 1776, 1733, 1693
11651, 361, 4680, 1819, 1805
11652, 1790, 4718, 364, 1754
11653, 1777, 1780, 1738, 1758
11654, 1744, 1782, 1764, 1741
11655, 4557, 1763, 1858, 2147
11656, 1796, 1783, 1748, 1763
11657, 1774, 1809, 1800, 1781
11658, 1799, 1764, 1795, 4719
11659, 1840, 1826, 1831, 1867
11660, 4640, 1788, 1767, 1725
11661, 1781, 1794, 1766, 1739
11662, 1749, 1726, 1766, 1859
11663, 340, 1856, 1767, 4642
11664, 4661, 4660, 1854, 1803
11665, 1791, 4665, 1820, 1779
11666, 4703, 1772, 1789, 1753
11667, 1756, 1778, 1799, 1773
11668, 1794, 1781, 1800, 1817
11669, 1774, 1759, 364, 4718
11670, 1789, 1805, 1819, 1806
11671, 1807, 1792, 4692, 4680
11672, 1733, 1776, 4702, 1758
11673, 1783, 1810, 1791, 1757
11674, 1784, 1761, 1798, 1816
11675, 1761, 1738, 1780, 4701
11676, 1762, 1785, 1815, 1801
11677, 1795, 1764, 1782, 1797
11678, 1799, 1778, 1741, 1764
11679, 1798, 1761, 4701, 1811
11680, 1867, 1863, 4708, 1840
11681, 1803, 1804, 1768, 1787
11682, 1802, 1765, 1784, 1816
11683, 4661, 1803, 1787, 1855
11684, 1788, 1857, 4642, 1767
11685, 1805, 1770, 1832, 361
11686, 4718, 1790, 1809, 1774
11687, 1773, 1799, 4719, 1790
11688, 1820, 1807, 1771, 1779
11689, 4702, 1776, 1806, 1819
11690, 1793, 1780, 1777, 1808
11691, 1837, 1817, 1839, 1849
11692, 1859, 1825, 1847, 1883
11693, 1824, 1814, 1838, 1850
11694, 1813, 1782, 1762, 1801
11695, 1809, 1833, 1823, 1800
11696, 1793, 1811, 4701, 1780
11697, 1817, 1800, 1823, 1839
11698, 1826, 1801, 1815, 1831
11699, 1786, 1765, 1802, 1818
11700, 4686, 1842, 1829, 1818
11701, 4680, 361, 1771, 1807
11702, 1775, 1806, 1776, 4705
11703, 4692, 4702, 1819, 4680
11704, 1808, 1807, 1820, 4665
11705, 1797, 1812, 4717, 1795
11706, 1811, 1793, 1821, 1836
11707, 4665, 1821, 1793, 1808
11708, 1816, 1798, 1827, 1843
11709, 1813, 1822, 1797, 1782
11710, 1834, 1839, 1823, 1812
11711, 1813, 4714, 1835, 1822
11712, 4717, 1833, 4719, 1795
11713, 1796, 1763, 4557, 1828
11714, 1828, 1838, 1814, 1796
11715, 1802, 1830, 4686, 1818
11716, 1827, 1798, 1811, 1836
11717, 1827, 1836, 362, 1851
11718, 1817, 1837, 1825, 1794
11719, 1830, 1802, 1816, 1843
11720, 4665, 1791, 1810, 1821
11721, 1824, 1821, 1810, 1814
11722, 1812, 1823, 1833, 4717
11723, 1812, 1797, 1822, 1834
11724, 1883, 1847, 1878, 385
11725, 1848, 1826, 1840, 4708
11726, 1843, 1866, 1852, 1830
11727, 1838, 1828, 1853, 1862
11728, 1829, 1842, 1854, 4660
11729, 4640, 1829, 4660, 1788
11730, 1867, 1844, 1852, 1863
11731, 1841, 1804, 1803, 1854
11732, 4719, 1833, 1809, 1790
11733, 1822, 1835, 4713, 1845
11734, 1846, 1849, 1839, 1834
11735, 1848, 1861, 4713, 1835
11736, 1836, 1821, 1824, 362
11737, 1843, 1827, 1851, 1866
11738, 363, 1868, 1869, 1860
11739, 1837, 1849, 1860, 1872
11740, 1846, 1834, 1822, 1845
11741, 1852, 1866, 4704, 1863
11742, 1875, 1874, 1880, 1871
11743, 1830, 1852, 1844, 4686
11744, 1831, 1841, 1844, 1867
11745, 1846, 1845, 4713, 363
11746, 1849, 1846, 363, 1860
11747, 1847, 1825, 1837, 1872
11748, 1848, 1835, 4714, 1826
11749, 1868, 1861, 1871, 1880
11750, 362, 1824, 1850, 1864
11751, 1853, 384, 1879, 1873
11752, 1878, 1847, 1872, 1876
11753, 1857, 1788, 4660, 4661
11754, 1865, 1855, 1787, 1730
11755, 1855, 1865, 2151, 1894
11756, 1747, 1856, 1898, 339
11757, 1894, 4642, 1857, 1855
11758, 1899, 1858, 383, 4423
11759, 4598, 2253, 2242, 4526
11760, 1769, 1749, 1859, 1883
11761, 1848, 4708, 1871, 1861
11762, 4713, 1861, 1868, 363
11763, 1850, 1838, 1862, 1870
11764, 1873, 1878, 1876, 1877
11765, 1851, 362, 1864, 4696
11766, 1874, 1875, 4696, 1864
11767, 1877, 1876, 1869, 1881
11768, 1864, 1850, 1870, 1874
11769, 1875, 1863, 4704, 4696
11770, 1878, 1873, 1879, 385
11771, 1866, 1851, 4696, 4704
11772, 1853, 1873, 1877, 1862
11773, 1869, 1868, 1880, 1881
11774, 1877, 1881, 1870, 1862
11775, 1863, 1875, 1871, 4708
11776, 2147, 2122, 384, 4557
11777, 1881, 1880, 1874, 1870
11778, 4679, 1769, 2152, 2546
11779, 4181, 1020, 1158, 2132
11780, 2262, 320, 2140, 4482
11781, 2160, 1884, 324, 2328
11782, 2256, 1092, 1888, 2321
11783, 4656, 1889, 1882, 2247
11784, 1899, 2166, 2411, 406
11785, 2557, 2303, 4644, 2154
11786, 4668, 1891, 2154, 1750
11787, 4603, 1892, 2148, 1901
11788, 1958, 34, 641, 1972
11789, 1958, 402, 2131, 1893
11790, 2400, 4632, 2151, 4656
11791, 4642, 1894, 2182, 340
11792, 1363, 337, 1895, 2175
11793, 1896, 2143, 4433, 2153
11794, 387, 1655, 1897, 4603
11795, 2410, 2168, 1900, 2155
11796, 1426, 4482, 2140, 4555
11797, 1977, 1973, 39, 664
11798, 1908, 1904, 2169, 2172
11799, 4071, 2100, 2137, 335
11800, 1906, 4040, 1977, 1902
11801, 1915, 109, 2030, 4035
11802, 2282, 1909, 1913, 595
11803, 314, 2288, 1910, 2175
11804, 1911, 2432, 2173, 1905
11805, 2189, 1953, 1912, 2178
11806, 1909, 2282, 2174, 1907
11807, 1915, 4035, 676, 48
11808, 2280, 1919, 1931, 290
11809, 1933, 245, 2192, 1952
11810, 2345, 2187, 1925, 1921
11811, 2344, 2184, 1923, 1922
11812, 1926, 1923, 2184, 494
11813, 2186, 2183, 1924, 1929
11814, 1925, 2187, 2349, 1935
11815, 1936, 1926, 494, 2193
11816, 2190, 2185, 1927, 1942
11817, 2432, 1911, 1930, 2281
11818, 589, 1928, 1932, 2284
11819, 2347, 1944, 1934, 2188
11820, 1937, 348, 2431, 1916
11821, 1979, 1938, 2194, 371
11822, 2423, 2191, 1941, 1939
11823, 1961, 633, 27, 1976
11824, 1961, 2195, 2426, 1940
11825, 583, 1965, 1941, 2191
11826, 1945, 2199, 2352, 1957
11827, 2349, 2202, 1946, 1935
11828, 1987, 1946, 2202, 129
11829, 2425, 2196, 1947, 1984
11830, 1931, 1949, 2283, 290
11831, 1975, 1952, 2192, 222
11832, 2032, 2362, 2232, 2080
11833, 595, 1913, 1954, 2286
11834, 1955, 2198, 2209, 2002
11835, 1989, 1956, 603, 2082
11836, 1959, 1988, 2206, 2421
11837, 2354, 2205, 1960, 1951
11838, 1986, 1960, 2205, 122
11839, 2427, 2195, 1961, 1976
11840, 1962, 2210, 2423, 1939
11841, 2418, 2197, 1963, 1992
11842, 1968, 1964, 2200, 448
11843, 1965, 583, 1971, 4033
11844, 703, 72, 1965, 4033
11845, 1967, 33, 639, 1969
11846, 1972, 1966, 2201, 2420
11847, 1967, 1969, 2272, 425
11848, 1968, 448, 2272, 1969
11849, 671, 44, 1981, 1970
11850, 176, 1950, 1970, 2287
11851, 1958, 1972, 2420, 402
11852, 1976, 1974, 2203, 2427
11853, 1973, 1977, 4040, 312
11854, 2285, 1978, 2000, 349
11855, 1981, 1980, 2204, 199
11856, 404, 4266, 2167, 2159
11857, 1982, 2167, 4259, 4258
11858, 2394, 2248, 2137, 2100
11859, 1986, 122, 2219, 2008
11860, 1987, 129, 2128, 2012
11861, 2422, 2206, 1988, 2047
11862, 2211, 1991, 1994, 115
11863, 1993, 2019, 2267, 2424
11864, 1995, 2011, 2213, 111
11865, 587, 2073, 1996, 2207
11866, 590, 1943, 1997, 2271
11867, 2077, 1998, 2208, 334
11868, 2016, 1999, 2801, 112
11869, 2049, 2001, 2218, 372
11870, 2057, 600, 2233, 2079
11871, 2010, 2005, 2216, 2997
11872, 2006, 2017, 2260, 353
11873, 2018, 2007, 2217, 376
11874, 2215, 2009, 2023, 374
11875, 2022, 2010, 2997, 352
11876, 114, 2279, 2013, 2033
11877, 2015, 2021, 119, 2214
11878, 2260, 2017, 2051, 354
11879, 2018, 376, 2227, 2052
11880, 125, 2267, 2019, 2034
11881, 2024, 2020, 2220, 117
11882, 2054, 3067, 2228, 2058
11883, 2297, 2215, 374, 2768
11884, 2025, 123, 2225, 2037
11885, 2026, 2036, 2264, 2419
11886, 2027, 2042, 2221, 2966
11887, 2098, 82, 713, 2120
11888, 6, 2044, 2040, 611
11889, 2035, 2030, 109, 2224
11890, 2039, 2031, 2223, 118
11891, 2043, 2035, 2224, 110
11892, 2264, 2036, 2043, 110
11893, 2045, 2037, 2225, 124
11894, 2277, 2038, 2045, 124
11895, 2041, 2039, 118, 2226
11896, 2266, 2040, 2044, 113
11897, 2046, 2041, 2226, 2417
11898, 2417, 2221, 2042, 2046
11899, 2044, 2029, 2222, 113
11900, 2047, 2078, 2268, 2422
11901, 2273, 2048, 2060, 350
11902, 2051, 2062, 2265, 354
11903, 2063, 2052, 2227, 377
11904, 2053, 289, 2416, 1985
11905, 2059, 738, 91, 2068
11906, 2055, 2059, 2229, 2998
11907, 2136, 2056, 2179, 412
11908, 2060, 2067, 2259, 350
11909, 2229, 2059, 2068, 373
11910, 2068, 2061, 2230, 373
11911, 355, 2265, 2062, 2064
11912, 2063, 377, 2231, 2065
11913, 2070, 4757, 4758, 4034
11914, 2276, 2066, 2070, 356
11915, 2228, 2259, 2067, 2058
11916, 2069, 378, 2116, 2071
11917, 2116, 378, 2275, 2110
11918, 2263, 2074, 2097, 175
11919, 2075, 584, 2415, 2014
11920, 2089, 51, 678, 2090
11921, 602, 2268, 2078, 2089
11922, 2258, 2084, 2085, 599
11923, 2257, 2083, 2094, 592
11924, 686, 57, 2092, 2081
11925, 596, 2050, 2081, 2278
11926, 591, 2072, 2083, 2257
11927, 2086, 2084, 2258, 598
11928, 2085, 2079, 2233, 599
11929, 2086, 598, 2235, 2087
11930, 2092, 2087, 2235, 597
11931, 699, 69, 2096, 2088
11932, 2075, 2088, 2899, 584
11933, 2090, 2082, 603, 2274
11934, 585, 2096, 2093, 2987
11935, 592, 2094, 2080, 2232
11936, 586, 2095, 2091, 2234
11937, 2093, 2095, 586, 2987
11938, 2096, 585, 2899, 2088
11939, 2121, 2099, 2236, 221
11940, 4098, 1114, 1109, 4129
11941, 2053, 2101, 2898, 289
11942, 175, 2097, 2102, 2270
11943, 2130, 356, 2070, 4034
11944, 108, 756, 2103, 2130
11945, 2104, 537, 3428, 2120
11946, 4054, 2808, 2105, 2113
11947, 2106, 2118, 2255, 470
11948, 2111, 707, 76, 2108
11949, 2107, 2111, 2261, 447
11950, 2108, 2117, 2269, 424
11951, 2117, 2109, 401, 2269
11952, 2115, 2112, 2238, 493
11953, 4054, 2113, 2115, 493
11954, 2114, 2119, 515, 3176
11955, 2119, 2105, 2808, 515
11956, 2253, 2122, 2147, 2242
11957, 2250, 2307, 2546, 2152
11958, 104, 751, 2129, 2123
11959, 2123, 266, 2898, 2101
11960, 2126, 2125, 2239, 244
11961, 2124, 2127, 2240, 4042
11962, 2123, 2129, 2807, 266
11963, 382, 2149, 2163, 4349
11964, 2165, 2132, 347, 4086
11965, 391, 2141, 2133, 2249
11966, 2177, 338, 2162, 2289
11967, 2134, 2177, 2323, 2158
11968, 2243, 316, 2465, 2289
11969, 2254, 389, 4432, 2136
11970, 2164, 2138, 380, 1887
11971, 1982, 2452, 2159, 2167
11972, 4266, 404, 4246, 2139
11973, 2141, 391, 2142, 1180
11974, 4341, 2241, 4433, 2143
11975, 2241, 300, 4486, 4433
11976, 2241, 4341, 2144, 2374
11977, 2434, 2667, 369, 4077
11978, 4077, 963, 2145, 2434
11979, 2245, 2176, 390, 2146
11980, 1892, 2157, 2312, 2148
11981, 2148, 2312, 410, 2315
11982, 2430, 4300, 4246, 2519
11983, 4348, 2163, 2149, 4300
11984, 2150, 4560, 2359, 2330
11985, 317, 2584, 2182, 4632
11986, 2250, 2152, 385, 1879
11987, 2557, 2154, 1891, 4679
11988, 299, 2171, 1896, 2153
11989, 4051, 2156, 4086, 347
11990, 2157, 4643, 2363, 2312
11991, 2413, 2158, 2323, 315
11992, 314, 2175, 2158, 2413
11993, 2256, 2321, 4372, 2251
11994, 2433, 2328, 324, 2161
11995, 1890, 4349, 2163, 2442
11996, 2164, 2409, 4100, 2452
11997, 2335, 2131, 402, 2409
11998, 2161, 2165, 325, 2433
11999, 2343, 4086, 2156, 2431
12000, 4259, 2167, 4266, 2139
12001, 4068, 4067, 4112, 2505
12002, 2172, 2169, 2317, 2379
12003, 130, 2317, 2169, 2170
12004, 2170, 2173, 2301, 130
12005, 2171, 2435, 2262, 4482
12006, 153, 2301, 2173, 2432
12007, 4257, 2290, 413, 2567
12008, 2323, 2177, 2686, 315
12009, 2178, 594, 2318, 2189
12010, 411, 2540, 2179, 2330
12011, 267, 2311, 2180, 2429
12012, 4041, 2180, 2311, 2569
12013, 2310, 2181, 298, 2888
12014, 1920, 1918, 2180, 4041
12015, 340, 2182, 2584, 2246
12016, 2182, 1894, 2151, 4632
12017, 2183, 2186, 538, 2292
12018, 516, 2344, 2183, 2292
12019, 516, 2372, 2184, 2344
12020, 2294, 2185, 2190, 126
12021, 2443, 2187, 2345, 127
12022, 2349, 2187, 128, 2537
12023, 2347, 2188, 2549, 588
12024, 2368, 2203, 583, 2191
12025, 2346, 2192, 245, 2571
12026, 2628, 2426, 2195, 561
12027, 2384, 2274, 603, 2196
12028, 2197, 2418, 120, 2319
12029, 2209, 2198, 601, 2296
12030, 2309, 2201, 425, 2473
12031, 2420, 2201, 2309, 2530
12032, 2537, 2470, 2587, 2390
12033, 2504, 2466, 2858, 2377
12034, 588, 2324, 2207, 2347
12035, 2454, 2850, 2482, 2316
12036, 4091, 2520, 2476, 137
12037, 2098, 560, 2212, 2028
12038, 2570, 2313, 2213, 2419
12039, 2997, 2216, 2298, 2777
12040, 2334, 2217, 375, 2467
12041, 2528, 116, 2401, 2592
12042, 2568, 2308, 2221, 2417
12043, 2332, 2222, 112, 2572
12044, 109, 2172, 2379, 2224
12045, 2341, 2226, 118, 2478
12046, 2259, 2228, 351, 2339
12047, 2305, 2229, 373, 2472
12048, 2338, 2230, 372, 2488
12049, 377, 2514, 2388, 2231
12050, 2306, 2232, 2362, 593
12051, 2327, 2233, 600, 2462
12052, 584, 2899, 2295, 2457
12053, 289, 2898, 2293, 2456
12054, 2300, 2987, 586, 2468
12055, 334, 2483, 2382, 2237
12056, 560, 3428, 2302, 2460
12057, 2325, 2239, 221, 4070
12058, 4341, 2143, 322, 1135
12059, 2400, 4656, 2247, 318
12060, 2242, 1899, 406, 4526
12061, 2406, 4598, 4526, 406
12062, 391, 2249, 2682, 2329
12063, 2145, 2244, 392, 2434
12064, 2146, 2254, 2357, 2245
12065, 413, 2290, 2245, 2357
12066, 2246, 2584, 2436, 2322
12067, 2395, 2248, 2394, 4072
12068, 312, 4040, 2248, 2395
12069, 2459, 2682, 2249, 2383
12070, 2122, 2253, 2307, 2250
12071, 323, 2256, 2251, 2144
12072, 2562, 2374, 301, 2674
12073, 319, 1886, 2252, 2371
12074, 407, 2291, 2253, 4598
12075, 2357, 412, 2567, 413
12076, 302, 2321, 2160, 2328
12077, 2337, 2257, 592, 2474
12078, 298, 2181, 2262, 2435
12079, 2522, 2512, 4097, 2779
12080, 2369, 2280, 290, 2500
12081, 267, 2429, 2280, 2369
12082, 2432, 2281, 2550, 153
12083, 2598, 2389, 2477, 569
12084, 313, 1910, 2288, 2399
12085, 2686, 2177, 2289, 2465
12086, 2548, 2383, 2290, 4257
12087, 4616, 2448, 2882, 2666
12088, 2293, 2898, 266, 2969
12089, 126, 2561, 4143, 2294
12090, 2844, 2443, 127, 2605
12091, 584, 2457, 2439, 2415
12092, 2296, 601, 2576, 2621
12093, 2462, 2296, 2621, 579
12094, 2297, 2623, 4102, 2467
12095, 2777, 2298, 2622, 330
12096, 142, 2891, 2747, 2607
12097, 2610, 2461, 2299, 2749
12098, 2764, 585, 2785, 564
12099, 2302, 2769, 4094, 2617
12100, 2875, 2746, 2444, 2597
12101, 2777, 2790, 352, 2997
12102, 2641, 2475, 351, 2304
12103, 2787, 2768, 374, 2998
12104, 2474, 2306, 2643, 571
12105, 592, 2232, 2306, 2474
12106, 2560, 408, 4646, 2291
12107, 298, 2702, 2983, 2888
12108, 2252, 2310, 4662, 297
12109, 2757, 2313, 2619, 2916
12110, 2600, 2449, 2314, 2439
12111, 2423, 2210, 2314, 2539
12112, 1901, 2148, 2315, 4560
12113, 2554, 2359, 4560, 2315
12114, 288, 2602, 2440, 2456
12115, 2352, 2199, 2316, 2482
12116, 2852, 2460, 2302, 2617
12117, 2318, 594, 2445, 2670
12118, 2461, 2319, 120, 2299
12119, 121, 2614, 2466, 2504
12120, 2555, 2320, 2206, 2422
12121, 2588, 2565, 2320, 2994
12122, 128, 2187, 2443, 2585
12123, 2470, 128, 2585, 4087
12124, 3483, 2789, 301, 4372
12125, 2322, 316, 2243, 1898
12126, 587, 2207, 2324, 2492
12127, 244, 2239, 2325, 2574
12128, 493, 2238, 2326, 2575
12129, 2494, 2327, 2654, 578
12130, 2437, 2414, 2329, 2682
12131, 2798, 2459, 2590, 414
12132, 586, 2234, 2331, 2468
12133, 2498, 2332, 2652, 135
12134, 2333, 2544, 4089, 2665
12135, 221, 2236, 2333, 4070
12136, 353, 2260, 2336, 2463
12137, 2501, 2337, 2650, 570
12138, 2472, 2338, 2644, 396
12139, 2507, 2339, 2648, 328
12140, 2340, 2509, 2657, 2822
12141, 2699, 2568, 2341, 2625
12142, 2860, 2342, 2494, 578
12143, 2649, 2496, 2342, 2860
12144, 2343, 2508, 4132, 2412
12145, 222, 2192, 2346, 2495
12146, 2569, 2571, 245, 4041
12147, 2629, 2348, 2498, 135
12148, 2611, 2350, 2501, 570
12149, 2477, 2350, 2611, 569
12150, 2351, 2510, 2632, 2835
12151, 2645, 2353, 2497, 449
12152, 425, 2272, 2353, 2473
12153, 2355, 2480, 2612, 2578
12154, 4088, 197, 4079, 2558
12155, 2640, 2356, 2506, 148
12156, 2563, 2579, 2561, 126
12157, 2358, 2516, 2661, 2823
12158, 2315, 410, 4552, 2554
12159, 2676, 2360, 2515, 333
12160, 2490, 2360, 2676, 2826
12161, 409, 2444, 2458, 2553
12162, 2363, 409, 2553, 4594
12163, 2737, 2364, 2507, 328
12164, 2618, 2489, 2364, 2737
12165, 394, 2825, 2365, 2491
12166, 2366, 2484, 2624, 2705
12167, 2555, 2366, 2705, 2464
12168, 2367, 2496, 2782, 2642
12169, 2512, 2367, 2642, 4097
12170, 2449, 2589, 2539, 2314
12171, 2556, 2589, 2471, 561
12172, 2407, 2500, 290, 2283
12173, 2370, 2482, 2850, 2784
12174, 2405, 2371, 2566, 296
12175, 494, 2184, 2372, 2481
12176, 516, 2559, 2573, 2372
12177, 2373, 2518, 2647, 2848
12178, 300, 2241, 2374, 2562
12179, 2476, 2375, 2604, 137
12180, 2677, 2376, 2524, 400
12181, 2516, 2376, 2677, 2824
12182, 2377, 2634, 2503, 122
12183, 2378, 2517, 2636, 2836
12184, 2224, 2379, 2510, 110
12185, 2380, 2495, 2793, 2646
12186, 2511, 2380, 2646, 4096
12187, 2381, 2526, 2662, 2847
12188, 2515, 2382, 2483, 333
12189, 2590, 2459, 2383, 2548
12190, 2581, 2538, 2450, 2601
12191, 2581, 2484, 2384, 2538
12192, 2385, 2522, 2779, 4120
12193, 2385, 2753, 2523, 596
12194, 3094, 2864, 2659, 2839
12195, 2599, 2387, 2525, 472
12196, 2497, 2387, 2599, 449
12197, 2524, 2388, 2514, 400
12198, 2202, 2349, 2537, 2390
12199, 2583, 2550, 2513, 177
12200, 2391, 2528, 2594, 2827
12201, 2603, 2392, 2505, 393
12202, 2392, 2603, 2832, 2491
12203, 2393, 2489, 2743, 2631
12204, 2508, 2393, 2631, 4132
12205, 2854, 2549, 2479, 568
12206, 2535, 4072, 2399, 4103
12207, 2396, 2523, 2753, 2639
12208, 2541, 2396, 2639, 574
12209, 2397, 2532, 2593, 4154
12210, 2398, 2503, 2591, 4153
12211, 2535, 291, 2500, 2407
12212, 2533, 2667, 2434, 392
12213, 2405, 2441, 318, 2247
12214, 2853, 2401, 2520, 4091
12215, 2402, 2511, 4096, 2859
12216, 2596, 2513, 2402, 2859
12217, 2595, 2403, 2481, 495
12218, 2525, 2403, 2595, 472
12219, 314, 2413, 2529, 2404
12220, 2404, 292, 2690, 2531
12221, 2406, 406, 2411, 4508
12222, 2527, 2635, 4597, 2406
12223, 2408, 403, 2552, 2626
12224, 2451, 4508, 2411, 2442
12225, 325, 2165, 2412, 4180
12226, 2450, 2212, 560, 2460
12227, 2606, 2414, 2437, 2700
12228, 601, 2198, 2421, 2565
12229, 126, 2190, 2424, 2563
12230, 2450, 2538, 2425, 2212
12231, 538, 2186, 2426, 2628
12232, 561, 2195, 2427, 2556
12233, 2521, 299, 2542, 2663
12234, 299, 2153, 4487, 2542
12235, 2430, 2519, 2664, 2536
12236, 2613, 2534, 2818, 303
12237, 2698, 2584, 317, 2972
12238, 316, 2322, 2436, 4462
12239, 2437, 2798, 4250, 2700
12240, 2806, 4224, 2606, 415
12241, 2438, 317, 4632, 2400
12242, 2450, 2460, 2852, 2601
12243, 2439, 2457, 2851, 2600
12244, 2405, 296, 2694, 2441
12245, 2694, 2774, 295, 2980
12246, 2442, 2163, 4348, 2451
12247, 2605, 127, 2294, 4143
12248, 2585, 2443, 2844, 150
12249, 2608, 2458, 2444, 2746
12250, 2386, 2864, 2445, 594
12251, 2670, 2683, 572, 2577
12252, 2446, 130, 2301, 2681
12253, 2510, 2685, 131, 2632
12254, 303, 2843, 2447, 2613
12255, 4597, 407, 4598, 2406
12256, 2560, 2666, 2875, 2597
12257, 562, 2471, 2589, 2449
12258, 2581, 582, 2624, 2484
12259, 2536, 2684, 405, 2430
12260, 2689, 2527, 2451, 4424
12261, 403, 2159, 2452, 4100
12262, 2607, 2453, 141, 2796
12263, 2453, 2308, 2568, 2699
12264, 267, 2369, 2855, 2455
12265, 2794, 562, 2814, 3020
12266, 2692, 2553, 2458, 4637
12267, 2682, 2459, 2798, 2437
12268, 2804, 4108, 4092, 582
12269, 2319, 2761, 2614, 121
12270, 2634, 2377, 2858, 2723
12271, 132, 2619, 2469, 2902
12272, 2517, 2587, 151, 2636
12273, 2471, 562, 2794, 2803
12274, 2473, 426, 2630, 2309
12275, 329, 2856, 2475, 2641
12276, 2604, 2375, 2485, 136
12277, 2592, 2401, 2853, 2744
12278, 2389, 2284, 590, 2477
12279, 2479, 2389, 2598, 568
12280, 2549, 2854, 2582, 588
12281, 2551, 2480, 175, 2270
12282, 2485, 2348, 2629, 136
12283, 2559, 2668, 4128, 517
12284, 2756, 2361, 2487, 399
12285, 2638, 2490, 2826, 332
12286, 4149, 566, 2752, 2653
12287, 2656, 2493, 220, 2751
12288, 2499, 469, 2658, 2326
12289, 392, 2414, 2502, 2533
12290, 145, 2591, 2503, 2634
12291, 2356, 2640, 2579, 2563
12292, 2823, 2657, 2509, 2358
12293, 4120, 2779, 2703, 4144
12294, 2661, 2516, 2824, 423
12295, 2517, 152, 2390, 2587
12296, 2647, 2518, 139, 2711
12297, 404, 2408, 2519, 4246
12298, 2663, 2701, 2702, 2521
12299, 4154, 2662, 2526, 2397
12300, 2635, 2527, 2783, 4529
12301, 138, 2594, 2528, 2592
12302, 292, 2404, 2529, 2691
12303, 2812, 2552, 403, 4100
12304, 2409, 2530, 2812, 4100
12305, 2399, 2288, 2531, 4103
12306, 4153, 2593, 2532, 2398
12307, 325, 4180, 2534, 2613
12308, 412, 2179, 2540, 2792
12309, 2540, 411, 4488, 2655
12310, 2839, 2659, 574, 2886
12311, 2663, 2542, 4543, 2701
12312, 2543, 567, 2811, 2660
12313, 2544, 198, 2558, 4079
12314, 3112, 276, 277, 3091
12315, 2303, 2557, 408, 4667
12316, 2651, 2686, 2465, 2586
12317, 2696, 3006, 2590, 2548
12318, 2484, 602, 2274, 2384
12319, 2550, 2583, 2564, 153
12320, 4085, 2378, 2836, 174
12321, 2626, 2552, 2719, 4192
12322, 2672, 4552, 410, 4594
12323, 2672, 4594, 2553, 2692
12324, 2672, 4558, 2885, 4552
12325, 2589, 2556, 2368, 2539
12326, 386, 4679, 1891, 4668
12327, 2558, 2355, 2578, 4088
12328, 2697, 2608, 2746, 431
12329, 2307, 4646, 408, 2546
12330, 4143, 2716, 2844, 2605
12331, 2565, 2588, 2576, 601
12332, 2791, 2609, 4257, 2567
12333, 246, 2571, 2569, 2841
12334, 2318, 2670, 2577, 593
12335, 2351, 2835, 2469, 2570
12336, 2652, 3295, 2758, 4152
12337, 2828, 2778, 2620, 2573
12338, 2815, 2797, 2621, 2576
12339, 2306, 593, 2577, 2643
12340, 2612, 2741, 2967, 2578
12341, 4079, 4107, 4089, 2544
12342, 2640, 2730, 4287, 2579
12343, 149, 2561, 2579, 4287
12344, 4462, 2733, 2805, 2586
12345, 4462, 2436, 2580, 2733
12346, 2829, 2582, 2854, 4278
12347, 567, 2543, 2582, 2829
12348, 154, 2564, 2583, 2820
12349, 2687, 2972, 317, 2438
12350, 4124, 4087, 2585, 150
12351, 4222, 150, 2925, 3479
12352, 2733, 2873, 4407, 4375
12353, 2587, 2470, 4087, 151
12354, 4093, 2588, 2994, 2464
12355, 2727, 2591, 145, 3128
12356, 2593, 4153, 146, 2717
12357, 2914, 2744, 2853, 4113
12358, 2662, 4154, 147, 2704
12359, 2726, 2594, 138, 2905
12360, 2596, 2859, 2724, 4134
12361, 2560, 2597, 4667, 408
12362, 2599, 472, 4168, 2748
12363, 562, 2449, 2600, 2814
12364, 582, 2581, 2601, 2804
12365, 4125, 2603, 393, 2688
12366, 2832, 2603, 4125, 2750
12367, 3135, 2696, 2609, 436
12368, 2799, 2610, 2891, 3156
12369, 174, 2612, 2480, 4085
12370, 2788, 2614, 2761, 4208
12371, 4204, 2466, 2614, 2788
12372, 2851, 2615, 563, 3020
12373, 2616, 2755, 2776, 4190
12374, 2628, 2803, 2486, 538
12375, 2736, 2618, 2737, 3008
12376, 2618, 327, 2743, 2489
12377, 2619, 132, 2762, 2916
12378, 495, 2481, 2620, 4101
12379, 2624, 582, 4092, 2729
12380, 2625, 4151, 2763, 2699
12381, 2664, 2626, 427, 4248
12382, 2519, 2408, 2626, 2664
12383, 2720, 2627, 565, 4182
12384, 333, 2784, 2754, 2676
12385, 333, 2483, 2370, 2784
12386, 2719, 2630, 426, 4157
12387, 2631, 2743, 2767, 326
12388, 4132, 2631, 326, 4179
12389, 2632, 131, 2728, 2835
12390, 2725, 2633, 396, 2939
12391, 2768, 2787, 397, 3386
12392, 430, 2448, 2635, 4529
12393, 2448, 4616, 4597, 2635
12394, 2706, 2636, 151, 2833
12395, 2836, 2636, 2706, 2957
12396, 223, 4095, 2637, 2775
12397, 2638, 332, 2759, 2834
12398, 4145, 2639, 2753, 575
12399, 2760, 399, 2857, 4135
12400, 2640, 148, 4221, 2730
12401, 2790, 2715, 2641, 2304
12402, 4097, 2642, 576, 4127
12403, 395, 2959, 2739, 2644
12404, 2645, 449, 2943, 2742
12405, 2646, 2793, 2712, 4133
12406, 200, 4096, 2646, 4133
12407, 4130, 2856, 3116, 2731
12408, 2721, 2649, 2860, 3115
12409, 2649, 577, 2782, 2496
12410, 2547, 2651, 2842, 293
12411, 565, 2627, 2653, 2752
12412, 2861, 2654, 579, 2945
12413, 2655, 4488, 2885, 4483
12414, 2780, 434, 2984, 435
12415, 2822, 4122, 2713, 3073
12416, 4122, 2822, 2657, 2823
12417, 400, 2756, 2734, 2677
12418, 2864, 3094, 2709, 2445
12419, 4090, 2659, 2864, 2386
12420, 2492, 2660, 4172, 566
12421, 2661, 423, 2707, 446
12422, 2536, 4248, 2837, 4311
12423, 2665, 4089, 4159, 2809
12424, 220, 2493, 2665, 2809
12425, 4543, 2428, 277, 276
12426, 2882, 2448, 430, 3010
12427, 369, 2667, 4112, 4067
12428, 2668, 2486, 539, 4128
12429, 2838, 2964, 4128, 539
12430, 268, 2831, 2455, 2855
12431, 2669, 2455, 2831, 4126
12432, 2670, 2445, 2709, 2683
12433, 2871, 4671, 2946, 273
12434, 2871, 2830, 2671, 4671
12435, 2950, 133, 3056, 2673
12436, 2695, 4544, 2816, 2545
12437, 4104, 2802, 2675, 291
12438, 2826, 2676, 2754, 2924
12439, 2862, 265, 2969, 2678
12440, 2678, 2969, 266, 2807
12441, 2970, 2679, 2863, 514
12442, 2679, 2970, 2808, 4054
12443, 2680, 2921, 2791, 2567
12444, 2681, 2766, 2867, 2446
12445, 573, 2813, 2683, 2709
12446, 4424, 405, 2684, 2689
12447, 131, 2685, 2446, 2867
12448, 3107, 4471, 2972, 295
12449, 2849, 2750, 4125, 2878
12450, 2802, 4104, 2690, 2929
12451, 2881, 455, 4666, 432
12452, 2672, 2692, 433, 4558
12453, 2693, 2907, 2818, 2534
12454, 2695, 2562, 2674, 4544
12455, 3006, 2865, 414, 2590
12456, 2881, 2697, 2986, 4682
12457, 415, 2606, 2700, 2884
12458, 2701, 2708, 275, 2702
12459, 2893, 3125, 576, 2710
12460, 4175, 2887, 4144, 2703
12461, 3064, 2920, 4220, 2704
12462, 2464, 2705, 581, 4093
12463, 2707, 2937, 422, 3093
12464, 2823, 2661, 446, 4122
12465, 2708, 3033, 3122, 275
12466, 3120, 577, 2942, 3220
12467, 2710, 3120, 3023, 2893
12468, 2711, 139, 2897, 3021
12469, 3021, 3208, 3036, 2711
12470, 3052, 2713, 2932, 445
12471, 4199, 4145, 4144, 2887
12472, 3015, 2714, 4199, 4307
12473, 329, 2641, 2715, 2922
12474, 2717, 146, 2940, 4245
12475, 4245, 2935, 147, 2717
12476, 571, 2643, 2718, 2944
12477, 2645, 2742, 4157, 426
12478, 3165, 2720, 4182, 3049
12479, 564, 2785, 2720, 3165
12480, 578, 2961, 3115, 2860
12481, 2928, 2722, 394, 3051
12482, 418, 2959, 3050, 4225
12483, 2992, 144, 2912, 167
12484, 2723, 2992, 3029, 2913
12485, 3121, 200, 4133, 2938
12486, 3172, 2725, 3062, 420
12487, 3022, 2897, 139, 2827
12488, 3128, 145, 2913, 3133
12489, 2727, 3055, 2940, 146
12490, 4155, 2766, 154, 2820
12491, 3001, 2902, 2728, 2889
12492, 3114, 2729, 4092, 2910
12493, 4327, 2993, 3554, 2974
12494, 3031, 3250, 2731, 3116
12495, 570, 2650, 2732, 2926
12496, 4375, 4407, 294, 2876
12497, 2734, 2937, 2824, 2677
12498, 2735, 3079, 4215, 2979
12499, 492, 2658, 2735, 2979
12500, 327, 2618, 2736, 3082
12501, 3026, 3162, 2936, 158
12502, 2738, 3162, 3026, 2901
12503, 2939, 2739, 3077, 419
12504, 472, 2595, 2740, 4168
12505, 2923, 3123, 495, 4101
12506, 2765, 2611, 570, 3150
12507, 4187, 4117, 2967, 2999
12508, 4247, 2952, 4305, 427
12509, 2767, 2743, 327, 4210
12510, 3223, 2914, 2880, 160
12511, 558, 4123, 3032, 4191
12512, 2745, 559, 2617, 4094
12513, 2749, 2747, 2891, 2610
12514, 449, 2599, 2748, 2943
12515, 2930, 3096, 4168, 2740
12516, 2299, 2214, 119, 2749
12517, 2878, 4125, 2688, 2806
12518, 2928, 3051, 2955, 417
12519, 2978, 2751, 3081, 242
12520, 243, 2656, 2751, 2978
12521, 2752, 2960, 2933, 565
12522, 2924, 2754, 2870, 310
12523, 2755, 265, 3145, 2776
12524, 422, 2869, 2760, 3034
12525, 133, 2950, 2757, 2916
12526, 2758, 3164, 3042, 2936
12527, 2918, 331, 3028, 3697
12528, 2834, 2759, 3028, 331
12529, 398, 2896, 2991, 4135
12530, 2756, 399, 2869, 2734
12531, 4208, 2761, 143, 2982
12532, 2883, 2762, 132, 4270
12533, 2916, 2762, 3144, 133
12534, 2763, 4151, 2919, 3070
12535, 141, 2988, 2906, 2796
12536, 2615, 2904, 2772, 563
12537, 2889, 2867, 2766, 4155
12538, 3305, 3080, 3253, 3490
12539, 3172, 3014, 3386, 397
12540, 3231, 2770, 3014, 3260
12541, 2629, 135, 3162, 2738
12542, 2595, 495, 3123, 2740
12543, 330, 2622, 2773, 3166
12544, 3087, 3206, 295, 2774
12545, 2990, 246, 2977, 247
12546, 2892, 3013, 3242, 3279
12547, 2778, 3037, 4101, 2620
12548, 2964, 2985, 517, 4128
12549, 2779, 4097, 4127, 2703
12550, 2540, 2655, 2780, 2792
12551, 3255, 3065, 2781, 428
12552, 2782, 577, 3120, 2710
12553, 2948, 429, 2781, 3065
12554, 2941, 2870, 311, 2810
12555, 2785, 2300, 2627, 2720
12556, 2786, 3025, 2917, 4296
12557, 568, 2598, 2786, 4296
12558, 2787, 2305, 2633, 397
12559, 2890, 2982, 143, 2799
12560, 2788, 4208, 2982, 2912
12561, 2789, 3483, 3246, 3340
12562, 352, 2790, 2304, 3067
12563, 436, 2609, 2791, 3103
12564, 4095, 2793, 2495, 2346
12565, 223, 2712, 2793, 4095
12566, 3066, 2803, 2794, 2947
12567, 3194, 3092, 456, 4634
12568, 2996, 2795, 4666, 3092
12569, 3017, 3216, 2796, 2906
12570, 580, 2953, 2981, 2815
12571, 2981, 3053, 2797, 2815
12572, 4163, 3216, 3017, 3159
12573, 3012, 2890, 2799, 3156
12574, 2801, 4052, 2950, 2673
12575, 2802, 2929, 3131, 2675
12576, 539, 2486, 2803, 3066
12577, 2804, 2601, 2852, 559
12578, 4123, 4108, 2915, 3032
12579, 2842, 4375, 2876, 293
12580, 2651, 2586, 2805, 2842
12581, 2806, 415, 2894, 4256
12582, 4214, 3063, 4188, 2965
12583, 2960, 4172, 3126, 543
12584, 4172, 2660, 2811, 3126
12585, 2949, 2813, 2866, 549
12586, 2931, 2816, 4544, 4567
12587, 3003, 2929, 2817, 2976
12588, 4134, 2973, 177, 2596
12589, 2821, 573, 2927, 550
12590, 2822, 469, 2499, 2340
12591, 2825, 395, 2488, 2365
12592, 2827, 139, 2518, 2391
12593, 4278, 3041, 4330, 2829
12594, 2830, 2871, 2872, 296
12595, 268, 2908, 4126, 2831
12596, 394, 2491, 2832, 3051
12597, 2771, 2604, 136, 2989
12598, 4124, 150, 4222, 2833
12599, 2834, 331, 2463, 2336
12600, 174, 2836, 2957, 2874
12601, 2551, 2378, 4085, 2480
12602, 4305, 2952, 3118, 3039
12603, 3039, 3255, 2837, 4305
12604, 2840, 580, 2588, 4093
12605, 3114, 3044, 581, 2729
12606, 2841, 2669, 4126, 246
12607, 3246, 4297, 3059, 279
12608, 302, 2447, 2843, 4297
12609, 4192, 4247, 427, 2626
12610, 4605, 2996, 3194, 2958
12611, 2847, 148, 2506, 2381
12612, 2848, 140, 2478, 2373
12613, 2849, 3111, 2955, 2750
12614, 2786, 2598, 569, 3106
12615, 2810, 2454, 2602, 288
12616, 2454, 2810, 311, 2850
12617, 4113, 2853, 4091, 137
12618, 4278, 2854, 568, 3041
12619, 2820, 2583, 177, 2973
12620, 2648, 2475, 2856, 4130
12621, 2760, 4135, 2991, 3034
12622, 144, 2858, 2466, 4204
12623, 2723, 2858, 144, 2992
12624, 2724, 200, 3121, 4194
12625, 2969, 265, 2755, 2293
12626, 438, 4273, 3099, 4358
12627, 550, 3097, 2866, 2821
12628, 2868, 3170, 3105, 4681
12629, 3105, 2986, 2697, 4681
12630, 273, 2946, 3009, 3245
12631, 2872, 3110, 3087, 2774
12632, 3107, 3083, 2873, 4471
12633, 4407, 2873, 3083, 294
12634, 2999, 4205, 173, 3276
12635, 3072, 2995, 305, 4281
12636, 3078, 2877, 2948, 3203
12637, 416, 2849, 2878, 3000
12638, 2879, 3139, 3106, 2765
12639, 3223, 3024, 2744, 2914
12640, 2771, 2880, 2914, 4113
12641, 4666, 455, 3181, 3092
12642, 2666, 2882, 4663, 2875
12643, 4270, 132, 2902, 3001
12644, 3011, 3154, 3285, 3273
12645, 4552, 2885, 4488, 2554
12646, 2934, 3089, 4155, 2820
12647, 3156, 2891, 142, 3257
12648, 4260, 3038, 2975, 287
12649, 2975, 4190, 2892, 287
12650, 3125, 2893, 3137, 3018
12651, 4256, 3102, 3142, 3000
12652, 3000, 2878, 2806, 4256
12653, 4134, 2895, 3132, 2973
12654, 3208, 3021, 3232, 4211
12655, 2901, 4227, 4162, 2738
12656, 540, 2947, 2903, 3225
12657, 563, 2772, 2903, 3020
12658, 2904, 2764, 564, 3160
12659, 3022, 2726, 3086, 3213
12660, 2818, 2907, 3060, 303
12661, 2909, 306, 3196, 3008
12662, 4130, 2909, 328, 2648
12663, 3044, 3114, 558, 4156
12664, 2925, 150, 2844, 2974
12665, 4205, 3282, 3002, 173
12666, 3228, 4330, 3041, 545
12667, 4296, 2917, 4356, 545
12668, 3027, 3646, 3388, 3263
12669, 140, 2848, 3036, 2919
12670, 2988, 3070, 3261, 3226
12671, 4221, 4220, 2920, 4290
12672, 2993, 4291, 3718, 3554
12673, 435, 2984, 3088, 4418
12674, 3103, 2791, 2921, 3007
12675, 307, 3031, 3116, 2922
12676, 3123, 2923, 3138, 3040
12677, 4146, 3035, 4183, 3236
12678, 4324, 3479, 3098, 173
12679, 547, 3403, 4326, 2926
12680, 3094, 2927, 573, 2709
12681, 2928, 3224, 3050, 2722
12682, 3096, 2930, 473, 3240
12683, 3174, 4607, 3219, 3274
12684, 4241, 3243, 3049, 4182
12685, 3089, 3001, 2889, 4155
12686, 3064, 2935, 170, 3193
12687, 2938, 201, 3221, 3121
12688, 3233, 3062, 419, 3327
12689, 2940, 169, 3084, 4245
12690, 310, 2870, 2941, 4238
12691, 3220, 2942, 554, 3237
12692, 2944, 548, 3046, 2732
12693, 3057, 3119, 224, 3204
12694, 2945, 556, 3071, 2861
12695, 2946, 2800, 3532, 274
12696, 111, 2757, 2950, 4052
12697, 544, 3090, 2951, 3228
12698, 2951, 567, 2829, 4330
12699, 2981, 2953, 4184, 557
12700, 2742, 2954, 2845, 4157
12701, 2706, 2833, 4222, 2911
12702, 2958, 3194, 4634, 3141
12703, 3141, 3085, 3095, 2958
12704, 395, 2825, 3076, 2959
12705, 3077, 418, 4342, 3209
12706, 4160, 3115, 2961, 555
12707, 469, 2822, 3073, 2962
12708, 518, 2985, 2964, 3058
12709, 4188, 4118, 4117, 2965
12710, 2967, 4117, 4088, 2578
12711, 4205, 2741, 2874, 3282
12712, 2968, 4193, 3149, 3075
12713, 2971, 491, 3147, 3074
12714, 295, 2972, 2687, 2980
12715, 3132, 2895, 178, 4249
12716, 3151, 2976, 3047, 4237
12717, 269, 3003, 2976, 3151
12718, 2968, 2978, 242, 4193
12719, 3079, 2735, 2962, 468
12720, 491, 2971, 2979, 4215
12721, 3135, 436, 4429, 3048
12722, 2983, 2702, 275, 3043
12723, 3085, 2984, 434, 3095
12724, 3037, 2778, 3153, 3375
12725, 4681, 431, 4663, 2868
12726, 454, 3528, 3187, 4682
12727, 2906, 2988, 3226, 164
12728, 3034, 2991, 3155, 3372
12729, 3218, 3029, 2992, 167
12730, 4291, 4290, 3069, 3718
12731, 305, 2995, 3082, 3158
12732, 433, 2795, 2996, 4605
12733, 3002, 3282, 2874, 2957
12734, 4187, 2999, 3276, 4189
12735, 3308, 416, 3189, 3500
12736, 155, 4270, 3001, 3089
12737, 4324, 173, 3002, 2911
12738, 3109, 3130, 269, 4200
12739, 3130, 3005, 3003, 269
12740, 3004, 293, 2876, 3198
12741, 3130, 2908, 268, 3005
12742, 3131, 3005, 268, 2855
12743, 3006, 2696, 3135, 437
12744, 3099, 4357, 437, 3332
12745, 3264, 4497, 3354, 4457
12746, 3143, 3103, 3007, 3354
12747, 3158, 3008, 3196, 4171
12748, 252, 4650, 3161, 3572
12749, 3129, 3376, 430, 4529
12750, 3105, 3170, 3269, 2986
12751, 546, 2879, 3281, 3259
12752, 3144, 3011, 3273, 3534
12753, 3257, 3124, 3012, 3156
12754, 3242, 3013, 3379, 3612
12755, 3386, 3014, 2770, 2623
12756, 420, 3260, 3014, 3172
12757, 167, 2912, 2982, 3127
12758, 3125, 3018, 4233, 4174
12759, 4334, 4333, 4282, 4335
12760, 2772, 2904, 3160, 3019
12761, 3265, 3402, 3019, 3160
12762, 3036, 3208, 4161, 2919
12763, 3086, 2726, 2905, 3188
12764, 2897, 3022, 3213, 162
12765, 3023, 3120, 3220, 4173
12766, 3025, 2786, 3106, 3139
12767, 3267, 3217, 3361, 3389
12768, 4293, 3249, 2901, 3026
12769, 3027, 3263, 3166, 2773
12770, 3035, 4146, 2759, 332
12771, 2913, 3029, 168, 3133
12772, 255, 3777, 3219, 3030
12773, 3031, 307, 3442, 3250
12774, 536, 3383, 4141, 2745
12775, 3032, 4142, 3254, 4191
12776, 4147, 4146, 3236, 4198
12777, 3037, 496, 2923, 4101
12778, 2941, 2810, 3038, 4260
12779, 451, 3065, 3255, 3039
12780, 3138, 3199, 4209, 3040
12781, 473, 2930, 3040, 4209
12782, 3164, 2758, 3295, 134
12783, 157, 3222, 3042, 3164
12784, 3043, 3157, 3258, 3400
12785, 3043, 3400, 3532, 2983
12786, 581, 3044, 2840, 4093
12787, 308, 3227, 307, 3045
12788, 270, 4202, 4237, 4271
12789, 3323, 3475, 3048, 4429
12790, 437, 3135, 3048, 3247
12791, 3165, 3265, 3160, 564
12792, 3050, 2959, 3076, 2722
12793, 4303, 3052, 445, 3374
12794, 2962, 3073, 4219, 468
12795, 3053, 556, 2945, 2797
12796, 3119, 2775, 3054, 224
12797, 3055, 3298, 169, 2940
12798, 3534, 3056, 133, 3144
12799, 3173, 3467, 3056, 3534
12800, 3119, 3057, 2712, 223
12801, 2843, 2956, 3059, 4297
12802, 3060, 3288, 3414, 2956
12803, 2721, 3115, 4160, 3061
12804, 219, 2963, 3063, 3214
12805, 3068, 548, 2944, 2718
12806, 171, 3069, 4290, 2920
12807, 4385, 3210, 3718, 3069
12808, 3261, 3070, 4161, 163
12809, 3169, 3146, 2907, 304
12810, 3148, 3074, 3147, 513
12811, 3078, 452, 3136, 3140
12812, 3140, 3129, 2877, 3078
12813, 4332, 3079, 468, 3342
12814, 536, 3490, 3253, 3381
12815, 3080, 3305, 3176, 515
12816, 3081, 2963, 219, 3201
12817, 3167, 3104, 294, 3083
12818, 3171, 457, 3461, 3385
12819, 3188, 2905, 161, 3297
12820, 3134, 3087, 3110, 3183
12821, 3089, 2934, 3101, 155
12822, 4270, 155, 3256, 3154
12823, 3126, 3192, 3179, 543
12824, 3112, 3091, 3174, 3197
12825, 3372, 3093, 422, 3034
12826, 2932, 3093, 3190, 445
12827, 2846, 3095, 434, 4483
12828, 3240, 473, 3177, 450
12829, 3168, 3097, 550, 3290
12830, 3566, 3486, 3501, 172
12831, 4357, 2865, 3006, 437
12832, 3100, 2839, 2886, 551
12833, 3371, 3101, 3132, 4249
12834, 3102, 4295, 4394, 3152
12835, 3262, 3198, 3104, 3398
12836, 3170, 2868, 3010, 3440
12837, 3107, 4566, 3212, 3083
12838, 3151, 4201, 4200, 269
12839, 247, 2977, 3109, 3238
12840, 417, 2955, 3111, 3195
12841, 3112, 254, 2900, 276
12842, 3184, 4184, 4191, 3254
12843, 3113, 4156, 4184, 2953
12844, 558, 3114, 2910, 4123
12845, 3241, 3117, 159, 3477
12846, 450, 3177, 3186, 3118
12847, 451, 3039, 3118, 3186
12848, 200, 2724, 2859, 4096
12849, 3138, 2923, 496, 3199
12850, 165, 3178, 3124, 3506
12851, 3279, 3293, 287, 2892
12852, 3125, 4174, 4127, 576
12853, 3126, 2811, 3090, 3192
12854, 3133, 168, 3370, 3191
12855, 4244, 3128, 3133, 3191
12856, 4532, 3134, 3358, 3492
12857, 4532, 3206, 3087, 3134
12858, 3289, 452, 3278, 3404
12859, 3454, 3136, 452, 3289
12860, 3137, 4283, 4282, 3018
12861, 3376, 3129, 3140, 453
12862, 3085, 3141, 457, 3171
12863, 439, 3189, 3142, 3152
12864, 3103, 3143, 4429, 436
12865, 3013, 2776, 3145, 3379
12866, 3146, 3169, 281, 3630
12867, 3311, 3147, 491, 3356
12868, 3148, 513, 3459, 3378
12869, 3313, 3149, 4193, 3487
12870, 264, 3379, 3149, 3313
12871, 3139, 2879, 546, 4446
12872, 3150, 570, 2926, 4326
12873, 3281, 3150, 4326, 3259
12874, 3238, 3109, 4200, 4201
12875, 3190, 3093, 3372, 3268
12876, 142, 3216, 4163, 3257
12877, 4171, 3196, 3266, 3445
12878, 3280, 3159, 164, 3411
12879, 3045, 3166, 3263, 308
12880, 3400, 3161, 274, 3532
12881, 4152, 3162, 135, 2652
12882, 3272, 280, 3397, 3527
12883, 3166, 3045, 2715, 330
12884, 3169, 304, 4281, 3301
12885, 3376, 3440, 3010, 430
12886, 3269, 3170, 3440, 3453
12887, 3368, 3088, 3171, 3385
12888, 3544, 3504, 3394, 156
12889, 3495, 169, 3298, 192
12890, 3505, 3175, 3495, 4395
12891, 473, 4209, 3296, 3177
12892, 3178, 165, 3384, 3415
12893, 3409, 3180, 3292, 189
12894, 4373, 3587, 190, 3535
12895, 4688, 3302, 4694, 3181
12896, 4694, 3462, 3365, 456
12897, 3421, 3539, 3583, 4239
12898, 3382, 3464, 272, 3183
12899, 3134, 3183, 272, 3358
12900, 3184, 3319, 3434, 3300
12901, 4418, 3185, 3007, 2921
12902, 4457, 458, 4524, 3264
12903, 3528, 454, 3392, 4622
12904, 3187, 3438, 3302, 4688
12905, 4277, 4212, 3188, 3297
12906, 4229, 3308, 3500, 4294
12907, 3370, 168, 3294, 3747
12908, 3191, 3370, 3419, 3298
12909, 3193, 170, 3338, 3452
12910, 3317, 171, 3193, 3452
12911, 3283, 4634, 456, 3365
12912, 3497, 3344, 3336, 4177
12913, 3266, 3196, 306, 3326
12914, 3197, 3360, 3439, 4550
12915, 254, 3112, 3197, 4550
12916, 3380, 4271, 3004, 3198
12917, 4209, 3199, 3406, 3296
12918, 3199, 496, 4176, 3364
12919, 3416, 4365, 4304, 3200
12920, 468, 4219, 3200, 4304
12921, 242, 3081, 3201, 3357
12922, 4215, 3202, 3356, 491
12923, 3470, 3387, 474, 3641
12924, 224, 3322, 3363, 3204
12925, 3345, 3287, 438, 4358
12926, 3335, 4231, 4186, 4185
12927, 4231, 3309, 3207, 4186
12928, 163, 4161, 3208, 4211
12929, 3508, 3209, 4342, 3344
12930, 3210, 4385, 3317, 3437
12931, 3210, 3437, 3566, 172
12932, 2933, 3211, 542, 4241
12933, 3449, 3349, 219, 3214
12934, 3257, 4163, 3506, 3124
12935, 4356, 2917, 3217, 3267
12936, 3025, 3139, 4446, 3361
12937, 168, 3029, 3218, 3294
12938, 3348, 3221, 201, 3303
12939, 3016, 3221, 3348, 3235
12940, 3230, 3223, 160, 3433
12941, 3336, 417, 3195, 4177
12942, 3058, 540, 3334, 3330
12943, 3227, 3352, 3436, 3320
12944, 3412, 3547, 4516, 3426
12945, 3229, 3306, 3457, 3339
12946, 3353, 3433, 160, 3241
12947, 3318, 3297, 161, 3230
12948, 421, 2896, 3231, 3271
12949, 3455, 3233, 3327, 442
12950, 4284, 553, 4232, 4329
12951, 3316, 3234, 4334, 4329
12952, 3236, 4183, 3366, 4239
12953, 554, 4207, 3347, 3237
12954, 531, 4308, 4207, 3309
12955, 3238, 3367, 3310, 247
12956, 556, 3328, 3472, 3239
12957, 3239, 3432, 3335, 4185
12958, 3240, 450, 2943, 2748
12959, 159, 3331, 4339, 3477
12960, 3451, 3353, 3241, 3477
12961, 3608, 3418, 3694, 541
12962, 3243, 3418, 3608, 3049
12963, 548, 3068, 3244, 3343
12964, 302, 4297, 3246, 3483
12965, 3334, 540, 3225, 4240
12966, 3515, 3247, 460, 3631
12967, 547, 3046, 3248, 3329
12968, 3314, 3324, 158, 4228
12969, 3324, 3331, 3249, 4293
12970, 306, 2731, 3250, 3326
12971, 224, 3054, 3251, 3322
12972, 556, 3053, 3252, 3328
12973, 535, 3319, 3254, 4142
12974, 155, 3101, 3371, 3256
12975, 3256, 3371, 3444, 3285
12976, 3157, 253, 3507, 3258
12977, 3271, 3231, 3260, 3391
12978, 3525, 3396, 3531, 4313
12979, 271, 3966, 3262, 3398
12980, 3262, 3393, 3380, 3198
12981, 459, 3143, 3354, 4497
12982, 4240, 3402, 541, 3334
12983, 3267, 3389, 3645, 3547
12984, 4356, 3267, 3547, 3412
12985, 3269, 3453, 3392, 454
12986, 3271, 3391, 3863, 3529
12987, 3760, 4503, 257, 3841
12988, 3272, 3527, 4503, 4464
12989, 3173, 3394, 3504, 3284
12990, 3274, 3561, 3476, 3360
12991, 4269, 3463, 3513, 4345
12992, 3501, 3276, 173, 3098
12993, 196, 4189, 3276, 3333
12994, 3277, 3474, 474, 3387
12995, 3401, 286, 3421, 3293
12996, 3411, 164, 3270, 3525
12997, 3465, 3384, 165, 3506
12998, 3259, 4326, 3403, 3523
12999, 3481, 3461, 457, 3283
13000, 3284, 3504, 4178, 157
13001, 3164, 134, 3284, 157
13002, 3286, 3426, 4516, 3610
13003, 3286, 3681, 3373, 544
13004, 3397, 280, 3526, 3628
13005, 3414, 3288, 280, 3272
13006, 3482, 3417, 3571, 3549
13007, 3468, 3291, 3511, 3642
13008, 3291, 543, 3179, 3410
13009, 3182, 287, 3293, 3421
13010, 134, 3295, 2572, 3467
13011, 3474, 3277, 3296, 3406
13012, 3488, 4321, 4277, 3297
13013, 3374, 445, 3190, 3268
13014, 3416, 3299, 3538, 3724
13015, 282, 3604, 3301, 3445
13016, 3485, 3348, 3723, 202
13017, 3305, 2769, 537, 3176
13018, 4232, 4173, 3307, 3341
13019, 3500, 3189, 439, 3458
13020, 554, 3061, 3309, 4207
13021, 513, 3147, 3311, 3430
13022, 3312, 3168, 3482, 527
13023, 3512, 3312, 527, 3629
13024, 3324, 3314, 4363, 3331
13025, 542, 3211, 3424, 3346
13026, 4298, 3315, 3536, 4352
13027, 4379, 4368, 3316, 3494
13028, 4368, 4318, 3234, 3316
13029, 3437, 3317, 3546, 3647
13030, 3297, 3318, 184, 3488
13031, 535, 4251, 3431, 3319
13032, 4213, 4212, 4277, 3362
13033, 225, 3363, 3322, 3592
13034, 3471, 3323, 459, 3557
13035, 3473, 3325, 252, 3559
13036, 533, 4230, 3472, 3328
13037, 3330, 519, 3463, 4268
13038, 3451, 3477, 4339, 182
13039, 3332, 3515, 3435, 3205
13040, 3099, 3332, 3205, 4358
13041, 3579, 3349, 3449, 3524
13042, 3225, 3019, 3402, 4240
13043, 3335, 532, 3429, 4231
13044, 4177, 3195, 4229, 440
13045, 3337, 186, 3531, 3396
13046, 4525, 3456, 3649, 3807
13047, 3229, 3339, 4619, 253
13048, 279, 3407, 3761, 3446
13049, 3914, 278, 3340, 3446
13050, 530, 3341, 3307, 4217
13051, 4328, 4370, 3594, 490
13052, 525, 3447, 3248, 3343
13053, 3508, 3344, 3497, 441
13054, 4225, 3344, 4342, 418
13055, 3307, 3237, 3347, 4217
13056, 3348, 3303, 3420, 3723
13057, 218, 3460, 3349, 3579
13058, 3350, 3215, 526, 4546
13059, 3351, 3967, 3863, 3391
13060, 3388, 3448, 308, 3263
13061, 3433, 3353, 183, 3489
13062, 4178, 3504, 3544, 3441
13063, 3639, 3493, 4328, 490
13064, 3487, 3357, 241, 4310
13065, 3358, 272, 3390, 3598
13066, 4473, 3492, 271, 3398
13067, 3423, 4337, 3127, 3180
13068, 3535, 3480, 3359, 4373
13069, 3439, 232, 3614, 4481
13070, 3395, 546, 3259, 3523
13071, 3362, 185, 3321, 4213
13072, 3413, 4176, 3375, 4226
13073, 3514, 3406, 3364, 3638
13074, 3503, 3481, 3283, 3365
13075, 4238, 3366, 4183, 310
13076, 3182, 3421, 4239, 3366
13077, 3466, 270, 3393, 3550
13078, 3368, 458, 4457, 3185
13079, 3458, 3369, 4417, 462
13080, 178, 3304, 3542, 4249
13081, 3268, 3372, 3155, 3408
13082, 4369, 3749, 3410, 3179
13083, 3268, 3408, 444, 3374
13084, 496, 3037, 3375, 4176
13085, 4586, 3593, 4585, 476
13086, 453, 3136, 3377, 4587
13087, 3378, 3459, 3431, 4251
13088, 3378, 3383, 536, 3381
13089, 3407, 3163, 4464, 4465
13090, 270, 4271, 3380, 3393
13091, 4620, 3399, 3464, 3382
13092, 3383, 535, 4142, 4141
13093, 3278, 3387, 3470, 3404
13094, 3448, 3388, 3533, 3586
13095, 3492, 3358, 3598, 271
13096, 3701, 3735, 4444, 444
13097, 4325, 3709, 3544, 156
13098, 3389, 3395, 3815, 3645
13099, 3270, 4265, 3396, 3525
13100, 3526, 280, 3288, 4436
13101, 3399, 4576, 3590, 4575
13102, 3464, 3399, 250, 3530
13103, 3612, 264, 3443, 3957
13104, 3401, 3957, 3573, 286
13105, 541, 3402, 3265, 3608
13106, 3520, 3404, 3470, 3641
13107, 3264, 3611, 3491, 4497
13108, 3514, 3541, 3474, 3406
13109, 3548, 3409, 189, 3653
13110, 3423, 3409, 3587, 4373
13111, 3511, 3291, 3410, 3797
13112, 3280, 3522, 3465, 3159
13113, 3463, 4269, 4226, 3275
13114, 3415, 189, 3292, 3178
13115, 3299, 444, 4444, 3538
13116, 4460, 4365, 3416, 467
13117, 3551, 3543, 551, 3015
13118, 3499, 3694, 3732, 4299
13119, 3418, 3243, 3315, 4298
13120, 3298, 3419, 3581, 192
13121, 3586, 3533, 4267, 4272
13122, 248, 3422, 3310, 3711
13123, 3422, 248, 3589, 3592
13124, 4337, 3423, 4373, 3359
13125, 3425, 3588, 3314, 4228
13126, 4368, 3706, 3427, 4318
13127, 3543, 3551, 3427, 4391
13128, 3605, 3429, 532, 3671
13129, 3431, 3459, 3509, 3596
13130, 4230, 3597, 3432, 3472
13131, 3434, 534, 3450, 3300
13132, 3345, 3619, 3804, 3287
13133, 284, 3320, 3436, 3613
13134, 3486, 3566, 195, 3333
13135, 477, 3438, 3726, 4621
13136, 478, 3302, 3438, 4658
13137, 3439, 4481, 3306, 4550
13138, 453, 4587, 3440, 3376
13139, 3602, 179, 3709, 4325
13140, 3709, 3696, 3441, 3544
13141, 3320, 284, 3584, 3442
13142, 3443, 264, 3313, 3555
13143, 3542, 3602, 4325, 3444
13144, 156, 3285, 3444, 4325
13145, 4236, 4171, 3445, 3301
13146, 3761, 4498, 3857, 3446
13147, 286, 3634, 4272, 4267
13148, 3352, 3448, 3586, 285
13149, 3333, 195, 3524, 3449
13150, 3600, 3451, 182, 3695
13151, 193, 3713, 3452, 3505
13152, 4587, 4585, 3453, 3440
13153, 3289, 475, 4579, 3454
13154, 3607, 3455, 442, 4505
13155, 3518, 3507, 3456, 4525
13156, 3339, 3649, 3456, 4619
13157, 3457, 3306, 4481, 231
13158, 3202, 4370, 4328, 3356
13159, 3545, 4361, 4415, 3599
13160, 3545, 3663, 4294, 4361
13161, 512, 3509, 3430, 3801
13162, 3460, 218, 3577, 241
13163, 4604, 3603, 4569, 3469
13164, 4694, 3302, 478, 3462
13165, 4690, 478, 4685, 3576
13166, 4268, 3463, 3275, 518
13167, 3522, 3280, 3411, 187
13168, 3384, 3465, 4007, 3956
13169, 3466, 3367, 4202, 270
13170, 4570, 4569, 3603, 4615
13171, 4524, 458, 3469, 4569
13172, 3657, 3471, 3557, 3920
13173, 3471, 3575, 3475, 3323
13174, 3591, 4417, 461, 3851
13175, 3656, 3473, 3559, 3766
13176, 251, 3325, 3473, 4610
13177, 3516, 3476, 3561, 233
13178, 3479, 4324, 2911, 4222
13179, 3215, 3312, 3512, 526
13180, 3480, 3737, 3747, 3294
13181, 3461, 3481, 480, 4604
13182, 2321, 302, 3483, 4372
13183, 186, 3337, 3484, 3722
13184, 3578, 3485, 202, 4351
13185, 179, 3304, 3485, 3578
13186, 3727, 4371, 3555, 4310
13187, 3488, 3644, 3556, 4321
13188, 4094, 3490, 536, 2745
13189, 2769, 3305, 3490, 4094
13190, 3557, 3491, 4026, 3920
13191, 3801, 3493, 3639, 3750
13192, 4379, 3494, 529, 4392
13193, 3510, 3712, 4474, 4395
13194, 3495, 192, 3510, 4395
13195, 3659, 3563, 3519, 3743
13196, 525, 3343, 3496, 3704
13197, 4294, 3663, 440, 4229
13198, 3660, 3565, 4308, 531
13199, 3499, 519, 3330, 3334
13200, 3501, 3098, 3554, 172
13201, 182, 4339, 3502, 3705
13202, 480, 4651, 3569, 4633
13203, 3507, 3518, 3572, 3258
13204, 441, 3552, 3609, 3508
13205, 3601, 534, 3675, 3832
13206, 3675, 3596, 3509, 512
13207, 3510, 4390, 4384, 3648
13208, 4474, 3667, 3606, 193
13209, 3797, 3752, 3642, 3511
13210, 3743, 3519, 3849, 3852
13211, 4386, 4346, 4345, 4353
13212, 3541, 3720, 3641, 474
13213, 3575, 4540, 460, 3475
13214, 232, 3476, 3516, 3651
13215, 3517, 3626, 3588, 3425
13216, 3805, 4317, 4316, 3779
13217, 229, 3559, 3518, 4525
13218, 3632, 4255, 3684, 3798
13219, 187, 3763, 3692, 3522
13220, 3523, 3621, 3815, 3395
13221, 3618, 3733, 3647, 3546
13222, 3411, 3525, 4313, 187
13223, 3628, 3526, 3746, 3836
13224, 3691, 4465, 3760, 3841
13225, 3809, 250, 3670, 3855
13226, 3625, 3531, 186, 3745
13227, 3583, 3539, 309, 4148
13228, 3533, 309, 3539, 4267
13229, 4386, 4353, 3636, 3728
13230, 3732, 4298, 4352, 3636
13231, 3537, 3424, 3468, 3642
13232, 3536, 3346, 520, 4383
13233, 3421, 286, 4267, 3539
13234, 4610, 3473, 3656, 4573
13235, 3590, 4576, 3540, 3725
13236, 3514, 497, 3720, 3541
13237, 3304, 179, 3602, 3542
13238, 3417, 551, 3543, 3571
13239, 3567, 440, 3663, 3903
13240, 194, 3702, 3782, 3618
13241, 4588, 3547, 3645, 3658
13242, 3765, 3548, 3653, 212
13243, 528, 3710, 3549, 3571
13244, 3629, 527, 3650, 4029
13245, 3966, 3550, 3393, 3262
13246, 3711, 3897, 3668, 248
13247, 4392, 529, 4434, 3633
13248, 3706, 4368, 4379, 4392
13249, 3551, 3015, 4307, 552
13250, 4393, 3552, 441, 3689
13251, 3643, 3901, 3553, 185
13252, 3443, 3555, 4371, 263
13253, 3738, 3556, 3644, 4425
13254, 3556, 3738, 3874, 3643
13255, 3329, 524, 4484, 3558
13256, 3621, 3558, 4484, 4485
13257, 3560, 3654, 3736, 3860
13258, 3561, 3777, 3686, 233
13259, 477, 4592, 3716, 3562
13260, 4618, 3562, 3716, 4591
13261, 3659, 3904, 4602, 3563
13262, 3739, 504, 3672, 4535
13263, 3652, 3755, 3564, 181
13264, 3734, 205, 4400, 3705
13265, 3775, 3565, 3660, 509
13266, 4367, 3741, 3700, 3498
13267, 3566, 3437, 3647, 195
13268, 3568, 3813, 3653, 189
13269, 3677, 3569, 4651, 479
13270, 530, 3700, 3708, 3570
13271, 3680, 4276, 3784, 3949
13272, 3666, 4340, 3758, 3873
13273, 3445, 3574, 4302, 282
13274, 3819, 3887, 4675, 3576
13275, 3698, 3577, 3785, 240
13276, 4351, 202, 3703, 4354
13277, 3620, 4384, 4390, 3617
13278, 3582, 3672, 3824, 3690
13279, 524, 3447, 3582, 4534
13280, 4239, 3583, 4198, 3236
13281, 3676, 261, 3833, 3757
13282, 3768, 475, 3637, 3831
13283, 4527, 3834, 3793, 476
13284, 3588, 181, 4363, 3314
13285, 225, 3592, 3589, 4255
13286, 3590, 4489, 3670, 4575
13287, 4015, 3661, 3591, 3851
13288, 4417, 3591, 4463, 462
13289, 4586, 3721, 4559, 3593
13290, 4622, 4621, 3726, 3528
13291, 3787, 3693, 490, 3594
13292, 3595, 3616, 3638, 3413
13293, 4269, 3595, 3413, 4226
13294, 534, 3434, 3596, 3675
13295, 4230, 3679, 3772, 3597
13296, 3622, 3598, 3390, 3530
13297, 3599, 4463, 3669, 3799
13298, 463, 3545, 3599, 3799
13299, 3600, 3695, 3764, 3687
13300, 3679, 3683, 3780, 3892
13301, 4633, 3826, 4615, 3603
13302, 281, 3604, 3769, 3868
13303, 3977, 3605, 3671, 3840
13304, 3762, 3606, 3667, 216
13305, 3910, 443, 3607, 3756
13306, 442, 3327, 3609, 4405
13307, 522, 4547, 3610, 4516
13308, 4478, 3681, 3286, 3610
13309, 4018, 481, 3662, 482
13310, 4026, 3491, 3611, 4018
13311, 3612, 4338, 3279, 3242
13312, 3664, 231, 3673, 208
13313, 231, 4481, 3614, 3673
13314, 3737, 3480, 3535, 3730
13315, 3624, 3751, 3884, 3728
13316, 520, 3537, 3615, 4383
13317, 3720, 497, 3773, 3810
13318, 3638, 3616, 497, 3514
13319, 4390, 3581, 3419, 3617
13320, 194, 3618, 3546, 3713
13321, 3688, 3627, 3782, 217
13322, 3804, 3619, 3729, 461
13323, 3795, 4490, 215, 4414
13324, 4534, 3817, 4484, 524
13325, 3815, 3621, 4485, 523
13326, 4397, 3623, 3809, 249
13327, 3897, 3550, 3966, 4397
13328, 3623, 4397, 3966, 271
13329, 4364, 3763, 187, 4313
13330, 203, 3885, 3805, 3779
13331, 3652, 3626, 3805, 3744
13332, 3579, 3524, 3733, 3627
13333, 3628, 3917, 3842, 3397
13334, 3146, 3630, 4436, 3288
13335, 3746, 3630, 281, 3868
13336, 3898, 3790, 4540, 3575
13337, 3988, 4533, 3828, 4595
13338, 3748, 3703, 202, 3723
13339, 3823, 4434, 3707, 507
13340, 3783, 3710, 528, 3633
13341, 285, 3586, 4272, 3634
13342, 3634, 286, 3573, 3784
13343, 3735, 3701, 443, 3910
13344, 3735, 3910, 3635, 4444
13345, 4299, 3513, 519, 3499
13346, 3636, 4353, 4299, 3732
13347, 3831, 3637, 498, 3931
13348, 3637, 475, 3520, 3810
13349, 490, 3693, 3750, 3639
13350, 3640, 3757, 3833, 3861
13351, 3731, 3553, 3901, 3806
13352, 3655, 184, 3560, 3860
13353, 4425, 3644, 3655, 207
13354, 3658, 4523, 3802, 3866
13355, 3646, 2918, 3697, 309
13356, 3712, 3648, 3812, 216
13357, 4029, 3650, 3818, 506
13358, 3734, 3564, 3755, 3864
13359, 213, 4475, 3908, 4539
13360, 3687, 3654, 183, 3600
13361, 3736, 3654, 3687, 206
13362, 3896, 3715, 3781, 3921
13363, 4573, 3656, 3766, 4517
13364, 3658, 4589, 522, 4588
13365, 4602, 3904, 3739, 4535
13366, 4367, 3775, 4399, 3741
13367, 3669, 3661, 3754, 3909
13368, 4463, 3591, 3661, 3669
13369, 3936, 3850, 3925, 3922
13370, 482, 3662, 3936, 3932
13371, 3663, 3545, 463, 3903
13372, 3664, 3814, 3767, 3580
13373, 4639, 3854, 4615, 3826
13374, 3665, 3854, 4628, 3759
13375, 4302, 3808, 3674, 282
13376, 3668, 249, 3811, 4306
13377, 3855, 3822, 226, 3811
13378, 4575, 3670, 250, 3399
13379, 525, 3704, 4535, 3672
13380, 3769, 3674, 3862, 258
13381, 3780, 3601, 3832, 3853
13382, 284, 3613, 3676, 3757
13383, 4635, 3699, 3788, 3905
13384, 3820, 4548, 3878, 4591
13385, 521, 4478, 3678, 4548
13386, 533, 3601, 3780, 3683
13387, 3772, 3679, 3835, 3894
13388, 3634, 3784, 4276, 285
13389, 262, 3821, 3680, 3949
13390, 4421, 4420, 521, 4479
13391, 3798, 3684, 226, 3965
13392, 3684, 4255, 3589, 4306
13393, 3740, 3685, 3724, 3635
13394, 489, 3693, 3787, 3906
13395, 255, 3800, 3686, 3777
13396, 3689, 3567, 3903, 3742
13397, 3690, 503, 4635, 3879
13398, 3690, 3879, 4534, 3582
13399, 3761, 3691, 256, 4498
13400, 3407, 4465, 3691, 3761
13401, 3937, 4022, 3692, 3763
13402, 3933, 4001, 3871, 4404
13403, 3694, 3418, 4298, 3732
13404, 3695, 182, 3705, 4400
13405, 4350, 3778, 4301, 3696
13406, 3696, 4301, 3719, 3441
13407, 3839, 3907, 3796, 3698
13408, 241, 3577, 3698, 3796
13409, 3826, 3699, 503, 4639
13410, 4633, 3569, 3699, 3826
13411, 3708, 3700, 3741, 4398
13412, 466, 3740, 3756, 3816
13413, 217, 3782, 3702, 3902
13414, 3706, 528, 4391, 3427
13415, 3823, 3911, 3999, 3783
13416, 529, 3570, 3707, 4434
13417, 508, 3789, 3708, 4398
13418, 3818, 3710, 4545, 3891
13419, 215, 3812, 3648, 4414
13420, 210, 3825, 3714, 3794
13421, 465, 4494, 3715, 3896
13422, 3791, 4559, 3721, 3847
13423, 4019, 3950, 3730, 190
13424, 190, 3587, 3717, 4019
13425, 180, 4316, 3719, 4301
13426, 497, 3616, 4347, 3773
13427, 476, 3793, 3721, 4586
13428, 3722, 4382, 3745, 186
13429, 3748, 3521, 3632, 3976
13430, 467, 3416, 3724, 3685
13431, 3635, 3724, 3538, 4444
13432, 3776, 228, 3859, 4513
13433, 3725, 227, 4489, 3590
13434, 3792, 4371, 3727, 3907
13435, 3728, 3884, 3773, 4347
13436, 4347, 4346, 4386, 3728
13437, 4015, 3851, 484, 3880
13438, 3980, 3888, 3950, 4430
13439, 3806, 3774, 209, 3731
13440, 4382, 209, 3890, 3867
13441, 3848, 4400, 205, 4000
13442, 3740, 466, 4461, 3685
13443, 3889, 4426, 3860, 3736
13444, 3889, 3736, 206, 3973
13445, 3747, 3737, 191, 3617
13446, 4577, 4514, 4515, 4426
13447, 3874, 3738, 4514, 3814
13448, 3904, 505, 3925, 3739
13449, 4399, 3837, 4398, 3741
13450, 463, 3838, 3876, 3903
13451, 464, 3781, 3742, 4362
13452, 3743, 4673, 4672, 3659
13453, 3885, 204, 3744, 3805
13454, 3744, 204, 3755, 3652
13455, 3836, 3746, 3868, 4428
13456, 3976, 3632, 3798, 4376
13457, 3827, 3749, 4421, 3846
13458, 3749, 3827, 3797, 3410
13459, 3801, 3750, 3853, 512
13460, 3845, 3884, 3751, 4456
13461, 3797, 3827, 3972, 3752
13462, 3845, 3942, 3931, 498
13463, 4374, 191, 3737, 3888
13464, 3941, 3754, 485, 3960
13465, 4416, 3799, 3669, 3909
13466, 3864, 3755, 204, 3919
13467, 3640, 3758, 4340, 283
13468, 260, 3830, 3873, 3758
13469, 504, 3850, 3759, 4628
13470, 4498, 3800, 255, 3857
13471, 4364, 3803, 4422, 3763
13472, 211, 4025, 3916, 4009
13473, 206, 3687, 3764, 4396
13474, 3765, 4582, 3908, 4475
13475, 3807, 3875, 229, 4525
13476, 4517, 3766, 3843, 3900
13477, 475, 3768, 3585, 4579
13478, 258, 4428, 3868, 3769
13479, 501, 3819, 3770, 4617
13480, 4657, 4618, 3770, 3819
13481, 4590, 3878, 4548, 3678
13482, 4589, 3771, 4547, 522
13483, 3835, 3679, 3892, 511
13484, 3682, 3772, 3894, 510
13485, 3810, 3773, 498, 3637
13486, 3774, 3651, 3825, 209
13487, 509, 3944, 4399, 3775
13488, 4513, 3919, 3895, 3776
13489, 3919, 204, 3943, 3895
13490, 180, 4301, 3778, 4351
13491, 3742, 3781, 4393, 3689
13492, 3783, 3999, 4545, 3710
13493, 3785, 3688, 217, 3989
13494, 233, 3686, 4599, 3786
13495, 3906, 3787, 4461, 466
13496, 3788, 3677, 4689, 502
13497, 4493, 3856, 3941, 4571
13498, 3707, 3789, 4493, 507
13499, 4541, 4540, 3790, 4574
13500, 3790, 483, 3828, 4574
13501, 3716, 4592, 4549, 500
13502, 4559, 4592, 477, 4621
13503, 3865, 3792, 3949, 3784
13504, 4528, 4527, 476, 4585
13505, 4472, 3793, 3834, 499
13506, 3794, 3886, 4009, 3916
13507, 3620, 3753, 3795, 4414
13508, 3839, 3698, 240, 3971
13509, 3975, 256, 3691, 3841
13510, 523, 4485, 4536, 3844
13511, 4636, 3887, 3819, 501
13512, 3890, 4422, 3803, 3867
13513, 208, 3673, 3806, 3901
13514, 3843, 229, 3875, 4004
13515, 3873, 259, 4355, 3666
13516, 259, 4427, 3808, 4355
13517, 249, 3809, 3855, 3811
13518, 215, 4005, 3877, 3812
13519, 3813, 3872, 3947, 3881
13520, 3815, 523, 4523, 3645
13521, 465, 3896, 3946, 3870
13522, 3817, 4534, 3879, 4601
13523, 4485, 4484, 3817, 4536
13524, 3828, 483, 3935, 4595
13525, 3918, 4636, 3866, 3802
13526, 3887, 4636, 3918, 4653
13527, 3827, 3846, 3934, 3972
13528, 3953, 3839, 3971, 3991
13529, 4628, 3854, 4639, 3824
13530, 503, 3690, 3824, 4639
13531, 3867, 3803, 4364, 3625
13532, 3752, 3972, 3942, 4456
13533, 3952, 484, 4533, 3988
13534, 4574, 4531, 3729, 4541
13535, 3927, 3829, 3917, 4491
13536, 3969, 4578, 3829, 3983
13537, 3830, 3974, 3940, 4450
13538, 3780, 3853, 4001, 3892
13539, 3924, 3861, 3833, 4412
13540, 3831, 3834, 4527, 3768
13541, 4001, 3933, 511, 3892
13542, 4399, 3944, 4455, 3837
13543, 3997, 3993, 4511, 4512
13544, 4011, 3955, 3968, 4021
13545, 3968, 3876, 3838, 3996
13546, 3822, 3882, 3965, 226
13547, 3991, 3971, 4458, 4459
13548, 3926, 4410, 3986, 4013
13549, 3869, 256, 3975, 4553
13550, 3527, 3842, 257, 4503
13551, 3913, 3848, 4000, 4453
13552, 3884, 3845, 498, 3773
13553, 4456, 3751, 3615, 3752
13554, 3959, 4479, 3820, 500
13555, 4472, 3934, 4480, 3847
13556, 4549, 3791, 3847, 4480
13557, 3764, 3848, 3913, 4396
13558, 3849, 3629, 4029, 4028
13559, 3850, 504, 3739, 3925
13560, 3978, 482, 3932, 3984
13561, 3984, 4003, 3935, 3928
13562, 3853, 3750, 3871, 4001
13563, 4615, 3854, 3665, 4570
13564, 4022, 4025, 3872, 188
13565, 486, 3909, 3856, 3970
13566, 4499, 4500, 3858, 214
13567, 3938, 3864, 3919, 4513
13568, 3859, 228, 4573, 4517
13569, 207, 3655, 3860, 4426
13570, 3861, 260, 3758, 3640
13571, 4450, 3951, 4427, 259
13572, 443, 3701, 3863, 3967
13573, 205, 3734, 3864, 3938
13574, 3865, 3784, 3573, 263
13575, 4609, 501, 3771, 4589
13576, 3866, 4609, 4589, 3658
13577, 3745, 4382, 3867, 3625
13578, 3906, 3870, 3964, 4404
13579, 4476, 511, 3933, 4445
13580, 259, 3873, 3830, 4450
13581, 3874, 208, 3901, 3643
13582, 4004, 206, 4396, 3939
13583, 4362, 3742, 3903, 3876
13584, 3945, 4005, 215, 4490
13585, 3994, 3961, 3915, 216
13586, 4617, 3770, 3878, 4590
13587, 4635, 3905, 4601, 3879
13588, 4601, 3844, 4536, 3817
13589, 4009, 3930, 4518, 211
13590, 227, 3895, 3943, 3882
13591, 3885, 3979, 3943, 204
13592, 3991, 3954, 3883, 3953
13593, 203, 4376, 3979, 3885
13594, 234, 3930, 3886, 4553
13595, 4653, 502, 4689, 4675
13596, 4426, 3889, 3912, 3767
13597, 3875, 3973, 206, 4004
13598, 3753, 191, 4374, 3893
13599, 214, 3858, 3893, 4374
13600, 3668, 3897, 4397, 249
13601, 483, 3790, 3898, 3928
13602, 508, 3899, 4493, 3789
13603, 3970, 3899, 508, 3997
13604, 3859, 4517, 3900, 4453
13605, 3963, 3989, 3915, 3961
13606, 505, 3904, 3659, 4672
13607, 3922, 3925, 505, 4677
13608, 3905, 3788, 502, 3962
13609, 4561, 3948, 3958, 4582
13610, 4539, 3908, 4582, 3958
13611, 486, 3996, 4416, 3909
13612, 3941, 3960, 3911, 4571
13613, 4577, 3767, 3814, 4514
13614, 3914, 3030, 4567, 278
13615, 3937, 3916, 4025, 4022
13616, 210, 3794, 3916, 3937
13617, 3927, 4491, 3929, 3981
13618, 257, 3842, 3917, 3829
13619, 4653, 3918, 3962, 502
13620, 3852, 3984, 3932, 4673
13621, 4419, 464, 4362, 3955
13622, 4410, 3926, 510, 3894
13623, 260, 3861, 3924, 3995
13624, 3946, 3896, 3921, 4572
13625, 4013, 488, 4024, 3985
13626, 3944, 509, 4413, 4477
13627, 3927, 4593, 3983, 3829
13628, 4003, 3984, 3852, 4028
13629, 3981, 3929, 3987, 236
13630, 258, 3987, 3929, 4428
13631, 3992, 234, 3969, 235
13632, 4404, 3964, 4445, 3933
13633, 3942, 3972, 499, 3931
13634, 506, 4556, 4003, 4028
13635, 3922, 4677, 3932, 3936
13636, 3938, 4513, 4000, 205
13637, 4453, 3900, 3939, 3913
13638, 4020, 4012, 4008, 3951
13639, 3960, 485, 3880, 4002
13640, 507, 4493, 4571, 3911
13641, 3993, 487, 4011, 4511
13642, 3945, 4551, 4520, 4005
13643, 3947, 3872, 4025, 211
13644, 3947, 211, 4518, 3881
13645, 235, 3958, 3948, 3992
13646, 3881, 3948, 4561, 212
13647, 3999, 4002, 3952, 4545
13648, 262, 3907, 3839, 3953
13649, 261, 3883, 3954, 4412
13650, 238, 3995, 3924, 4016
13651, 4419, 4024, 3982, 464
13652, 188, 3568, 3956, 4007
13653, 3957, 3401, 4338, 3612
13654, 4479, 3959, 3846, 4421
13655, 3959, 500, 4549, 4480
13656, 3961, 239, 4458, 3963
13657, 3963, 4458, 3971, 240
13658, 3989, 3963, 240, 3785
13659, 3986, 4476, 4445, 3964
13660, 4376, 3798, 3965, 3979
13661, 3975, 3969, 234, 4553
13662, 214, 3980, 3998, 4499
13663, 3934, 4472, 499, 3972
13664, 3973, 3875, 3807, 4495
13665, 3940, 3974, 4006, 237
13666, 203, 3703, 3976, 4376
13667, 509, 3660, 3977, 4413
13668, 3920, 3978, 3984, 3928
13669, 4539, 4014, 4430, 213
13670, 4014, 4017, 3980, 4430
13671, 4010, 3981, 4581, 3990
13672, 4013, 3985, 4411, 3926
13673, 487, 3993, 4477, 3985
13674, 488, 4013, 3986, 3964
13675, 4008, 3987, 258, 3862
13676, 3952, 3988, 3891, 4545
13677, 4593, 4010, 3990, 4613
13678, 4539, 3958, 3990, 4014
13679, 3930, 234, 3992, 4518
13680, 4512, 4511, 4011, 4021
13681, 3877, 4005, 4023, 239
13682, 239, 3961, 3994, 3877
13683, 3995, 238, 4006, 3974
13684, 4499, 3998, 237, 4500
13685, 3859, 4453, 4000, 4513
13686, 4459, 4016, 3954, 3991
13687, 3946, 488, 3964, 3870
13688, 487, 4419, 3955, 4011
13689, 4021, 3968, 3996, 486
13690, 4017, 4027, 3998, 3980
13691, 3987, 4008, 4012, 236
13692, 4581, 4017, 4014, 3990
13693, 4556, 506, 3818, 3891
13694, 4027, 236, 4012, 4020
13695, 4026, 4018, 482, 3978
13696, 4019, 213, 4430, 3950
13697, 4005, 4520, 4519, 4023
13698, 3985, 4024, 4419, 487
13699, 4027, 4017, 4581, 236
13700, 4030, 4031, 86, 730
13701, 4043, 776, 781, 830
13702, 4074, 759, 786, 837
13703, 4055, 822, 819, 817
13704, 914, 4050, 4063, 4064
13705, 2168, 2410, 4067, 4068
13706, 4083, 4075, 949, 4064
13707, 855, 4078, 891, 895
13708, 4045, 835, 4080, 870
13709, 4080, 876, 903, 4115
13710, 4061, 975, 4082, 4062
13711, 947, 4084, 4082, 975
13712, 4090, 2282, 595, 2541
13713, 4105, 393, 2505, 4112
13714, 4102, 398, 4135, 2857
13715, 291, 2535, 4103, 4104
13716, 2667, 2533, 4105, 4112
13717, 4106, 4073, 1019, 1051
13718, 4107, 4079, 197, 4118
13719, 2910, 4092, 4108, 4123
13720, 898, 4110, 887, 4138
13721, 197, 4088, 4117, 4118
13722, 4107, 4118, 4188, 4159
13723, 4129, 1133, 336, 4098
13724, 4134, 2724, 4194, 2895
13725, 952, 4137, 4140, 4196
13726, 3032, 2915, 4141, 4142
13727, 575, 4120, 4144, 4145
13728, 2714, 2639, 4145, 4199
13729, 3028, 2759, 4146, 4147
13730, 3697, 3028, 4147, 4148
13731, 4148, 4147, 4198, 3583
13732, 4149, 2331, 2492, 566
13733, 4151, 2625, 140, 2919
13734, 952, 4196, 4158, 972
13735, 4160, 555, 4186, 3207
13736, 4164, 1078, 1094, 1142
13737, 1050, 4167, 1035, 4216
13738, 1084, 4131, 4169, 4170
13739, 305, 3158, 4171, 4236
13740, 553, 3023, 4173, 4232
13741, 2703, 4127, 4174, 4175
13742, 4175, 4174, 4233, 4234
13743, 4179, 326, 4242, 2693
13744, 2412, 4132, 4179, 4180
13745, 555, 3071, 4185, 4186
13746, 2965, 4117, 4187, 4189
13747, 2965, 4189, 196, 4214
13748, 4227, 3117, 2989, 4162
13749, 4307, 4199, 2887, 552
13750, 4202, 4201, 3151, 4237
13751, 2851, 3020, 2814, 2600
13752, 4210, 4323, 4243, 2767
13753, 162, 3213, 4212, 4213
13754, 3214, 3063, 4214, 196
13755, 4215, 3079, 4332, 3202
13756, 4217, 3347, 4309, 3498
13757, 3200, 4219, 3052, 4303
13758, 148, 2847, 4220, 4221
13759, 4224, 2502, 2414, 2606
13760, 159, 3117, 4227, 4292
13761, 4274, 4234, 4233, 3018
13762, 4175, 4234, 4235, 2887
13763, 4271, 4237, 3047, 3004
13764, 4242, 4243, 4323, 304
13765, 2149, 2139, 4246, 4300
13766, 2952, 4247, 2845, 2954
13767, 2837, 4248, 427, 4305
13768, 2884, 4250, 2865, 4273
13769, 3102, 4256, 2894, 4295
13770, 4259, 1424, 381, 4258
13771, 4263, 3182, 3366, 4238
13772, 4323, 4210, 2995, 3072
13773, 2960, 543, 3211, 2933
13774, 4265, 3270, 3261, 163
13775, 3018, 4282, 4333, 4274
13776, 1100, 4216, 4279, 4280
13777, 4283, 3137, 553, 4284
13778, 4286, 421, 3271, 3529
13779, 2730, 4221, 4290, 4291
13780, 4293, 3026, 158, 3324
13781, 4394, 4295, 438, 3287
13782, 3808, 4302, 3666, 4355
13783, 3347, 4207, 4308, 4309
13784, 4312, 1200, 1223, 1242
13785, 3517, 3719, 4316, 4317
13786, 180, 4354, 3779, 4316
13787, 3626, 3517, 4317, 3805
13788, 4320, 1121, 1161, 1184
13789, 4321, 3556, 3362, 4277
13790, 4327, 2716, 149, 2993
13791, 4244, 3191, 3298, 3055
13792, 4329, 4232, 3341, 3316
13793, 3004, 2819, 2691, 293
13794, 3234, 4274, 4333, 4334
13795, 4335, 4282, 4283, 4284
13796, 4269, 4345, 4346, 3595
13797, 4353, 4345, 3513, 4299
13798, 3616, 3595, 4346, 4347
13799, 4348, 405, 4424, 2451
13800, 1677, 4349, 1890, 4423
13801, 3778, 4350, 3578, 4351
13802, 4352, 3536, 4383, 3624
13803, 1334, 4359, 1317, 4409
13804, 4415, 4361, 3458, 462
13805, 3342, 4304, 4365, 4370
13806, 3498, 4309, 4366, 4367
13807, 4370, 4365, 4460, 3594
13808, 4375, 2842, 2805, 2733
13809, 1242, 1223, 4380, 4381
13810, 4382, 3722, 3731, 209
13811, 4384, 3620, 4414, 3648
13812, 3715, 4405, 4393, 3781
13813, 4385, 3069, 171, 3317
13814, 1249, 4336, 4387, 4388
13815, 4390, 3510, 192, 3581
13816, 3633, 528, 3706, 4392
13817, 3152, 4394, 3287, 439
13818, 1356, 1330, 4402, 4403
13819, 4404, 3871, 489, 3906
13820, 4410, 3923, 4476, 3986
13821, 3977, 3840, 4411, 4413
13822, 461, 4417, 3369, 3804
13823, 4420, 3681, 4478, 521
13824, 3749, 4369, 4420, 4421
13825, 4514, 3738, 4425, 4515
13826, 4432, 389, 1360, 4378
13827, 4467, 4435, 1262, 1308
13828, 4406, 4435, 4467, 1290
13829, 1288, 4381, 4438, 4439
13830, 1348, 4440, 1307, 1324
13831, 4449, 1409, 4443, 4403
13832, 1398, 1376, 4447, 4448
13833, 1268, 4451, 4452, 1293
13834, 1335, 4521, 1351, 4454
13835, 4455, 3944, 4477, 3993
13836, 4459, 4458, 239, 4023
13837, 4465, 4464, 4503, 3760
13838, 4471, 2580, 2698, 2972
13839, 4478, 3610, 4547, 3678
13840, 4479, 521, 4548, 3820
13841, 2153, 4433, 4486, 4487
13842, 2542, 4487, 2428, 4543
13843, 4494, 465, 4504, 4505
13844, 442, 4405, 4494, 4505
13845, 4542, 4495, 3807, 3649
13846, 3912, 4495, 4542, 230
13847, 1344, 1340, 1365, 4502
13848, 4470, 4502, 4530, 1370
13849, 4504, 3756, 3607, 4505
13850, 4509, 1406, 4562, 359
13851, 4510, 4509, 359, 4564
13852, 4512, 486, 3970, 3997
13853, 4515, 4425, 207, 4426
13854, 4473, 3167, 3083, 3212
13855, 3762, 216, 3915, 3902
13856, 4016, 4519, 4520, 238
13857, 3585, 3768, 4527, 4528
13858, 484, 3851, 4531, 4533
13859, 4533, 4531, 4574, 3828
13860, 4602, 4535, 3704, 4546
13861, 4537, 1402, 1425, 1467
13862, 4563, 4538, 1530, 1546
13863, 4582, 3765, 212, 4561
13864, 460, 4540, 4541, 3631
13865, 2701, 4543, 276, 2708
13866, 238, 4520, 4551, 4006
13867, 3935, 4003, 4556, 4595
13868, 1428, 4510, 4564, 4584
13869, 4566, 3107, 295, 3206
13870, 3212, 4566, 3206, 4532
13871, 4524, 4569, 4570, 3405
13872, 4573, 228, 3540, 4610
13873, 4528, 4585, 4587, 3377
13874, 522, 4516, 3547, 4588
13875, 3771, 501, 4617, 4590
13876, 4593, 3927, 3981, 4010
13877, 4596, 1559, 4627, 1536
13878, 4599, 3686, 3800, 3869
13879, 4608, 1470, 1450, 1431
13880, 1449, 4584, 4608, 1431
13881, 4609, 3866, 4636, 501
13882, 1433, 1422, 4611, 4612
13883, 4616, 2291, 407, 4597
13884, 4620, 3382, 4638, 251
13885, 3593, 4559, 4621, 4622
13886, 1492, 4600, 4645, 4624
13887, 4626, 1727, 4668, 1750
13888, 2795, 4637, 432, 4666
13889, 4650, 4638, 3245, 3009
13890, 409, 2363, 4643, 4644
13891, 3033, 2900, 253, 3122
13892, 4674, 4649, 1613, 1647
13893, 4658, 4657, 4685, 478
13894, 3562, 4618, 4657, 4658
13895, 4659, 1704, 1724, 1743
13896, 4671, 2671, 2800, 2946
13897, 4620, 251, 4576, 3399
13898, 479, 3576, 4689, 3677
13899, 4684, 1752, 1734, 1736
13900, 4688, 3181, 455, 3108
13901, 1645, 1666, 4691, 1606
13902, 1690, 1626, 4699, 4700
13903, 4707, 1627, 4709, 1648
13904, 1695, 1632, 4711, 4712
13905, 1754, 1712, 1742, 1735
13906, 4714, 1813, 1801, 1826
*ELEMENT, TYPE=CPE3, ELSET=UMAT_TRIS
13907, 3796, 3907, 3727
13908, 3956, 3415, 3384
13909, 2321, 1888, 2160
13910, 3714, 3516, 233
13911, 2330, 2179, 2056
13912, 340, 2246, 1856
13913, 4248, 2536, 2664
13914, 3682, 3671, 532
13915, 2973, 2934, 2820
13916, 4456, 3942, 3845
13917, 4330, 3228, 2951
13918, 828, 783, 780
13919, 869, 783, 828
13920, 4055, 817, 855
13921, 921, 916, 890
13922, 860, 924, 861
13923, 4065, 821, 889
13924, 891, 4078, 853
13925, 896, 893, 867
13926, 905, 929, 903
13927, 4138, 944, 913
13928, 975, 4061, 945
13929, 995, 989, 1008
13930, 1009, 991, 972
13931, 1012, 996, 968
13932, 4165, 4197, 1060
13933, 323, 4264, 1071
13934, 4150, 1088, 1069
13935, 1165, 1142, 1126
13936, 1151, 1103, 1131
13937, 4322, 4320, 1184
13938, 1189, 1187, 1147
13939, 1264, 1213, 1227
13940, 1358, 1316, 381
13941, 1360, 1245, 1272
13942, 358, 4387, 1276
13943, 4467, 1308, 1329
13944, 4437, 1298, 1297
13945, 1300, 1320, 4469
13946, 4530, 1386, 1372
13947, 1377, 1331, 1352
13948, 1403, 1313, 1361
13949, 1381, 4409, 1355
13950, 4580, 1384, 1393
13951, 1432, 1383, 1408
13952, 1472, 1470, 1469
13953, 1472, 1450, 1470
13954, 1410, 1389, 1427
13955, 4641, 1536, 4627
13956, 360, 1625, 1602
13957, 1662, 1661, 1638
13958, 1742, 1694, 1711
13959, 1759, 1719, 364
13960, 1753, 4700, 4703
13961, 1778, 1756, 1737
13962, 1792, 1777, 1758
13963, 1854, 1842, 1841
13964, 1882, 1889, 1708
13965, 2359, 411, 2330
13966, 2374, 2144, 2251
13967, 318, 2438, 2400
13968, 4311, 2684, 2536
13969, 2537, 128, 2470
13970, 277, 2428, 2545
13971, 2695, 300, 2562
13972, 2596, 177, 2513
13973, 2616, 288, 2456
13974, 2617, 559, 2852
13975, 4681, 2697, 431
13976, 4250, 2884, 2700
13977, 2775, 3119, 223
13978, 4192, 2845, 4247
13979, 2760, 2869, 399
13980, 4162, 2989, 136
13981, 3066, 2838, 539
13982, 2850, 311, 2784
13983, 2819, 3004, 3047
13984, 2931, 3091, 2816
13985, 4287, 2993, 149
13986, 2985, 2828, 517
13987, 3092, 3194, 2996
13988, 4161, 3070, 2919
13989, 3098, 3479, 2925
13990, 3152, 3142, 3102
13991, 3145, 265, 3075
13992, 3319, 3184, 3254
13993, 4358, 3205, 3345
13994, 3425, 3222, 3355
13995, 3224, 4225, 3050
13996, 4148, 309, 3697
13997, 3395, 3389, 3361
13998, 3285, 3154, 3256
13999, 3804, 3369, 3287
14000, 3406, 3199, 3364
14001, 4690, 3462, 478
14002, 3325, 4650, 252
14003, 3612, 3379, 264
14004, 3842, 3527, 3397
14005, 4356, 3412, 545
14006, 3204, 3303, 201
14007, 3423, 3180, 3409
14008, 3468, 3424, 3211
14009, 3472, 3432, 3239
14010, 3914, 3446, 3857
14011, 4622, 3392, 3593
14012, 3730, 3535, 190
14013, 3541, 474, 3474
14014, 4028, 3852, 3849
14015, 4494, 4405, 3715
14016, 4504, 3816, 3756
14017, 3902, 3702, 3762
14018, 4689, 3576, 4675
14019, 180, 4351, 4354
14020, 3712, 3510, 3648
14021, 3976, 3703, 3748
14022, 485, 4015, 3880
14023, 3605, 3977, 3660
14024, 3911, 3823, 507
14025, 4572, 4024, 488
14026, 4653, 4675, 3887
14027, 3890, 210, 4422
14028, 3935, 483, 3928
14029, 4450, 3940, 3951
14030, 4416, 3996, 3838
14031, 4500, 237, 4006
14032, 4572, 488, 3946
14033, 4021, 486, 4512
14034, 4009, 3886, 3930
14035, 4581, 3981, 236
14036, 4029, 506, 4028
14037, 4107, 4159, 4089
14038, 4106, 4150, 4099
14039, 4136, 918, 4114
14040, 4137, 948, 4136
14041, 4196, 4140, 923
14042, 1120, 1057, 4139
14043, 4224, 4203, 2502
14044, 972, 4158, 992
14045, 4235, 552, 2887
14046, 3513, 3463, 519
14047, 4329, 4334, 4335
14048, 4304, 3342, 468
14049, 4329, 4335, 4284
14050, 4337, 167, 3127
14051, 3578, 4350, 179
14052, 4396, 3913, 3939
14053, 4412, 3833, 261
14054, 4440, 4439, 1307
14055, 3809, 3623, 3622
14056, 4490, 3795, 3858
14057, 3340, 278, 2789
14058, 4577, 4426, 3767
14059, 4523, 3658, 3645
14060, 453, 3140, 3136
14061, 4607, 2931, 4567
14062, 1449, 1428, 4584
14063, 4564, 4608, 4584
14064, 4613, 3983, 4593
14065, 1508, 4537, 1467
14066, 4635, 503, 3699
14067, 4643, 2157, 1750
14068, 3122, 253, 3157
14069, 3978, 3920, 4026
14070, 4650, 3009, 3161
14071, 4651, 3503, 479
14072, 4661, 1855, 1857
14073, 4673, 3743, 3852
14074, 4672, 4677, 505
14075, 2800, 2671, 4662
14076, 1751, 1723, 4715
*ELSET, ELSET=PHASE_ELEM
1, 2, 3, 4, 5, 6, 7, 8, 9, 10, 11, 12, 13, 14, 15, 16
17, 18, 19, 20, 21, 22, 23, 24, 25, 26, 27, 28, 29, 30, 31, 32
33, 34, 35, 36, 37, 38, 39, 40, 41, 42, 43, 44, 45, 46, 47, 48
49, 50, 51, 52, 53, 54, 55, 56, 57, 58, 59, 60, 61, 62, 63, 64
65, 66, 67, 68, 69, 70, 71, 72, 73, 74, 75, 76, 77, 78, 79, 80
81, 82, 83, 84, 85, 86, 87, 88, 89, 90, 91, 92, 93, 94, 95, 96
97, 98, 99, 100, 101, 102, 103, 104, 105, 106, 107, 108, 109, 110, 111, 112
113, 114, 115, 116, 117, 118, 119, 120, 121, 122, 123, 124, 125, 126, 127, 128
129, 130, 131, 132, 133, 134, 135, 136, 137, 138, 139, 140, 141, 142, 143, 144
145, 146, 147, 148, 149, 150, 151, 152, 153, 154, 155, 156, 157, 158, 159, 160
161, 162, 163, 164, 165, 166, 167, 168, 169, 170, 171, 172, 173, 174, 175, 176
177, 178, 179, 180, 181, 182, 183, 184, 185, 186, 187, 188, 189, 190, 191, 192
193, 194, 195, 196, 197, 198, 199, 200, 201, 202, 203, 204, 205, 206, 207, 208
209, 210, 211, 212, 213, 214, 215, 216, 217, 218, 219, 220, 221, 222, 223, 224
225, 226, 227, 228, 229, 230, 231, 232, 233, 234, 235, 236, 237, 238, 239, 240
241, 242, 243, 244, 245, 246, 247, 248, 249, 250, 251, 252, 253, 254, 255, 256
257, 258, 259, 260, 261, 262, 263, 264, 265, 266, 267, 268, 269, 270, 271, 272
273, 274, 275, 276, 277, 278, 279, 280, 281, 282, 283, 284, 285, 286, 287, 288
289, 290, 291, 292, 293, 294, 295, 296, 297, 298, 299, 300, 301, 302, 303, 304
305, 306, 307, 308, 309, 310, 311, 312, 313, 314, 315, 316, 317, 318, 319, 320
321, 322, 323, 324, 325, 326, 327, 328, 329, 330, 331, 332, 333, 334, 335, 336
337, 338, 339, 340, 341, 342, 343, 344, 345, 346, 347, 348, 349, 350, 351, 352
353, 354, 355, 356, 357, 358, 359, 360, 361, 362, 363, 364, 365, 366, 367, 368
369, 370, 371, 372, 373, 374, 375, 376, 377, 378, 379, 380, 381, 382, 383, 384
385, 386, 387, 388, 389, 390, 391, 392, 393, 394, 395, 396, 397, 398, 399, 400
401, 402, 403, 404, 405, 406, 407, 408, 409, 410, 411, 412, 413, 414, 415, 416
417, 418, 419, 420, 421, 422, 423, 424, 425, 426, 427, 428, 429, 430, 431, 432
433, 434, 435, 436, 437, 438, 439, 440, 441, 442, 443, 444, 445, 446, 447, 448
449, 450, 451, 452, 453, 454, 455, 456, 457, 458, 459, 460, 461, 462, 463, 464
465, 466, 467, 468, 469, 470, 471, 472, 473, 474, 475, 476, 477, 478, 479, 480
481, 482, 483, 484, 485, 486, 487, 488, 489, 490, 491, 492, 493, 494, 495, 496
497, 498, 499, 500, 501, 502, 503, 504, 505, 506, 507, 508, 509, 510, 511, 512
513, 514, 515, 516, 517, 518, 519, 520, 521, 522, 523, 524, 525, 526, 527, 528
529, 530, 531, 532, 533, 534, 535, 536, 537, 538, 539, 540, 541, 542, 543, 544
545, 546, 547, 548, 549, 550, 551, 552, 553, 554, 555, 556, 557, 558, 559, 560
561, 562, 563, 564, 565, 566, 567, 568, 569, 570, 571, 572, 573, 574, 575, 576
577, 578, 579, 580, 581, 582, 583, 584, 585, 586, 587, 588, 589, 590, 591, 592
593, 594, 595, 596, 597, 598, 599, 600, 601, 602, 603, 604, 605, 606, 607, 608
609, 610, 611, 612, 613, 614, 615, 616, 617, 618, 619, 620, 621, 622, 623, 624
625, 626, 627, 628, 629, 630, 631, 632, 633, 634, 635, 636, 637, 638, 639, 640
641, 642, 643, 644, 645, 646, 647, 648, 649, 650, 651, 652, 653, 654, 655, 656
657, 658, 659, 660, 661, 662, 663, 664, 665, 666, 667, 668, 669, 670, 671, 672
673, 674, 675, 676, 677, 678, 679, 680, 681, 682, 683, 684, 685, 686, 687, 688
689, 690, 691, 692, 693, 694, 695, 696, 697, 698, 699, 700, 701, 702, 703, 704
705, 706, 707, 708, 709, 710, 711, 712, 713, 714, 715, 716, 717, 718, 719, 720
721, 722, 723, 724, 725, 726, 727, 728, 729, 730, 731, 732, 733, 734, 735, 736
737, 738, 739, 740, 741, 742, 743, 744, 745, 746, 747, 748, 749, 750, 751, 752
753, 754, 755, 756, 757, 758, 759, 760, 761, 762, 763, 764, 765, 766, 767, 768
769, 770, 771, 772, 773, 774, 775, 776, 777, 778, 779, 780, 781, 782, 783, 784
785, 786, 787, 788, 789, 790, 791, 792, 793, 794, 795, 796, 797, 798, 799, 800
801, 802, 803, 804, 805, 806, 807, 808, 809, 810, 811, 812, 813, 814, 815, 816
817, 818, 819, 820, 821, 822, 823, 824, 825, 826, 827, 828, 829, 830, 831, 832
833, 834, 835, 836, 837, 838, 839, 840, 841, 842, 843, 844, 845, 846, 847, 848
849, 850, 851, 852, 853, 854, 855, 856, 857, 858, 859, 860, 861, 862, 863, 864
865, 866, 867, 868, 869, 870, 871, 872, 873, 874, 875, 876, 877, 878, 879, 880
881, 882, 883, 884, 885, 886, 887, 888, 889, 890, 891, 892, 893, 894, 895, 896
897, 898, 899, 900, 901, 902, 903, 904, 905, 906, 907, 908, 909, 910, 911, 912
913, 914, 915, 916, 917, 918, 919, 920, 921, 922, 923, 924, 925, 926, 927, 928
929, 930, 931, 932, 933, 934, 935, 936, 937, 938, 939, 940, 941, 942, 943, 944
945, 946, 947, 948, 949, 950, 951, 952, 953, 954, 955, 956, 957, 958, 959, 960
961, 962, 963, 964, 965, 966, 967, 968, 969, 970, 971, 972, 973, 974, 975, 976
977, 978, 979, 980, 981, 982, 983, 984, 985, 986, 987, 988, 989, 990, 991, 992
993, 994, 995, 996, 997, 998, 999, 1000, 1001, 1002, 1003, 1004, 1005, 1006, 1007, 1008
1009, 1010, 1011, 1012, 1013, 1014, 1015, 1016, 1017, 1018, 1019, 1020, 1021, 1022, 1023, 1024
1025, 1026, 1027, 1028, 1029, 1030, 1031, 1032, 1033, 1034, 1035, 1036, 1037, 1038, 1039, 1040
1041, 1042, 1043, 1044, 1045, 1046, 1047, 1048, 1049, 1050, 1051, 1052, 1053, 1054, 1055, 1056
1057, 1058, 1059, 1060, 1061, 1062, 1063, 1064, 1065, 1066, 1067, 1068, 1069, 1070, 1071, 1072
1073, 1074, 1075, 1076, 1077, 1078, 1079, 1080, 1081, 1082, 1083, 1084, 1085, 1086, 1087, 1088
1089, 1090, 1091, 1092, 1093, 1094, 1095, 1096, 1097, 1098, 1099, 1100, 1101, 1102, 1103, 1104
1105, 1106, 1107, 1108, 1109, 1110, 1111, 1112, 1113, 1114, 1115, 1116, 1117, 1118, 1119, 1120
1121, 1122, 1123, 1124, 1125, 1126, 1127, 1128, 1129, 1130, 1131, 1132, 1133, 1134, 1135, 1136
1137, 1138, 1139, 1140, 1141, 1142, 1143, 1144, 1145, 1146, 1147, 1148, 1149, 1150, 1151, 1152
1153, 1154, 1155, 1156, 1157, 1158, 1159, 1160, 1161, 1162, 1163, 1164, 1165, 1166, 1167, 1168
1169, 1170, 1171, 1172, 1173, 1174, 1175, 1176, 1177, 1178, 1179, 1180, 1181, 1182, 1183, 1184
1185, 1186, 1187, 1188, 1189, 1190, 1191, 1192, 1193, 1194, 1195, 1196, 1197, 1198, 1199, 1200
1201, 1202, 1203, 1204, 1205, 1206, 1207, 1208, 1209, 1210, 1211, 1212, 1213, 1214, 1215, 1216
1217, 1218, 1219, 1220, 1221, 1222, 1223, 1224, 1225, 1226, 1227, 1228, 1229, 1230, 1231, 1232
1233, 1234, 1235, 1236, 1237, 1238, 1239, 1240, 1241, 1242, 1243, 1244, 1245, 1246, 1247, 1248
1249, 1250, 1251, 1252, 1253, 1254, 1255, 1256, 1257, 1258, 1259, 1260, 1261, 1262, 1263, 1264
1265, 1266, 1267, 1268, 1269, 1270, 1271, 1272, 1273, 1274, 1275, 1276, 1277, 1278, 1279, 1280
1281, 1282, 1283, 1284, 1285, 1286, 1287, 1288, 1289, 1290, 1291, 1292, 1293, 1294, 1295, 1296
1297, 1298, 1299, 1300, 1301, 1302, 1303, 1304, 1305, 1306, 1307, 1308, 1309, 1310, 1311, 1312
1313, 1314, 1315, 1316, 1317, 1318, 1319, 1320, 1321, 1322, 1323, 1324, 1325, 1326, 1327, 1328
1329, 1330, 1331, 1332, 1333, 1334, 1335, 1336, 1337, 1338, 1339, 1340, 1341, 1342, 1343, 1344
1345, 1346, 1347, 1348, 1349, 1350, 1351, 1352, 1353, 1354, 1355, 1356, 1357, 1358, 1359, 1360
1361, 1362, 1363, 1364, 1365, 1366, 1367, 1368, 1369, 1370, 1371, 1372, 1373, 1374, 1375, 1376
1377, 1378, 1379, 1380, 1381, 1382, 1383, 1384, 1385, 1386, 1387, 1388, 1389, 1390, 1391, 1392
1393, 1394, 1395, 1396, 1397, 1398, 1399, 1400, 1401, 1402, 1403, 1404, 1405, 1406, 1407, 1408
1409, 1410, 1411, 1412, 1413, 1414, 1415, 1416, 1417, 1418, 1419, 1420, 1421, 1422, 1423, 1424
1425, 1426, 1427, 1428, 1429, 1430, 1431, 1432, 1433, 1434, 1435, 1436, 1437, 1438, 1439, 1440
1441, 1442, 1443, 1444, 1445, 1446, 1447, 1448, 1449, 1450, 1451, 1452, 1453, 1454, 1455, 1456
1457, 1458, 1459, 1460, 1461, 1462, 1463, 1464, 1465, 1466, 1467, 1468, 1469, 1470, 1471, 1472
1473, 1474, 1475, 1476, 1477, 1478, 1479, 1480, 1481, 1482, 1483, 1484, 1485, 1486, 1487, 1488
1489, 1490, 1491, 1492, 1493, 1494, 1495, 1496, 1497, 1498, 1499, 1500, 1501, 1502, 1503, 1504
1505, 1506, 1507, 1508, 1509, 1510, 1511, 1512, 1513, 1514, 1515, 1516, 1517, 1518, 1519, 1520
1521, 1522, 1523, 1524, 1525, 1526, 1527, 1528, 1529, 1530, 1531, 1532, 1533, 1534, 1535, 1536
1537, 1538, 1539, 1540, 1541, 1542, 1543, 1544, 1545, 1546, 1547, 1548, 1549, 1550, 1551, 1552
1553, 1554, 1555, 1556, 1557, 1558, 1559, 1560, 1561, 1562, 1563, 1564, 1565, 1566, 1567, 1568
1569, 1570, 1571, 1572, 1573, 1574, 1575, 1576, 1577, 1578, 1579, 1580, 1581, 1582, 1583, 1584
1585, 1586, 1587, 1588, 1589, 1590, 1591, 1592, 1593, 1594, 1595, 1596, 1597, 1598, 1599, 1600
1601, 1602, 1603, 1604, 1605, 1606, 1607, 1608, 1609, 1610, 1611, 1612, 1613, 1614, 1615, 1616
1617, 1618, 1619, 1620, 1621, 1622, 1623, 1624, 1625, 1626, 1627, 1628, 1629, 1630, 1631, 1632
1633, 1634, 1635, 1636, 1637, 1638, 1639, 1640, 1641, 1642, 1643, 1644, 1645, 1646, 1647, 1648
1649, 1650, 1651, 1652, 1653, 1654, 1655, 1656, 1657, 1658, 1659, 1660, 1661, 1662, 1663, 1664
1665, 1666, 1667, 1668, 1669, 1670, 1671, 1672, 1673, 1674, 1675, 1676, 1677, 1678, 1679, 1680
1681, 1682, 1683, 1684, 1685, 1686, 1687, 1688, 1689, 1690, 1691, 1692, 1693, 1694, 1695, 1696
1697, 1698, 1699, 1700, 1701, 1702, 1703, 1704, 1705, 1706, 1707, 1708, 1709, 1710, 1711, 1712
1713, 1714, 1715, 1716, 1717, 1718, 1719, 1720, 1721, 1722, 1723, 1724, 1725, 1726, 1727, 1728
1729, 1730, 1731, 1732, 1733, 1734, 1735, 1736, 1737, 1738, 1739, 1740, 1741, 1742, 1743, 1744
1745, 1746, 1747, 1748, 1749, 1750, 1751, 1752, 1753, 1754, 1755, 1756, 1757, 1758, 1759, 1760
1761, 1762, 1763, 1764, 1765, 1766, 1767, 1768, 1769, 1770, 1771, 1772, 1773, 1774, 1775, 1776
1777, 1778, 1779, 1780, 1781, 1782, 1783, 1784, 1785, 1786, 1787, 1788, 1789, 1790, 1791, 1792
1793, 1794, 1795, 1796, 1797, 1798, 1799, 1800, 1801, 1802, 1803, 1804, 1805, 1806, 1807, 1808
1809, 1810, 1811, 1812, 1813, 1814, 1815, 1816, 1817, 1818, 1819, 1820, 1821, 1822, 1823, 1824
1825, 1826, 1827, 1828, 1829, 1830, 1831, 1832, 1833, 1834, 1835, 1836, 1837, 1838, 1839, 1840
1841, 1842, 1843, 1844, 1845, 1846, 1847, 1848, 1849, 1850, 1851, 1852, 1853, 1854, 1855, 1856
1857, 1858, 1859, 1860, 1861, 1862, 1863, 1864, 1865, 1866, 1867, 1868, 1869, 1870, 1871, 1872
1873, 1874, 1875, 1876, 1877, 1878, 1879, 1880, 1881, 1882, 1883, 1884, 1885, 1886, 1887, 1888
1889, 1890, 1891, 1892, 1893, 1894, 1895, 1896, 1897, 1898, 1899, 1900, 1901, 1902, 1903, 1904
1905, 1906, 1907, 1908, 1909, 1910, 1911, 1912, 1913, 1914, 1915, 1916, 1917, 1918, 1919, 1920
1921, 1922, 1923, 1924, 1925, 1926, 1927, 1928, 1929, 1930, 1931, 1932, 1933, 1934, 1935, 1936
1937, 1938, 1939, 1940, 1941, 1942, 1943, 1944, 1945, 1946, 1947, 1948, 1949, 1950, 1951, 1952
1953, 1954, 1955, 1956, 1957, 1958, 1959, 1960, 1961, 1962, 1963, 1964, 1965, 1966, 1967, 1968
1969, 1970, 1971, 1972, 1973, 1974, 1975, 1976, 1977, 1978, 1979, 1980, 1981, 1982, 1983, 1984
1985, 1986, 1987, 1988, 1989, 1990, 1991, 1992, 1993, 1994, 1995, 1996, 1997, 1998, 1999, 2000
2001, 2002, 2003, 2004, 2005, 2006, 2007, 2008, 2009, 2010, 2011, 2012, 2013, 2014, 2015, 2016
2017, 2018, 2019, 2020, 2021, 2022, 2023, 2024, 2025, 2026, 2027, 2028, 2029, 2030, 2031, 2032
2033, 2034, 2035, 2036, 2037, 2038, 2039, 2040, 2041, 2042, 2043, 2044, 2045, 2046, 2047, 2048
2049, 2050, 2051, 2052, 2053, 2054, 2055, 2056, 2057, 2058, 2059, 2060, 2061, 2062, 2063, 2064
2065, 2066, 2067, 2068, 2069, 2070, 2071, 2072, 2073, 2074, 2075, 2076, 2077, 2078, 2079, 2080
2081, 2082, 2083, 2084, 2085, 2086, 2087, 2088, 2089, 2090, 2091, 2092, 2093, 2094, 2095, 2096
2097, 2098, 2099, 2100, 2101, 2102, 2103, 2104, 2105, 2106, 2107, 2108, 2109, 2110, 2111, 2112
2113, 2114, 2115, 2116, 2117, 2118, 2119, 2120, 2121, 2122, 2123, 2124, 2125, 2126, 2127, 2128
2129, 2130, 2131, 2132, 2133, 2134, 2135, 2136, 2137, 2138, 2139, 2140, 2141, 2142, 2143, 2144
2145, 2146, 2147, 2148, 2149, 2150, 2151, 2152, 2153, 2154, 2155, 2156, 2157, 2158, 2159, 2160
2161, 2162, 2163, 2164, 2165, 2166, 2167, 2168, 2169, 2170, 2171, 2172, 2173, 2174, 2175, 2176
2177, 2178, 2179, 2180, 2181, 2182, 2183, 2184, 2185, 2186, 2187, 2188, 2189, 2190, 2191, 2192
2193, 2194, 2195, 2196, 2197, 2198, 2199, 2200, 2201, 2202, 2203, 2204, 2205, 2206, 2207, 2208
2209, 2210, 2211, 2212, 2213, 2214, 2215, 2216, 2217, 2218, 2219, 2220, 2221, 2222, 2223, 2224
2225, 2226, 2227, 2228, 2229, 2230, 2231, 2232, 2233, 2234, 2235, 2236, 2237, 2238, 2239, 2240
2241, 2242, 2243, 2244, 2245, 2246, 2247, 2248, 2249, 2250, 2251, 2252, 2253, 2254, 2255, 2256
2257, 2258, 2259, 2260, 2261, 2262, 2263, 2264, 2265, 2266, 2267, 2268, 2269, 2270, 2271, 2272
2273, 2274, 2275, 2276, 2277, 2278, 2279, 2280, 2281, 2282, 2283, 2284, 2285, 2286, 2287, 2288
2289, 2290, 2291, 2292, 2293, 2294, 2295, 2296, 2297, 2298, 2299, 2300, 2301, 2302, 2303, 2304
2305, 2306, 2307, 2308, 2309, 2310, 2311, 2312, 2313, 2314, 2315, 2316, 2317, 2318, 2319, 2320
2321, 2322, 2323, 2324, 2325, 2326, 2327, 2328, 2329, 2330, 2331, 2332, 2333, 2334, 2335, 2336
2337, 2338, 2339, 2340, 2341, 2342, 2343, 2344, 2345, 2346, 2347, 2348, 2349, 2350, 2351, 2352
2353, 2354, 2355, 2356, 2357, 2358, 2359, 2360, 2361, 2362, 2363, 2364, 2365, 2366, 2367, 2368
2369, 2370, 2371, 2372, 2373, 2374, 2375, 2376, 2377, 2378, 2379, 2380, 2381, 2382, 2383, 2384
2385, 2386, 2387, 2388, 2389, 2390, 2391, 2392, 2393, 2394, 2395, 2396, 2397, 2398, 2399, 2400
2401, 2402, 2403, 2404, 2405, 2406, 2407, 2408, 2409, 2410, 2411, 2412, 2413, 2414, 2415, 2416
2417, 2418, 2419, 2420, 2421, 2422, 2423, 2424, 2425, 2426, 2427, 2428, 2429, 2430, 2431, 2432
2433, 2434, 2435, 2436, 2437, 2438, 2439, 2440, 2441, 2442, 2443, 2444, 2445, 2446, 2447, 2448
2449, 2450, 2451, 2452, 2453, 2454, 2455, 2456, 2457, 2458, 2459, 2460, 2461, 2462, 2463, 2464
2465, 2466, 2467, 2468, 2469, 2470, 2471, 2472, 2473, 2474, 2475, 2476, 2477, 2478, 2479, 2480
2481, 2482, 2483, 2484, 2485, 2486, 2487, 2488, 2489, 2490, 2491, 2492, 2493, 2494, 2495, 2496
2497, 2498, 2499, 2500, 2501, 2502, 2503, 2504, 2505, 2506, 2507, 2508, 2509, 2510, 2511, 2512
2513, 2514, 2515, 2516, 2517, 2518, 2519, 2520, 2521, 2522, 2523, 2524, 2525, 2526, 2527, 2528
2529, 2530, 2531, 2532, 2533, 2534, 2535, 2536, 2537, 2538, 2539, 2540, 2541, 2542, 2543, 2544
2545, 2546, 2547, 2548, 2549, 2550, 2551, 2552, 2553, 2554, 2555, 2556, 2557, 2558, 2559, 2560
2561, 2562, 2563, 2564, 2565, 2566, 2567, 2568, 2569, 2570, 2571, 2572, 2573, 2574, 2575, 2576
2577, 2578, 2579, 2580, 2581, 2582, 2583, 2584, 2585, 2586, 2587, 2588, 2589, 2590, 2591, 2592
2593, 2594, 2595, 2596, 2597, 2598, 2599, 2600, 2601, 2602, 2603, 2604, 2605, 2606, 2607, 2608
2609, 2610, 2611, 2612, 2613, 2614, 2615, 2616, 2617, 2618, 2619, 2620, 2621, 2622, 2623, 2624
2625, 2626, 2627, 2628, 2629, 2630, 2631, 2632, 2633, 2634, 2635, 2636, 2637, 2638, 2639, 2640
2641, 2642, 2643, 2644, 2645, 2646, 2647, 2648, 2649, 2650, 2651, 2652, 2653, 2654, 2655, 2656
2657, 2658, 2659, 2660, 2661, 2662, 2663, 2664, 2665, 2666, 2667, 2668, 2669, 2670, 2671, 2672
2673, 2674, 2675, 2676, 2677, 2678, 2679, 2680, 2681, 2682, 2683, 2684, 2685, 2686, 2687, 2688
2689, 2690, 2691, 2692, 2693, 2694, 2695, 2696, 2697, 2698, 2699, 2700, 2701, 2702, 2703, 2704
2705, 2706, 2707, 2708, 2709, 2710, 2711, 2712, 2713, 2714, 2715, 2716, 2717, 2718, 2719, 2720
2721, 2722, 2723, 2724, 2725, 2726, 2727, 2728, 2729, 2730, 2731, 2732, 2733, 2734, 2735, 2736
2737, 2738, 2739, 2740, 2741, 2742, 2743, 2744, 2745, 2746, 2747, 2748, 2749, 2750, 2751, 2752
2753, 2754, 2755, 2756, 2757, 2758, 2759, 2760, 2761, 2762, 2763, 2764, 2765, 2766, 2767, 2768
2769, 2770, 2771, 2772, 2773, 2774, 2775, 2776, 2777, 2778, 2779, 2780, 2781, 2782, 2783, 2784
2785, 2786, 2787, 2788, 2789, 2790, 2791, 2792, 2793, 2794, 2795, 2796, 2797, 2798, 2799, 2800
2801, 2802, 2803, 2804, 2805, 2806, 2807, 2808, 2809, 2810, 2811, 2812, 2813, 2814, 2815, 2816
2817, 2818, 2819, 2820, 2821, 2822, 2823, 2824, 2825, 2826, 2827, 2828, 2829, 2830, 2831, 2832
2833, 2834, 2835, 2836, 2837, 2838, 2839, 2840, 2841, 2842, 2843, 2844, 2845, 2846, 2847, 2848
2849, 2850, 2851, 2852, 2853, 2854, 2855, 2856, 2857, 2858, 2859, 2860, 2861, 2862, 2863, 2864
2865, 2866, 2867, 2868, 2869, 2870, 2871, 2872, 2873, 2874, 2875, 2876, 2877, 2878, 2879, 2880
2881, 2882, 2883, 2884, 2885, 2886, 2887, 2888, 2889, 2890, 2891, 2892, 2893, 2894, 2895, 2896
2897, 2898, 2899, 2900, 2901, 2902, 2903, 2904, 2905, 2906, 2907, 2908, 2909, 2910, 2911, 2912
2913, 2914, 2915, 2916, 2917, 2918, 2919, 2920, 2921, 2922, 2923, 2924, 2925, 2926, 2927, 2928
2929, 2930, 2931, 2932, 2933, 2934, 2935, 2936, 2937, 2938, 2939, 2940, 2941, 2942, 2943, 2944
2945, 2946, 2947, 2948, 2949, 2950, 2951, 2952, 2953, 2954, 2955, 2956, 2957, 2958, 2959, 2960
2961, 2962, 2963, 2964, 2965, 2966, 2967, 2968, 2969, 2970, 2971, 2972, 2973, 2974, 2975, 2976
2977, 2978, 2979, 2980, 2981, 2982, 2983, 2984, 2985, 2986, 2987, 2988, 2989, 2990, 2991, 2992
2993, 2994, 2995, 2996, 2997, 2998, 2999, 3000, 3001, 3002, 3003, 3004, 3005, 3006, 3007, 3008
3009, 3010, 3011, 3012, 3013, 3014, 3015, 3016, 3017, 3018, 3019, 3020, 3021, 3022, 3023, 3024
3025, 3026, 3027, 3028, 3029, 3030, 3031, 3032, 3033, 3034, 3035, 3036, 3037, 3038, 3039, 3040
3041, 3042, 3043, 3044, 3045, 3046, 3047, 3048, 3049, 3050, 3051, 3052, 3053, 3054, 3055, 3056
3057, 3058, 3059, 3060, 3061, 3062, 3063, 3064, 3065, 3066, 3067, 3068, 3069, 3070, 3071, 3072
3073, 3074, 3075, 3076, 3077, 3078, 3079, 3080, 3081, 3082, 3083, 3084, 3085, 3086, 3087, 3088
3089, 3090, 3091, 3092, 3093, 3094, 3095, 3096, 3097, 3098, 3099, 3100, 3101, 3102, 3103, 3104
3105, 3106, 3107, 3108, 3109, 3110, 3111, 3112, 3113, 3114, 3115, 3116, 3117, 3118, 3119, 3120
3121, 3122, 3123, 3124, 3125, 3126, 3127, 3128, 3129, 3130, 3131, 3132, 3133, 3134, 3135, 3136
3137, 3138, 3139, 3140, 3141, 3142, 3143, 3144, 3145, 3146, 3147, 3148, 3149, 3150, 3151, 3152
3153, 3154, 3155, 3156, 3157, 3158, 3159, 3160, 3161, 3162, 3163, 3164, 3165, 3166, 3167, 3168
3169, 3170, 3171, 3172, 3173, 3174, 3175, 3176, 3177, 3178, 3179, 3180, 3181, 3182, 3183, 3184
3185, 3186, 3187, 3188, 3189, 3190, 3191, 3192, 3193, 3194, 3195, 3196, 3197, 3198, 3199, 3200
3201, 3202, 3203, 3204, 3205, 3206, 3207, 3208, 3209, 3210, 3211, 3212, 3213, 3214, 3215, 3216
3217, 3218, 3219, 3220, 3221, 3222, 3223, 3224, 3225, 3226, 3227, 3228, 3229, 3230, 3231, 3232
3233, 3234, 3235, 3236, 3237, 3238, 3239, 3240, 3241, 3242, 3243, 3244, 3245, 3246, 3247, 3248
3249, 3250, 3251, 3252, 3253, 3254, 3255, 3256, 3257, 3258, 3259, 3260, 3261, 3262, 3263, 3264
3265, 3266, 3267, 3268, 3269, 3270, 3271, 3272, 3273, 3274, 3275, 3276, 3277, 3278, 3279, 3280
3281, 3282, 3283, 3284, 3285, 3286, 3287, 3288, 3289, 3290, 3291, 3292, 3293, 3294, 3295, 3296
3297, 3298, 3299, 3300, 3301, 3302, 3303, 3304, 3305, 3306, 3307, 3308, 3309, 3310, 3311, 3312
3313, 3314, 3315, 3316, 3317, 3318, 3319, 3320, 3321, 3322, 3323, 3324, 3325, 3326, 3327, 3328
3329, 3330, 3331, 3332, 3333, 3334, 3335, 3336, 3337, 3338, 3339, 3340, 3341, 3342, 3343, 3344
3345, 3346, 3347, 3348, 3349, 3350, 3351, 3352, 3353, 3354, 3355, 3356, 3357, 3358, 3359, 3360
3361, 3362, 3363, 3364, 3365, 3366, 3367, 3368, 3369, 3370, 3371, 3372, 3373, 3374, 3375, 3376
3377, 3378, 3379, 3380, 3381, 3382, 3383, 3384, 3385, 3386, 3387, 3388, 3389, 3390, 3391, 3392
3393, 3394, 3395, 3396, 3397, 3398, 3399, 3400, 3401, 3402, 3403, 3404, 3405, 3406, 3407, 3408
3409, 3410, 3411, 3412, 3413, 3414, 3415, 3416, 3417, 3418, 3419, 3420, 3421, 3422, 3423, 3424
3425, 3426, 3427, 3428, 3429, 3430, 3431, 3432, 3433, 3434, 3435, 3436, 3437, 3438, 3439, 3440
3441, 3442, 3443, 3444, 3445, 3446, 3447, 3448, 3449, 3450, 3451, 3452, 3453, 3454, 3455, 3456
3457, 3458, 3459, 3460, 3461, 3462, 3463, 3464, 3465, 3466, 3467, 3468, 3469, 3470, 3471, 3472
3473, 3474, 3475, 3476, 3477, 3478, 3479, 3480, 3481, 3482, 3483, 3484, 3485, 3486, 3487, 3488
3489, 3490, 3491, 3492, 3493, 3494, 3495, 3496, 3497, 3498, 3499, 3500, 3501, 3502, 3503, 3504
3505, 3506, 3507, 3508, 3509, 3510, 3511, 3512, 3513, 3514, 3515, 3516, 3517, 3518, 3519, 3520
3521, 3522, 3523, 3524, 3525, 3526, 3527, 3528, 3529, 3530, 3531, 3532, 3533, 3534, 3535, 3536
3537, 3538, 3539, 3540, 3541, 3542, 3543, 3544, 3545, 3546, 3547, 3548, 3549, 3550, 3551, 3552
3553, 3554, 3555, 3556, 3557, 3558, 3559, 3560, 3561, 3562, 3563, 3564, 3565, 3566, 3567, 3568
3569, 3570, 3571, 3572, 3573, 3574, 3575, 3576, 3577, 3578, 3579, 3580, 3581, 3582, 3583, 3584
3585, 3586, 3587, 3588, 3589, 3590, 3591, 3592, 3593, 3594, 3595, 3596, 3597, 3598, 3599, 3600
3601, 3602, 3603, 3604, 3605, 3606, 3607, 3608, 3609, 3610, 3611, 3612, 3613, 3614, 3615, 3616
3617, 3618, 3619, 3620, 3621, 3622, 3623, 3624, 3625, 3626, 3627, 3628, 3629, 3630, 3631, 3632
3633, 3634, 3635, 3636, 3637, 3638, 3639, 3640, 3641, 3642, 3643, 3644, 3645, 3646, 3647, 3648
3649, 3650, 3651, 3652, 3653, 3654, 3655, 3656, 3657, 3658, 3659, 3660, 3661, 3662, 3663, 3664
3665, 3666, 3667, 3668, 3669, 3670, 3671, 3672, 3673, 3674, 3675, 3676, 3677, 3678, 3679, 3680
3681, 3682, 3683, 3684, 3685, 3686, 3687, 3688, 3689, 3690, 3691, 3692, 3693, 3694, 3695, 3696
3697, 3698, 3699, 3700, 3701, 3702, 3703, 3704, 3705, 3706, 3707, 3708, 3709, 3710, 3711, 3712
3713, 3714, 3715, 3716, 3717, 3718, 3719, 3720, 3721, 3722, 3723, 3724, 3725, 3726, 3727, 3728
3729, 3730, 3731, 3732, 3733, 3734, 3735, 3736, 3737, 3738, 3739, 3740, 3741, 3742, 3743, 3744
3745, 3746, 3747, 3748, 3749, 3750, 3751, 3752, 3753, 3754, 3755, 3756, 3757, 3758, 3759, 3760
3761, 3762, 3763, 3764, 3765, 3766, 3767, 3768, 3769, 3770, 3771, 3772, 3773, 3774, 3775, 3776
3777, 3778, 3779, 3780, 3781, 3782, 3783, 3784, 3785, 3786, 3787, 3788, 3789, 3790, 3791, 3792
3793, 3794, 3795, 3796, 3797, 3798, 3799, 3800, 3801, 3802, 3803, 3804, 3805, 3806, 3807, 3808
3809, 3810, 3811, 3812, 3813, 3814, 3815, 3816, 3817, 3818, 3819, 3820, 3821, 3822, 3823, 3824
3825, 3826, 3827, 3828, 3829, 3830, 3831, 3832, 3833, 3834, 3835, 3836, 3837, 3838, 3839, 3840
3841, 3842, 3843, 3844, 3845, 3846, 3847, 3848, 3849, 3850, 3851, 3852, 3853, 3854, 3855, 3856
3857, 3858, 3859, 3860, 3861, 3862, 3863, 3864, 3865, 3866, 3867, 3868, 3869, 3870, 3871, 3872
3873, 3874, 3875, 3876, 3877, 3878, 3879, 3880, 3881, 3882, 3883, 3884, 3885, 3886, 3887, 3888
3889, 3890, 3891, 3892, 3893, 3894, 3895, 3896, 3897, 3898, 3899, 3900, 3901, 3902, 3903, 3904
3905, 3906, 3907, 3908, 3909, 3910, 3911, 3912, 3913, 3914, 3915, 3916, 3917, 3918, 3919, 3920
3921, 3922, 3923, 3924, 3925, 3926, 3927, 3928, 3929, 3930, 3931, 3932, 3933, 3934, 3935, 3936
3937, 3938, 3939, 3940, 3941, 3942, 3943, 3944, 3945, 3946, 3947, 3948, 3949, 3950, 3951, 3952
3953, 3954, 3955, 3956, 3957, 3958, 3959, 3960, 3961, 3962, 3963, 3964, 3965, 3966, 3967, 3968
3969, 3970, 3971, 3972, 3973, 3974, 3975, 3976, 3977, 3978, 3979, 3980, 3981, 3982, 3983, 3984
3985, 3986, 3987, 3988, 3989, 3990, 3991, 3992, 3993, 3994, 3995, 3996, 3997, 3998, 3999, 4000
4001, 4002, 4003, 4004, 4005, 4006, 4007, 4008, 4009, 4010, 4011, 4012, 4013, 4014, 4015, 4016
4017, 4018, 4019, 4020, 4021, 4022, 4023, 4024, 4025, 4026, 4027, 4028, 4029, 4030, 4031, 4032
4033, 4034, 4035, 4036, 4037, 4038, 4039, 4040, 4041, 4042, 4043, 4044, 4045, 4046, 4047, 4048
4049, 4050, 4051, 4052, 4053, 4054, 4055, 4056, 4057, 4058, 4059, 4060, 4061, 4062, 4063, 4064
4065, 4066, 4067, 4068, 4069, 4070, 4071, 4072, 4073, 4074, 4075, 4076, 4077, 4078, 4079, 4080
4081, 4082, 4083, 4084, 4085, 4086, 4087, 4088, 4089, 4090, 4091, 4092, 4093, 4094, 4095, 4096
4097, 4098, 4099, 4100, 4101, 4102, 4103, 4104, 4105, 4106, 4107, 4108, 4109, 4110, 4111, 4112
4113, 4114, 4115, 4116, 4117, 4118, 4119, 4120, 4121, 4122, 4123, 4124, 4125, 4126, 4127, 4128
4129, 4130, 4131, 4132, 4133, 4134, 4135, 4136, 4137, 4138, 4139, 4140, 4141, 4142, 4143, 4144
4145, 4146, 4147, 4148, 4149, 4150, 4151, 4152, 4153, 4154, 4155, 4156, 4157, 4158, 4159, 4160
4161, 4162, 4163, 4164, 4165, 4166, 4167, 4168, 4169, 4170, 4171, 4172, 4173, 4174, 4175, 4176
4177, 4178, 4179, 4180, 4181, 4182, 4183, 4184, 4185, 4186, 4187, 4188, 4189, 4190, 4191, 4192
4193, 4194, 4195, 4196, 4197, 4198, 4199, 4200, 4201, 4202, 4203, 4204, 4205, 4206, 4207, 4208
4209, 4210, 4211, 4212, 4213, 4214, 4215, 4216, 4217, 4218, 4219, 4220, 4221, 4222, 4223, 4224
4225, 4226, 4227, 4228, 4229, 4230, 4231, 4232, 4233, 4234, 4235, 4236, 4237, 4238, 4239, 4240
4241, 4242, 4243, 4244, 4245, 4246, 4247, 4248, 4249, 4250, 4251, 4252, 4253, 4254, 4255, 4256
4257, 4258, 4259, 4260, 4261, 4262, 4263, 4264, 4265, 4266, 4267, 4268, 4269, 4270, 4271, 4272
4273, 4274, 4275, 4276, 4277, 4278, 4279, 4280, 4281, 4282, 4283, 4284, 4285, 4286, 4287, 4288
4289, 4290, 4291, 4292, 4293, 4294, 4295, 4296, 4297, 4298, 4299, 4300, 4301, 4302, 4303, 4304
4305, 4306, 4307, 4308, 4309, 4310, 4311, 4312, 4313, 4314, 4315, 4316, 4317, 4318, 4319, 4320
4321, 4322, 4323, 4324, 4325, 4326, 4327, 4328, 4329, 4330, 4331, 4332, 4333, 4334, 4335, 4336
4337, 4338, 4339, 4340, 4341, 4342, 4343, 4344, 4345, 4346, 4347, 4348, 4349, 4350, 4351, 4352
4353, 4354, 4355, 4356, 4357, 4358, 4359, 4360, 4361, 4362, 4363, 4364, 4365, 4366, 4367, 4368
4369, 4370, 4371, 4372, 4373, 4374, 4375, 4376, 4377, 4378, 4379, 4380, 4381, 4382, 4383, 4384
4385, 4386, 4387, 4388, 4389, 4390, 4391, 4392, 4393, 4394, 4395, 4396, 4397, 4398, 4399, 4400
4401, 4402, 4403, 4404, 4405, 4406, 4407, 4408, 4409, 4410, 4411, 4412, 4413, 4414, 4415, 4416
4417, 4418, 4419, 4420, 4421, 4422, 4423, 4424, 4425, 4426, 4427, 4428, 4429, 4430, 4431, 4432
4433, 4434, 4435, 4436, 4437, 4438, 4439, 4440, 4441, 4442, 4443, 4444, 4445, 4446, 4447, 4448
4449, 4450, 4451, 4452, 4453, 4454, 4455, 4456, 4457, 4458, 4459, 4460, 4461, 4462, 4463, 4464
4465, 4466, 4467, 4468, 4469, 4470, 4471, 4472, 4473, 4474, 4475, 4476, 4477, 4478, 4479, 4480
4481, 4482, 4483, 4484, 4485, 4486, 4487, 4488, 4489, 4490, 4491, 4492, 4493, 4494, 4495, 4496
4497, 4498, 4499, 4500, 4501, 4502, 4503, 4504, 4505, 4506, 4507, 4508, 4509, 4510, 4511, 4512
4513, 4514, 4515, 4516, 4517, 4518, 4519, 4520, 4521, 4522, 4523, 4524, 4525, 4526, 4527, 4528
4529, 4530, 4531, 4532, 4533, 4534, 4535, 4536, 4537, 4538, 4539, 4540, 4541, 4542, 4543, 4544
4545, 4546, 4547, 4548, 4549, 4550, 4551, 4552, 4553, 4554, 4555, 4556, 4557, 4558, 4559, 4560
4561, 4562, 4563, 4564, 4565, 4566, 4567, 4568, 4569, 4570, 4571, 4572, 4573, 4574, 4575, 4576
4577, 4578, 4579, 4580, 4581, 4582, 4583, 4584, 4585, 4586, 4587, 4588, 4589, 4590, 4591, 4592
4593, 4594, 4595, 4596, 4597, 4598, 4599, 4600, 4601, 4602, 4603, 4604, 4605, 4606, 4607, 4608
4609, 4610, 4611, 4612, 4613, 4614, 4615, 4616, 4617, 4618, 4619, 4620, 4621, 4622, 4623, 4624
4625, 4626, 4627, 4628, 4629, 4630, 4631, 4632, 4633, 4634, 4635, 4636, 4637, 4638, 4639, 4640
4641, 4642, 4643, 4644, 4645, 4646, 4647, 4648, 4649, 4650, 4651, 4652, 4653, 4654, 4655, 4656
4657, 4658, 4659, 4660, 4661, 4662, 4663, 4664, 4665, 4666, 4667, 4668, 4669, 4670, 4671, 4672
4673, 4674, 4675, 4676, 4677, 4678, 4679, 4680, 4681, 4682, 4683, 4684, 4685, 4686, 4687, 4688
4689, 4690, 4691, 4692
*ELSET, ELSET=MECH_ELEM
4693, 4694, 4695, 4696, 4697, 4698, 4699, 4700, 4701, 4702, 4703, 4704, 4705, 4706, 4707, 4708
4709, 4710, 4711, 4712, 4713, 4714, 4715, 4716, 4717, 4718, 4719, 4720, 4721, 4722, 4723, 4724
4725, 4726, 4727, 4728, 4729, 4730, 4731, 4732, 4733, 4734, 4735, 4736, 4737, 4738, 4739, 4740
4741, 4742, 4743, 4744, 4745, 4746, 4747, 4748, 4749, 4750, 4751, 4752, 4753, 4754, 4755, 4756
4757, 4758, 4759, 4760, 4761, 4762, 4763, 4764, 4765, 4766, 4767, 4768, 4769, 4770, 4771, 4772
4773, 4774, 4775, 4776, 4777, 4778, 4779, 4780, 4781, 4782, 4783, 4784, 4785, 4786, 4787, 4788
4789, 4790, 4791, 4792, 4793, 4794, 4795, 4796, 4797, 4798, 4799, 4800, 4801, 4802, 4803, 4804
4805, 4806, 4807, 4808, 4809, 4810, 4811, 4812, 4813, 4814, 4815, 4816, 4817, 4818, 4819, 4820
4821, 4822, 4823, 4824, 4825, 4826, 4827, 4828, 4829, 4830, 4831, 4832, 4833, 4834, 4835, 4836
4837, 4838, 4839, 4840, 4841, 4842, 4843, 4844, 4845, 4846, 4847, 4848, 4849, 4850, 4851, 4852
4853, 4854, 4855, 4856, 4857, 4858, 4859, 4860, 4861, 4862, 4863, 4864, 4865, 4866, 4867, 4868
4869, 4870, 4871, 4872, 4873, 4874, 4875, 4876, 4877, 4878, 4879, 4880, 4881, 4882, 4883, 4884
4885, 4886, 4887, 4888, 4889, 4890, 4891, 4892, 4893, 4894, 4895, 4896, 4897, 4898, 4899, 4900
4901, 4902, 4903, 4904, 4905, 4906, 4907, 4908, 4909, 4910, 4911, 4912, 4913, 4914, 4915, 4916
4917, 4918, 4919, 4920, 4921, 4922, 4923, 4924, 4925, 4926, 4927, 4928, 4929, 4930, 4931, 4932
4933, 4934, 4935, 4936, 4937, 4938, 4939, 4940, 4941, 4942, 4943, 4944, 4945, 4946, 4947, 4948
4949, 4950, 4951, 4952, 4953, 4954, 4955, 4956, 4957, 4958, 4959, 4960, 4961, 4962, 4963, 4964
4965, 4966, 4967, 4968, 4969, 4970, 4971, 4972, 4973, 4974, 4975, 4976, 4977, 4978, 4979, 4980
4981, 4982, 4983, 4984, 4985, 4986, 4987, 4988, 4989, 4990, 4991, 4992, 4993, 4994, 4995, 4996
4997, 4998, 4999, 5000, 5001, 5002, 5003, 5004, 5005, 5006, 5007, 5008, 5009, 5010, 5011, 5012
5013, 5014, 5015, 5016, 5017, 5018, 5019, 5020, 5021, 5022, 5023, 5024, 5025, 5026, 5027, 5028
5029, 5030, 5031, 5032, 5033, 5034, 5035, 5036, 5037, 5038, 5039, 5040, 5041, 5042, 5043, 5044
5045, 5046, 5047, 5048, 5049, 5050, 5051, 5052, 5053, 5054, 5055, 5056, 5057, 5058, 5059, 5060
5061, 5062, 5063, 5064, 5065, 5066, 5067, 5068, 5069, 5070, 5071, 5072, 5073, 5074, 5075, 5076
5077, 5078, 5079, 5080, 5081, 5082, 5083, 5084, 5085, 5086, 5087, 5088, 5089, 5090, 5091, 5092
5093, 5094, 5095, 5096, 5097, 5098, 5099, 5100, 5101, 5102, 5103, 5104, 5105, 5106, 5107, 5108
5109, 5110, 5111, 5112, 5113, 5114, 5115, 5116, 5117, 5118, 5119, 5120, 5121, 5122, 5123, 5124
5125, 5126, 5127, 5128, 5129, 5130, 5131, 5132, 5133, 5134, 5135, 5136, 5137, 5138, 5139, 5140
5141, 5142, 5143, 5144, 5145, 5146, 5147, 5148, 5149, 5150, 5151, 5152, 5153, 5154, 5155, 5156
5157, 5158, 5159, 5160, 5161, 5162, 5163, 5164, 5165, 5166, 5167, 5168, 5169, 5170, 5171, 5172
5173, 5174, 5175, 5176, 5177, 5178, 5179, 5180, 5181, 5182, 5183, 5184, 5185, 5186, 5187, 5188
5189, 5190, 5191, 5192, 5193, 5194, 5195, 5196, 5197, 5198, 5199, 5200, 5201, 5202, 5203, 5204
5205, 5206, 5207, 5208, 5209, 5210, 5211, 5212, 5213, 5214, 5215, 5216, 5217, 5218, 5219, 5220
5221, 5222, 5223, 5224, 5225, 5226, 5227, 5228, 5229, 5230, 5231, 5232, 5233, 5234, 5235, 5236
5237, 5238, 5239, 5240, 5241, 5242, 5243, 5244, 5245, 5246, 5247, 5248, 5249, 5250, 5251, 5252
5253, 5254, 5255, 5256, 5257, 5258, 5259, 5260, 5261, 5262, 5263, 5264, 5265, 5266, 5267, 5268
5269, 5270, 5271, 5272, 5273, 5274, 5275, 5276, 5277, 5278, 5279, 5280, 5281, 5282, 5283, 5284
5285, 5286, 5287, 5288, 5289, 5290, 5291, 5292, 5293, 5294, 5295, 5296, 5297, 5298, 5299, 5300
5301, 5302, 5303, 5304, 5305, 5306, 5307, 5308, 5309, 5310, 5311, 5312, 5313, 5314, 5315, 5316
5317, 5318, 5319, 5320, 5321, 5322, 5323, 5324, 5325, 5326, 5327, 5328, 5329, 5330, 5331, 5332
5333, 5334, 5335, 5336, 5337, 5338, 5339, 5340, 5341, 5342, 5343, 5344, 5345, 5346, 5347, 5348
5349, 5350, 5351, 5352, 5353, 5354, 5355, 5356, 5357, 5358, 5359, 5360, 5361, 5362, 5363, 5364
5365, 5366, 5367, 5368, 5369, 5370, 5371, 5372, 5373, 5374, 5375, 5376, 5377, 5378, 5379, 5380
5381, 5382, 5383, 5384, 5385, 5386, 5387, 5388, 5389, 5390, 5391, 5392, 5393, 5394, 5395, 5396
5397, 5398, 5399, 5400, 5401, 5402, 5403, 5404, 5405, 5406, 5407, 5408, 5409, 5410, 5411, 5412
5413, 5414, 5415, 5416, 5417, 5418, 5419, 5420, 5421, 5422, 5423, 5424, 5425, 5426, 5427, 5428
5429, 5430, 5431, 5432, 5433, 5434, 5435, 5436, 5437, 5438, 5439, 5440, 5441, 5442, 5443, 5444
5445, 5446, 5447, 5448, 5449, 5450, 5451, 5452, 5453, 5454, 5455, 5456, 5457, 5458, 5459, 5460
5461, 5462, 5463, 5464, 5465, 5466, 5467, 5468, 5469, 5470, 5471, 5472, 5473, 5474, 5475, 5476
5477, 5478, 5479, 5480, 5481, 5482, 5483, 5484, 5485, 5486, 5487, 5488, 5489, 5490, 5491, 5492
5493, 5494, 5495, 5496, 5497, 5498, 5499, 5500, 5501, 5502, 5503, 5504, 5505, 5506, 5507, 5508
5509, 5510, 5511, 5512, 5513, 5514, 5515, 5516, 5517, 5518, 5519, 5520, 5521, 5522, 5523, 5524
5525, 5526, 5527, 5528, 5529, 5530, 5531, 5532, 5533, 5534, 5535, 5536, 5537, 5538, 5539, 5540
5541, 5542, 5543, 5544, 5545, 5546, 5547, 5548, 5549, 5550, 5551, 5552, 5553, 5554, 5555, 5556
5557, 5558, 5559, 5560, 5561, 5562, 5563, 5564, 5565, 5566, 5567, 5568, 5569, 5570, 5571, 5572
5573, 5574, 5575, 5576, 5577, 5578, 5579, 5580, 5581, 5582, 5583, 5584, 5585, 5586, 5587, 5588
5589, 5590, 5591, 5592, 5593, 5594, 5595, 5596, 5597, 5598, 5599, 5600, 5601, 5602, 5603, 5604
5605, 5606, 5607, 5608, 5609, 5610, 5611, 5612, 5613, 5614, 5615, 5616, 5617, 5618, 5619, 5620
5621, 5622, 5623, 5624, 5625, 5626, 5627, 5628, 5629, 5630, 5631, 5632, 5633, 5634, 5635, 5636
5637, 5638, 5639, 5640, 5641, 5642, 5643, 5644, 5645, 5646, 5647, 5648, 5649, 5650, 5651, 5652
5653, 5654, 5655, 5656, 5657, 5658, 5659, 5660, 5661, 5662, 5663, 5664, 5665, 5666, 5667, 5668
5669, 5670, 5671, 5672, 5673, 5674, 5675, 5676, 5677, 5678, 5679, 5680, 5681, 5682, 5683, 5684
5685, 5686, 5687, 5688, 5689, 5690, 5691, 5692, 5693, 5694, 5695, 5696, 5697, 5698, 5699, 5700
5701, 5702, 5703, 5704, 5705, 5706, 5707, 5708, 5709, 5710, 5711, 5712, 5713, 5714, 5715, 5716
5717, 5718, 5719, 5720, 5721, 5722, 5723, 5724, 5725, 5726, 5727, 5728, 5729, 5730, 5731, 5732
5733, 5734, 5735, 5736, 5737, 5738, 5739, 5740, 5741, 5742, 5743, 5744, 5745, 5746, 5747, 5748
5749, 5750, 5751, 5752, 5753, 5754, 5755, 5756, 5757, 5758, 5759, 5760, 5761, 5762, 5763, 5764
5765, 5766, 5767, 5768, 5769, 5770, 5771, 5772, 5773, 5774, 5775, 5776, 5777, 5778, 5779, 5780
5781, 5782, 5783, 5784, 5785, 5786, 5787, 5788, 5789, 5790, 5791, 5792, 5793, 5794, 5795, 5796
5797, 5798, 5799, 5800, 5801, 5802, 5803, 5804, 5805, 5806, 5807, 5808, 5809, 5810, 5811, 5812
5813, 5814, 5815, 5816, 5817, 5818, 5819, 5820, 5821, 5822, 5823, 5824, 5825, 5826, 5827, 5828
5829, 5830, 5831, 5832, 5833, 5834, 5835, 5836, 5837, 5838, 5839, 5840, 5841, 5842, 5843, 5844
5845, 5846, 5847, 5848, 5849, 5850, 5851, 5852, 5853, 5854, 5855, 5856, 5857, 5858, 5859, 5860
5861, 5862, 5863, 5864, 5865, 5866, 5867, 5868, 5869, 5870, 5871, 5872, 5873, 5874, 5875, 5876
5877, 5878, 5879, 5880, 5881, 5882, 5883, 5884, 5885, 5886, 5887, 5888, 5889, 5890, 5891, 5892
5893, 5894, 5895, 5896, 5897, 5898, 5899, 5900, 5901, 5902, 5903, 5904, 5905, 5906, 5907, 5908
5909, 5910, 5911, 5912, 5913, 5914, 5915, 5916, 5917, 5918, 5919, 5920, 5921, 5922, 5923, 5924
5925, 5926, 5927, 5928, 5929, 5930, 5931, 5932, 5933, 5934, 5935, 5936, 5937, 5938, 5939, 5940
5941, 5942, 5943, 5944, 5945, 5946, 5947, 5948, 5949, 5950, 5951, 5952, 5953, 5954, 5955, 5956
5957, 5958, 5959, 5960, 5961, 5962, 5963, 5964, 5965, 5966, 5967, 5968, 5969, 5970, 5971, 5972
5973, 5974, 5975, 5976, 5977, 5978, 5979, 5980, 5981, 5982, 5983, 5984, 5985, 5986, 5987, 5988
5989, 5990, 5991, 5992, 5993, 5994, 5995, 5996, 5997, 5998, 5999, 6000, 6001, 6002, 6003, 6004
6005, 6006, 6007, 6008, 6009, 6010, 6011, 6012, 6013, 6014, 6015, 6016, 6017, 6018, 6019, 6020
6021, 6022, 6023, 6024, 6025, 6026, 6027, 6028, 6029, 6030, 6031, 6032, 6033, 6034, 6035, 6036
6037, 6038, 6039, 6040, 6041, 6042, 6043, 6044, 6045, 6046, 6047, 6048, 6049, 6050, 6051, 6052
6053, 6054, 6055, 6056, 6057, 6058, 6059, 6060, 6061, 6062, 6063, 6064, 6065, 6066, 6067, 6068
6069, 6070, 6071, 6072, 6073, 6074, 6075, 6076, 6077, 6078, 6079, 6080, 6081, 6082, 6083, 6084
6085, 6086, 6087, 6088, 6089, 6090, 6091, 6092, 6093, 6094, 6095, 6096, 6097, 6098, 6099, 6100
6101, 6102, 6103, 6104, 6105, 6106, 6107, 6108, 6109, 6110, 6111, 6112, 6113, 6114, 6115, 6116
6117, 6118, 6119, 6120, 6121, 6122, 6123, 6124, 6125, 6126, 6127, 6128, 6129, 6130, 6131, 6132
6133, 6134, 6135, 6136, 6137, 6138, 6139, 6140, 6141, 6142, 6143, 6144, 6145, 6146, 6147, 6148
6149, 6150, 6151, 6152, 6153, 6154, 6155, 6156, 6157, 6158, 6159, 6160, 6161, 6162, 6163, 6164
6165, 6166, 6167, 6168, 6169, 6170, 6171, 6172, 6173, 6174, 6175, 6176, 6177, 6178, 6179, 6180
6181, 6182, 6183, 6184, 6185, 6186, 6187, 6188, 6189, 6190, 6191, 6192, 6193, 6194, 6195, 6196
6197, 6198, 6199, 6200, 6201, 6202, 6203, 6204, 6205, 6206, 6207, 6208, 6209, 6210, 6211, 6212
6213, 6214, 6215, 6216, 6217, 6218, 6219, 6220, 6221, 6222, 6223, 6224, 6225, 6226, 6227, 6228
6229, 6230, 6231, 6232, 6233, 6234, 6235, 6236, 6237, 6238, 6239, 6240, 6241, 6242, 6243, 6244
6245, 6246, 6247, 6248, 6249, 6250, 6251, 6252, 6253, 6254, 6255, 6256, 6257, 6258, 6259, 6260
6261, 6262, 6263, 6264, 6265, 6266, 6267, 6268, 6269, 6270, 6271, 6272, 6273, 6274, 6275, 6276
6277, 6278, 6279, 6280, 6281, 6282, 6283, 6284, 6285, 6286, 6287, 6288, 6289, 6290, 6291, 6292
6293, 6294, 6295, 6296, 6297, 6298, 6299, 6300, 6301, 6302, 6303, 6304, 6305, 6306, 6307, 6308
6309, 6310, 6311, 6312, 6313, 6314, 6315, 6316, 6317, 6318, 6319, 6320, 6321, 6322, 6323, 6324
6325, 6326, 6327, 6328, 6329, 6330, 6331, 6332, 6333, 6334, 6335, 6336, 6337, 6338, 6339, 6340
6341, 6342, 6343, 6344, 6345, 6346, 6347, 6348, 6349, 6350, 6351, 6352, 6353, 6354, 6355, 6356
6357, 6358, 6359, 6360, 6361, 6362, 6363, 6364, 6365, 6366, 6367, 6368, 6369, 6370, 6371, 6372
6373, 6374, 6375, 6376, 6377, 6378, 6379, 6380, 6381, 6382, 6383, 6384, 6385, 6386, 6387, 6388
6389, 6390, 6391, 6392, 6393, 6394, 6395, 6396, 6397, 6398, 6399, 6400, 6401, 6402, 6403, 6404
6405, 6406, 6407, 6408, 6409, 6410, 6411, 6412, 6413, 6414, 6415, 6416, 6417, 6418, 6419, 6420
6421, 6422, 6423, 6424, 6425, 6426, 6427, 6428, 6429, 6430, 6431, 6432, 6433, 6434, 6435, 6436
6437, 6438, 6439, 6440, 6441, 6442, 6443, 6444, 6445, 6446, 6447, 6448, 6449, 6450, 6451, 6452
6453, 6454, 6455, 6456, 6457, 6458, 6459, 6460, 6461, 6462, 6463, 6464, 6465, 6466, 6467, 6468
6469, 6470, 6471, 6472, 6473, 6474, 6475, 6476, 6477, 6478, 6479, 6480, 6481, 6482, 6483, 6484
6485, 6486, 6487, 6488, 6489, 6490, 6491, 6492, 6493, 6494, 6495, 6496, 6497, 6498, 6499, 6500
6501, 6502, 6503, 6504, 6505, 6506, 6507, 6508, 6509, 6510, 6511, 6512, 6513, 6514, 6515, 6516
6517, 6518, 6519, 6520, 6521, 6522, 6523, 6524, 6525, 6526, 6527, 6528, 6529, 6530, 6531, 6532
6533, 6534, 6535, 6536, 6537, 6538, 6539, 6540, 6541, 6542, 6543, 6544, 6545, 6546, 6547, 6548
6549, 6550, 6551, 6552, 6553, 6554, 6555, 6556, 6557, 6558, 6559, 6560, 6561, 6562, 6563, 6564
6565, 6566, 6567, 6568, 6569, 6570, 6571, 6572, 6573, 6574, 6575, 6576, 6577, 6578, 6579, 6580
6581, 6582, 6583, 6584, 6585, 6586, 6587, 6588, 6589, 6590, 6591, 6592, 6593, 6594, 6595, 6596
6597, 6598, 6599, 6600, 6601, 6602, 6603, 6604, 6605, 6606, 6607, 6608, 6609, 6610, 6611, 6612
6613, 6614, 6615, 6616, 6617, 6618, 6619, 6620, 6621, 6622, 6623, 6624, 6625, 6626, 6627, 6628
6629, 6630, 6631, 6632, 6633, 6634, 6635, 6636, 6637, 6638, 6639, 6640, 6641, 6642, 6643, 6644
6645, 6646, 6647, 6648, 6649, 6650, 6651, 6652, 6653, 6654, 6655, 6656, 6657, 6658, 6659, 6660
6661, 6662, 6663, 6664, 6665, 6666, 6667, 6668, 6669, 6670, 6671, 6672, 6673, 6674, 6675, 6676
6677, 6678, 6679, 6680, 6681, 6682, 6683, 6684, 6685, 6686, 6687, 6688, 6689, 6690, 6691, 6692
6693, 6694, 6695, 6696, 6697, 6698, 6699, 6700, 6701, 6702, 6703, 6704, 6705, 6706, 6707, 6708
6709, 6710, 6711, 6712, 6713, 6714, 6715, 6716, 6717, 6718, 6719, 6720, 6721, 6722, 6723, 6724
6725, 6726, 6727, 6728, 6729, 6730, 6731, 6732, 6733, 6734, 6735, 6736, 6737, 6738, 6739, 6740
6741, 6742, 6743, 6744, 6745, 6746, 6747, 6748, 6749, 6750, 6751, 6752, 6753, 6754, 6755, 6756
6757, 6758, 6759, 6760, 6761, 6762, 6763, 6764, 6765, 6766, 6767, 6768, 6769, 6770, 6771, 6772
6773, 6774, 6775, 6776, 6777, 6778, 6779, 6780, 6781, 6782, 6783, 6784, 6785, 6786, 6787, 6788
6789, 6790, 6791, 6792, 6793, 6794, 6795, 6796, 6797, 6798, 6799, 6800, 6801, 6802, 6803, 6804
6805, 6806, 6807, 6808, 6809, 6810, 6811, 6812, 6813, 6814, 6815, 6816, 6817, 6818, 6819, 6820
6821, 6822, 6823, 6824, 6825, 6826, 6827, 6828, 6829, 6830, 6831, 6832, 6833, 6834, 6835, 6836
6837, 6838, 6839, 6840, 6841, 6842, 6843, 6844, 6845, 6846, 6847, 6848, 6849, 6850, 6851, 6852
6853, 6854, 6855, 6856, 6857, 6858, 6859, 6860, 6861, 6862, 6863, 6864, 6865, 6866, 6867, 6868
6869, 6870, 6871, 6872, 6873, 6874, 6875, 6876, 6877, 6878, 6879, 6880, 6881, 6882, 6883, 6884
6885, 6886, 6887, 6888, 6889, 6890, 6891, 6892, 6893, 6894, 6895, 6896, 6897, 6898, 6899, 6900
6901, 6902, 6903, 6904, 6905, 6906, 6907, 6908, 6909, 6910, 6911, 6912, 6913, 6914, 6915, 6916
6917, 6918, 6919, 6920, 6921, 6922, 6923, 6924, 6925, 6926, 6927, 6928, 6929, 6930, 6931, 6932
6933, 6934, 6935, 6936, 6937, 6938, 6939, 6940, 6941, 6942, 6943, 6944, 6945, 6946, 6947, 6948
6949, 6950, 6951, 6952, 6953, 6954, 6955, 6956, 6957, 6958, 6959, 6960, 6961, 6962, 6963, 6964
6965, 6966, 6967, 6968, 6969, 6970, 6971, 6972, 6973, 6974, 6975, 6976, 6977, 6978, 6979, 6980
6981, 6982, 6983, 6984, 6985, 6986, 6987, 6988, 6989, 6990, 6991, 6992, 6993, 6994, 6995, 6996
6997, 6998, 6999, 7000, 7001, 7002, 7003, 7004, 7005, 7006, 7007, 7008, 7009, 7010, 7011, 7012
7013, 7014, 7015, 7016, 7017, 7018, 7019, 7020, 7021, 7022, 7023, 7024, 7025, 7026, 7027, 7028
7029, 7030, 7031, 7032, 7033, 7034, 7035, 7036, 7037, 7038, 7039, 7040, 7041, 7042, 7043, 7044
7045, 7046, 7047, 7048, 7049, 7050, 7051, 7052, 7053, 7054, 7055, 7056, 7057, 7058, 7059, 7060
7061, 7062, 7063, 7064, 7065, 7066, 7067, 7068, 7069, 7070, 7071, 7072, 7073, 7074, 7075, 7076
7077, 7078, 7079, 7080, 7081, 7082, 7083, 7084, 7085, 7086, 7087, 7088, 7089, 7090, 7091, 7092
7093, 7094, 7095, 7096, 7097, 7098, 7099, 7100, 7101, 7102, 7103, 7104, 7105, 7106, 7107, 7108
7109, 7110, 7111, 7112, 7113, 7114, 7115, 7116, 7117, 7118, 7119, 7120, 7121, 7122, 7123, 7124
7125, 7126, 7127, 7128, 7129, 7130, 7131, 7132, 7133, 7134, 7135, 7136, 7137, 7138, 7139, 7140
7141, 7142, 7143, 7144, 7145, 7146, 7147, 7148, 7149, 7150, 7151, 7152, 7153, 7154, 7155, 7156
7157, 7158, 7159, 7160, 7161, 7162, 7163, 7164, 7165, 7166, 7167, 7168, 7169, 7170, 7171, 7172
7173, 7174, 7175, 7176, 7177, 7178, 7179, 7180, 7181, 7182, 7183, 7184, 7185, 7186, 7187, 7188
7189, 7190, 7191, 7192, 7193, 7194, 7195, 7196, 7197, 7198, 7199, 7200, 7201, 7202, 7203, 7204
7205, 7206, 7207, 7208, 7209, 7210, 7211, 7212, 7213, 7214, 7215, 7216, 7217, 7218, 7219, 7220
7221, 7222, 7223, 7224, 7225, 7226, 7227, 7228, 7229, 7230, 7231, 7232, 7233, 7234, 7235, 7236
7237, 7238, 7239, 7240, 7241, 7242, 7243, 7244, 7245, 7246, 7247, 7248, 7249, 7250, 7251, 7252
7253, 7254, 7255, 7256, 7257, 7258, 7259, 7260, 7261, 7262, 7263, 7264, 7265, 7266, 7267, 7268
7269, 7270, 7271, 7272, 7273, 7274, 7275, 7276, 7277, 7278, 7279, 7280, 7281, 7282, 7283, 7284
7285, 7286, 7287, 7288, 7289, 7290, 7291, 7292, 7293, 7294, 7295, 7296, 7297, 7298, 7299, 7300
7301, 7302, 7303, 7304, 7305, 7306, 7307, 7308, 7309, 7310, 7311, 7312, 7313, 7314, 7315, 7316
7317, 7318, 7319, 7320, 7321, 7322, 7323, 7324, 7325, 7326, 7327, 7328, 7329, 7330, 7331, 7332
7333, 7334, 7335, 7336, 7337, 7338, 7339, 7340, 7341, 7342, 7343, 7344, 7345, 7346, 7347, 7348
7349, 7350, 7351, 7352, 7353, 7354, 7355, 7356, 7357, 7358, 7359, 7360, 7361, 7362, 7363, 7364
7365, 7366, 7367, 7368, 7369, 7370, 7371, 7372, 7373, 7374, 7375, 7376, 7377, 7378, 7379, 7380
7381, 7382, 7383, 7384, 7385, 7386, 7387, 7388, 7389, 7390, 7391, 7392, 7393, 7394, 7395, 7396
7397, 7398, 7399, 7400, 7401, 7402, 7403, 7404, 7405, 7406, 7407, 7408, 7409, 7410, 7411, 7412
7413, 7414, 7415, 7416, 7417, 7418, 7419, 7420, 7421, 7422, 7423, 7424, 7425, 7426, 7427, 7428
7429, 7430, 7431, 7432, 7433, 7434, 7435, 7436, 7437, 7438, 7439, 7440, 7441, 7442, 7443, 7444
7445, 7446, 7447, 7448, 7449, 7450, 7451, 7452, 7453, 7454, 7455, 7456, 7457, 7458, 7459, 7460
7461, 7462, 7463, 7464, 7465, 7466, 7467, 7468, 7469, 7470, 7471, 7472, 7473, 7474, 7475, 7476
7477, 7478, 7479, 7480, 7481, 7482, 7483, 7484, 7485, 7486, 7487, 7488, 7489, 7490, 7491, 7492
7493, 7494, 7495, 7496, 7497, 7498, 7499, 7500, 7501, 7502, 7503, 7504, 7505, 7506, 7507, 7508
7509, 7510, 7511, 7512, 7513, 7514, 7515, 7516, 7517, 7518, 7519, 7520, 7521, 7522, 7523, 7524
7525, 7526, 7527, 7528, 7529, 7530, 7531, 7532, 7533, 7534, 7535, 7536, 7537, 7538, 7539, 7540
7541, 7542, 7543, 7544, 7545, 7546, 7547, 7548, 7549, 7550, 7551, 7552, 7553, 7554, 7555, 7556
7557, 7558, 7559, 7560, 7561, 7562, 7563, 7564, 7565, 7566, 7567, 7568, 7569, 7570, 7571, 7572
7573, 7574, 7575, 7576, 7577, 7578, 7579, 7580, 7581, 7582, 7583, 7584, 7585, 7586, 7587, 7588
7589, 7590, 7591, 7592, 7593, 7594, 7595, 7596, 7597, 7598, 7599, 7600, 7601, 7602, 7603, 7604
7605, 7606, 7607, 7608, 7609, 7610, 7611, 7612, 7613, 7614, 7615, 7616, 7617, 7618, 7619, 7620
7621, 7622, 7623, 7624, 7625, 7626, 7627, 7628, 7629, 7630, 7631, 7632, 7633, 7634, 7635, 7636
7637, 7638, 7639, 7640, 7641, 7642, 7643, 7644, 7645, 7646, 7647, 7648, 7649, 7650, 7651, 7652
7653, 7654, 7655, 7656, 7657, 7658, 7659, 7660, 7661, 7662, 7663, 7664, 7665, 7666, 7667, 7668
7669, 7670, 7671, 7672, 7673, 7674, 7675, 7676, 7677, 7678, 7679, 7680, 7681, 7682, 7683, 7684
7685, 7686, 7687, 7688, 7689, 7690, 7691, 7692, 7693, 7694, 7695, 7696, 7697, 7698, 7699, 7700
7701, 7702, 7703, 7704, 7705, 7706, 7707, 7708, 7709, 7710, 7711, 7712, 7713, 7714, 7715, 7716
7717, 7718, 7719, 7720, 7721, 7722, 7723, 7724, 7725, 7726, 7727, 7728, 7729, 7730, 7731, 7732
7733, 7734, 7735, 7736, 7737, 7738, 7739, 7740, 7741, 7742, 7743, 7744, 7745, 7746, 7747, 7748
7749, 7750, 7751, 7752, 7753, 7754, 7755, 7756, 7757, 7758, 7759, 7760, 7761, 7762, 7763, 7764
7765, 7766, 7767, 7768, 7769, 7770, 7771, 7772, 7773, 7774, 7775, 7776, 7777, 7778, 7779, 7780
7781, 7782, 7783, 7784, 7785, 7786, 7787, 7788, 7789, 7790, 7791, 7792, 7793, 7794, 7795, 7796
7797, 7798, 7799, 7800, 7801, 7802, 7803, 7804, 7805, 7806, 7807, 7808, 7809, 7810, 7811, 7812
7813, 7814, 7815, 7816, 7817, 7818, 7819, 7820, 7821, 7822, 7823, 7824, 7825, 7826, 7827, 7828
7829, 7830, 7831, 7832, 7833, 7834, 7835, 7836, 7837, 7838, 7839, 7840, 7841, 7842, 7843, 7844
7845, 7846, 7847, 7848, 7849, 7850, 7851, 7852, 7853, 7854, 7855, 7856, 7857, 7858, 7859, 7860
7861, 7862, 7863, 7864, 7865, 7866, 7867, 7868, 7869, 7870, 7871, 7872, 7873, 7874, 7875, 7876
7877, 7878, 7879, 7880, 7881, 7882, 7883, 7884, 7885, 7886, 7887, 7888, 7889, 7890, 7891, 7892
7893, 7894, 7895, 7896, 7897, 7898, 7899, 7900, 7901, 7902, 7903, 7904, 7905, 7906, 7907, 7908
7909, 7910, 7911, 7912, 7913, 7914, 7915, 7916, 7917, 7918, 7919, 7920, 7921, 7922, 7923, 7924
7925, 7926, 7927, 7928, 7929, 7930, 7931, 7932, 7933, 7934, 7935, 7936, 7937, 7938, 7939, 7940
7941, 7942, 7943, 7944, 7945, 7946, 7947, 7948, 7949, 7950, 7951, 7952, 7953, 7954, 7955, 7956
7957, 7958, 7959, 7960, 7961, 7962, 7963, 7964, 7965, 7966, 7967, 7968, 7969, 7970, 7971, 7972
7973, 7974, 7975, 7976, 7977, 7978, 7979, 7980, 7981, 7982, 7983, 7984, 7985, 7986, 7987, 7988
7989, 7990, 7991, 7992, 7993, 7994, 7995, 7996, 7997, 7998, 7999, 8000, 8001, 8002, 8003, 8004
8005, 8006, 8007, 8008, 8009, 8010, 8011, 8012, 8013, 8014, 8015, 8016, 8017, 8018, 8019, 8020
8021, 8022, 8023, 8024, 8025, 8026, 8027, 8028, 8029, 8030, 8031, 8032, 8033, 8034, 8035, 8036
8037, 8038, 8039, 8040, 8041, 8042, 8043, 8044, 8045, 8046, 8047, 8048, 8049, 8050, 8051, 8052
8053, 8054, 8055, 8056, 8057, 8058, 8059, 8060, 8061, 8062, 8063, 8064, 8065, 8066, 8067, 8068
8069, 8070, 8071, 8072, 8073, 8074, 8075, 8076, 8077, 8078, 8079, 8080, 8081, 8082, 8083, 8084
8085, 8086, 8087, 8088, 8089, 8090, 8091, 8092, 8093, 8094, 8095, 8096, 8097, 8098, 8099, 8100
8101, 8102, 8103, 8104, 8105, 8106, 8107, 8108, 8109, 8110, 8111, 8112, 8113, 8114, 8115, 8116
8117, 8118, 8119, 8120, 8121, 8122, 8123, 8124, 8125, 8126, 8127, 8128, 8129, 8130, 8131, 8132
8133, 8134, 8135, 8136, 8137, 8138, 8139, 8140, 8141, 8142, 8143, 8144, 8145, 8146, 8147, 8148
8149, 8150, 8151, 8152, 8153, 8154, 8155, 8156, 8157, 8158, 8159, 8160, 8161, 8162, 8163, 8164
8165, 8166, 8167, 8168, 8169, 8170, 8171, 8172, 8173, 8174, 8175, 8176, 8177, 8178, 8179, 8180
8181, 8182, 8183, 8184, 8185, 8186, 8187, 8188, 8189, 8190, 8191, 8192, 8193, 8194, 8195, 8196
8197, 8198, 8199, 8200, 8201, 8202, 8203, 8204, 8205, 8206, 8207, 8208, 8209, 8210, 8211, 8212
8213, 8214, 8215, 8216, 8217, 8218, 8219, 8220, 8221, 8222, 8223, 8224, 8225, 8226, 8227, 8228
8229, 8230, 8231, 8232, 8233, 8234, 8235, 8236, 8237, 8238, 8239, 8240, 8241, 8242, 8243, 8244
8245, 8246, 8247, 8248, 8249, 8250, 8251, 8252, 8253, 8254, 8255, 8256, 8257, 8258, 8259, 8260
8261, 8262, 8263, 8264, 8265, 8266, 8267, 8268, 8269, 8270, 8271, 8272, 8273, 8274, 8275, 8276
8277, 8278, 8279, 8280, 8281, 8282, 8283, 8284, 8285, 8286, 8287, 8288, 8289, 8290, 8291, 8292
8293, 8294, 8295, 8296, 8297, 8298, 8299, 8300, 8301, 8302, 8303, 8304, 8305, 8306, 8307, 8308
8309, 8310, 8311, 8312, 8313, 8314, 8315, 8316, 8317, 8318, 8319, 8320, 8321, 8322, 8323, 8324
8325, 8326, 8327, 8328, 8329, 8330, 8331, 8332, 8333, 8334, 8335, 8336, 8337, 8338, 8339, 8340
8341, 8342, 8343, 8344, 8345, 8346, 8347, 8348, 8349, 8350, 8351, 8352, 8353, 8354, 8355, 8356
8357, 8358, 8359, 8360, 8361, 8362, 8363, 8364, 8365, 8366, 8367, 8368, 8369, 8370, 8371, 8372
8373, 8374, 8375, 8376, 8377, 8378, 8379, 8380, 8381, 8382, 8383, 8384, 8385, 8386, 8387, 8388
8389, 8390, 8391, 8392, 8393, 8394, 8395, 8396, 8397, 8398, 8399, 8400, 8401, 8402, 8403, 8404
8405, 8406, 8407, 8408, 8409, 8410, 8411, 8412, 8413, 8414, 8415, 8416, 8417, 8418, 8419, 8420
8421, 8422, 8423, 8424, 8425, 8426, 8427, 8428, 8429, 8430, 8431, 8432, 8433, 8434, 8435, 8436
8437, 8438, 8439, 8440, 8441, 8442, 8443, 8444, 8445, 8446, 8447, 8448, 8449, 8450, 8451, 8452
8453, 8454, 8455, 8456, 8457, 8458, 8459, 8460, 8461, 8462, 8463, 8464, 8465, 8466, 8467, 8468
8469, 8470, 8471, 8472, 8473, 8474, 8475, 8476, 8477, 8478, 8479, 8480, 8481, 8482, 8483, 8484
8485, 8486, 8487, 8488, 8489, 8490, 8491, 8492, 8493, 8494, 8495, 8496, 8497, 8498, 8499, 8500
8501, 8502, 8503, 8504, 8505, 8506, 8507, 8508, 8509, 8510, 8511, 8512, 8513, 8514, 8515, 8516
8517, 8518, 8519, 8520, 8521, 8522, 8523, 8524, 8525, 8526, 8527, 8528, 8529, 8530, 8531, 8532
8533, 8534, 8535, 8536, 8537, 8538, 8539, 8540, 8541, 8542, 8543, 8544, 8545, 8546, 8547, 8548
8549, 8550, 8551, 8552, 8553, 8554, 8555, 8556, 8557, 8558, 8559, 8560, 8561, 8562, 8563, 8564
8565, 8566, 8567, 8568, 8569, 8570, 8571, 8572, 8573, 8574, 8575, 8576, 8577, 8578, 8579, 8580
8581, 8582, 8583, 8584, 8585, 8586, 8587, 8588, 8589, 8590, 8591, 8592, 8593, 8594, 8595, 8596
8597, 8598, 8599, 8600, 8601, 8602, 8603, 8604, 8605, 8606, 8607, 8608, 8609, 8610, 8611, 8612
8613, 8614, 8615, 8616, 8617, 8618, 8619, 8620, 8621, 8622, 8623, 8624, 8625, 8626, 8627, 8628
8629, 8630, 8631, 8632, 8633, 8634, 8635, 8636, 8637, 8638, 8639, 8640, 8641, 8642, 8643, 8644
8645, 8646, 8647, 8648, 8649, 8650, 8651, 8652, 8653, 8654, 8655, 8656, 8657, 8658, 8659, 8660
8661, 8662, 8663, 8664, 8665, 8666, 8667, 8668, 8669, 8670, 8671, 8672, 8673, 8674, 8675, 8676
8677, 8678, 8679, 8680, 8681, 8682, 8683, 8684, 8685, 8686, 8687, 8688, 8689, 8690, 8691, 8692
8693, 8694, 8695, 8696, 8697, 8698, 8699, 8700, 8701, 8702, 8703, 8704, 8705, 8706, 8707, 8708
8709, 8710, 8711, 8712, 8713, 8714, 8715, 8716, 8717, 8718, 8719, 8720, 8721, 8722, 8723, 8724
8725, 8726, 8727, 8728, 8729, 8730, 8731, 8732, 8733, 8734, 8735, 8736, 8737, 8738, 8739, 8740
8741, 8742, 8743, 8744, 8745, 8746, 8747, 8748, 8749, 8750, 8751, 8752, 8753, 8754, 8755, 8756
8757, 8758, 8759, 8760, 8761, 8762, 8763, 8764, 8765, 8766, 8767, 8768, 8769, 8770, 8771, 8772
8773, 8774, 8775, 8776, 8777, 8778, 8779, 8780, 8781, 8782, 8783, 8784, 8785, 8786, 8787, 8788
8789, 8790, 8791, 8792, 8793, 8794, 8795, 8796, 8797, 8798, 8799, 8800, 8801, 8802, 8803, 8804
8805, 8806, 8807, 8808, 8809, 8810, 8811, 8812, 8813, 8814, 8815, 8816, 8817, 8818, 8819, 8820
8821, 8822, 8823, 8824, 8825, 8826, 8827, 8828, 8829, 8830, 8831, 8832, 8833, 8834, 8835, 8836
8837, 8838, 8839, 8840, 8841, 8842, 8843, 8844, 8845, 8846, 8847, 8848, 8849, 8850, 8851, 8852
8853, 8854, 8855, 8856, 8857, 8858, 8859, 8860, 8861, 8862, 8863, 8864, 8865, 8866, 8867, 8868
8869, 8870, 8871, 8872, 8873, 8874, 8875, 8876, 8877, 8878, 8879, 8880, 8881, 8882, 8883, 8884
8885, 8886, 8887, 8888, 8889, 8890, 8891, 8892, 8893, 8894, 8895, 8896, 8897, 8898, 8899, 8900
8901, 8902, 8903, 8904, 8905, 8906, 8907, 8908, 8909, 8910, 8911, 8912, 8913, 8914, 8915, 8916
8917, 8918, 8919, 8920, 8921, 8922, 8923, 8924, 8925, 8926, 8927, 8928, 8929, 8930, 8931, 8932
8933, 8934, 8935, 8936, 8937, 8938, 8939, 8940, 8941, 8942, 8943, 8944, 8945, 8946, 8947, 8948
8949, 8950, 8951, 8952, 8953, 8954, 8955, 8956, 8957, 8958, 8959, 8960, 8961, 8962, 8963, 8964
8965, 8966, 8967, 8968, 8969, 8970, 8971, 8972, 8973, 8974, 8975, 8976, 8977, 8978, 8979, 8980
8981, 8982, 8983, 8984, 8985, 8986, 8987, 8988, 8989, 8990, 8991, 8992, 8993, 8994, 8995, 8996
8997, 8998, 8999, 9000, 9001, 9002, 9003, 9004, 9005, 9006, 9007, 9008, 9009, 9010, 9011, 9012
9013, 9014, 9015, 9016, 9017, 9018, 9019, 9020, 9021, 9022, 9023, 9024, 9025, 9026, 9027, 9028
9029, 9030, 9031, 9032, 9033, 9034, 9035, 9036, 9037, 9038, 9039, 9040, 9041, 9042, 9043, 9044
9045, 9046, 9047, 9048, 9049, 9050, 9051, 9052, 9053, 9054, 9055, 9056, 9057, 9058, 9059, 9060
9061, 9062, 9063, 9064, 9065, 9066, 9067, 9068, 9069, 9070, 9071, 9072, 9073, 9074, 9075, 9076
9077, 9078, 9079, 9080, 9081, 9082, 9083, 9084, 9085, 9086, 9087, 9088, 9089, 9090, 9091, 9092
9093, 9094, 9095, 9096, 9097, 9098, 9099, 9100, 9101, 9102, 9103, 9104, 9105, 9106, 9107, 9108
9109, 9110, 9111, 9112, 9113, 9114, 9115, 9116, 9117, 9118, 9119, 9120, 9121, 9122, 9123, 9124
9125, 9126, 9127, 9128, 9129, 9130, 9131, 9132, 9133, 9134, 9135, 9136, 9137, 9138, 9139, 9140
9141, 9142, 9143, 9144, 9145, 9146, 9147, 9148, 9149, 9150, 9151, 9152, 9153, 9154, 9155, 9156
9157, 9158, 9159, 9160, 9161, 9162, 9163, 9164, 9165, 9166, 9167, 9168, 9169, 9170, 9171, 9172
9173, 9174, 9175, 9176, 9177, 9178, 9179, 9180, 9181, 9182, 9183, 9184, 9185, 9186, 9187, 9188
9189, 9190, 9191, 9192, 9193, 9194, 9195, 9196, 9197, 9198, 9199, 9200, 9201, 9202, 9203, 9204
9205, 9206, 9207, 9208, 9209, 9210, 9211, 9212, 9213, 9214, 9215, 9216, 9217, 9218, 9219, 9220
9221, 9222, 9223, 9224, 9225, 9226, 9227, 9228, 9229, 9230, 9231, 9232, 9233, 9234, 9235, 9236
9237, 9238, 9239, 9240, 9241, 9242, 9243, 9244, 9245, 9246, 9247, 9248, 9249, 9250, 9251, 9252
9253, 9254, 9255, 9256, 9257, 9258, 9259, 9260, 9261, 9262, 9263, 9264, 9265, 9266, 9267, 9268
9269, 9270, 9271, 9272, 9273, 9274, 9275, 9276, 9277, 9278, 9279, 9280, 9281, 9282, 9283, 9284
9285, 9286, 9287, 9288, 9289, 9290, 9291, 9292, 9293, 9294, 9295, 9296, 9297, 9298, 9299, 9300
9301, 9302, 9303, 9304, 9305, 9306, 9307, 9308, 9309, 9310, 9311, 9312, 9313, 9314, 9315, 9316
9317, 9318, 9319, 9320, 9321, 9322, 9323, 9324, 9325, 9326, 9327, 9328, 9329, 9330, 9331, 9332
9333, 9334, 9335, 9336, 9337, 9338, 9339, 9340, 9341, 9342, 9343, 9344, 9345, 9346, 9347, 9348
9349, 9350, 9351, 9352, 9353, 9354, 9355, 9356, 9357, 9358, 9359, 9360, 9361, 9362, 9363, 9364
9365, 9366, 9367, 9368, 9369, 9370, 9371, 9372, 9373, 9374, 9375, 9376, 9377, 9378, 9379, 9380
9381, 9382, 9383, 9384
*ELSET, ELSET=UMATELEM
9385, 9386, 9387, 9388, 9389, 9390, 9391, 9392, 9393, 9394, 9395, 9396, 9397, 9398, 9399, 9400
9401, 9402, 9403, 9404, 9405, 9406, 9407, 9408, 9409, 9410, 9411, 9412, 9413, 9414, 9415, 9416
9417, 9418, 9419, 9420, 9421, 9422, 9423, 9424, 9425, 9426, 9427, 9428, 9429, 9430, 9431, 9432
9433, 9434, 9435, 9436, 9437, 9438, 9439, 9440, 9441, 9442, 9443, 9444, 9445, 9446, 9447, 9448
9449, 9450, 9451, 9452, 9453, 9454, 9455, 9456, 9457, 9458, 9459, 9460, 9461, 9462, 9463, 9464
9465, 9466, 9467, 9468, 9469, 9470, 9471, 9472, 9473, 9474, 9475, 9476, 9477, 9478, 9479, 9480
9481, 9482, 9483, 9484, 9485, 9486, 9487, 9488, 9489, 9490, 9491, 9492, 9493, 9494, 9495, 9496
9497, 9498, 9499, 9500, 9501, 9502, 9503, 9504, 9505, 9506, 9507, 9508, 9509, 9510, 9511, 9512
9513, 9514, 9515, 9516, 9517, 9518, 9519, 9520, 9521, 9522, 9523, 9524, 9525, 9526, 9527, 9528
9529, 9530, 9531, 9532, 9533, 9534, 9535, 9536, 9537, 9538, 9539, 9540, 9541, 9542, 9543, 9544
9545, 9546, 9547, 9548, 9549, 9550, 9551, 9552, 9553, 9554, 9555, 9556, 9557, 9558, 9559, 9560
9561, 9562, 9563, 9564, 9565, 9566, 9567, 9568, 9569, 9570, 9571, 9572, 9573, 9574, 9575, 9576
9577, 9578, 9579, 9580, 9581, 9582, 9583, 9584, 9585, 9586, 9587, 9588, 9589, 9590, 9591, 9592
9593, 9594, 9595, 9596, 9597, 9598, 9599, 9600, 9601, 9602, 9603, 9604, 9605, 9606, 9607, 9608
9609, 9610, 9611, 9612, 9613, 9614, 9615, 9616, 9617, 9618, 9619, 9620, 9621, 9622, 9623, 9624
9625, 9626, 9627, 9628, 9629, 9630, 9631, 9632, 9633, 9634, 9635, 9636, 9637, 9638, 9639, 9640
9641, 9642, 9643, 9644, 9645, 9646, 9647, 9648, 9649, 9650, 9651, 9652, 9653, 9654, 9655, 9656
9657, 9658, 9659, 9660, 9661, 9662, 9663, 9664, 9665, 9666, 9667, 9668, 9669, 9670, 9671, 9672
9673, 9674, 9675, 9676, 9677, 9678, 9679, 9680, 9681, 9682, 9683, 9684, 9685, 9686, 9687, 9688
9689, 9690, 9691, 9692, 9693, 9694, 9695, 9696, 9697, 9698, 9699, 9700, 9701, 9702, 9703, 9704
9705, 9706, 9707, 9708, 9709, 9710, 9711, 9712, 9713, 9714, 9715, 9716, 9717, 9718, 9719, 9720
9721, 9722, 9723, 9724, 9725, 9726, 9727, 9728, 9729, 9730, 9731, 9732, 9733, 9734, 9735, 9736
9737, 9738, 9739, 9740, 9741, 9742, 9743, 9744, 9745, 9746, 9747, 9748, 9749, 9750, 9751, 9752
9753, 9754, 9755, 9756, 9757, 9758, 9759, 9760, 9761, 9762, 9763, 9764, 9765, 9766, 9767, 9768
9769, 9770, 9771, 9772, 9773, 9774, 9775, 9776, 9777, 9778, 9779, 9780, 9781, 9782, 9783, 9784
9785, 9786, 9787, 9788, 9789, 9790, 9791, 9792, 9793, 9794, 9795, 9796, 9797, 9798, 9799, 9800
9801, 9802, 9803, 9804, 9805, 9806, 9807, 9808, 9809, 9810, 9811, 9812, 9813, 9814, 9815, 9816
9817, 9818, 9819, 9820, 9821, 9822, 9823, 9824, 9825, 9826, 9827, 9828, 9829, 9830, 9831, 9832
9833, 9834, 9835, 9836, 9837, 9838, 9839, 9840, 9841, 9842, 9843, 9844, 9845, 9846, 9847, 9848
9849, 9850, 9851, 9852, 9853, 9854, 9855, 9856, 9857, 9858, 9859, 9860, 9861, 9862, 9863, 9864
9865, 9866, 9867, 9868, 9869, 9870, 9871, 9872, 9873, 9874, 9875, 9876, 9877, 9878, 9879, 9880
9881, 9882, 9883, 9884, 9885, 9886, 9887, 9888, 9889, 9890, 9891, 9892, 9893, 9894, 9895, 9896
9897, 9898, 9899, 9900, 9901, 9902, 9903, 9904, 9905, 9906, 9907, 9908, 9909, 9910, 9911, 9912
9913, 9914, 9915, 9916, 9917, 9918, 9919, 9920, 9921, 9922, 9923, 9924, 9925, 9926, 9927, 9928
9929, 9930, 9931, 9932, 9933, 9934, 9935, 9936, 9937, 9938, 9939, 9940, 9941, 9942, 9943, 9944
9945, 9946, 9947, 9948, 9949, 9950, 9951, 9952, 9953, 9954, 9955, 9956, 9957, 9958, 9959, 9960
9961, 9962, 9963, 9964, 9965, 9966, 9967, 9968, 9969, 9970, 9971, 9972, 9973, 9974, 9975, 9976
9977, 9978, 9979, 9980, 9981, 9982, 9983, 9984, 9985, 9986, 9987, 9988, 9989, 9990, 9991, 9992
9993, 9994, 9995, 9996, 9997, 9998, 9999, 10000, 10001, 10002, 10003, 10004, 10005, 10006, 10007, 10008
10009, 10010, 10011, 10012, 10013, 10014, 10015, 10016, 10017, 10018, 10019, 10020, 10021, 10022, 10023, 10024
10025, 10026, 10027, 10028, 10029, 10030, 10031, 10032, 10033, 10034, 10035, 10036, 10037, 10038, 10039, 10040
10041, 10042, 10043, 10044, 10045, 10046, 10047, 10048, 10049, 10050, 10051, 10052, 10053, 10054, 10055, 10056
10057, 10058, 10059, 10060, 10061, 10062, 10063, 10064, 10065, 10066, 10067, 10068, 10069, 10070, 10071, 10072
10073, 10074, 10075, 10076, 10077, 10078, 10079, 10080, 10081, 10082, 10083, 10084, 10085, 10086, 10087, 10088
10089, 10090, 10091, 10092, 10093, 10094, 10095, 10096, 10097, 10098, 10099, 10100, 10101, 10102, 10103, 10104
10105, 10106, 10107, 10108, 10109, 10110, 10111, 10112, 10113, 10114, 10115, 10116, 10117, 10118, 10119, 10120
10121, 10122, 10123, 10124, 10125, 10126, 10127, 10128, 10129, 10130, 10131, 10132, 10133, 10134, 10135, 10136
10137, 10138, 10139, 10140, 10141, 10142, 10143, 10144, 10145, 10146, 10147, 10148, 10149, 10150, 10151, 10152
10153, 10154, 10155, 10156, 10157, 10158, 10159, 10160, 10161, 10162, 10163, 10164, 10165, 10166, 10167, 10168
10169, 10170, 10171, 10172, 10173, 10174, 10175, 10176, 10177, 10178, 10179, 10180, 10181, 10182, 10183, 10184
10185, 10186, 10187, 10188, 10189, 10190, 10191, 10192, 10193, 10194, 10195, 10196, 10197, 10198, 10199, 10200
10201, 10202, 10203, 10204, 10205, 10206, 10207, 10208, 10209, 10210, 10211, 10212, 10213, 10214, 10215, 10216
10217, 10218, 10219, 10220, 10221, 10222, 10223, 10224, 10225, 10226, 10227, 10228, 10229, 10230, 10231, 10232
10233, 10234, 10235, 10236, 10237, 10238, 10239, 10240, 10241, 10242, 10243, 10244, 10245, 10246, 10247, 10248
10249, 10250, 10251, 10252, 10253, 10254, 10255, 10256, 10257, 10258, 10259, 10260, 10261, 10262, 10263, 10264
10265, 10266, 10267, 10268, 10269, 10270, 10271, 10272, 10273, 10274, 10275, 10276, 10277, 10278, 10279, 10280
10281, 10282, 10283, 10284, 10285, 10286, 10287, 10288, 10289, 10290, 10291, 10292, 10293, 10294, 10295, 10296
10297, 10298, 10299, 10300, 10301, 10302, 10303, 10304, 10305, 10306, 10307, 10308, 10309, 10310, 10311, 10312
10313, 10314, 10315, 10316, 10317, 10318, 10319, 10320, 10321, 10322, 10323, 10324, 10325, 10326, 10327, 10328
10329, 10330, 10331, 10332, 10333, 10334, 10335, 10336, 10337, 10338, 10339, 10340, 10341, 10342, 10343, 10344
10345, 10346, 10347, 10348, 10349, 10350, 10351, 10352, 10353, 10354, 10355, 10356, 10357, 10358, 10359, 10360
10361, 10362, 10363, 10364, 10365, 10366, 10367, 10368, 10369, 10370, 10371, 10372, 10373, 10374, 10375, 10376
10377, 10378, 10379, 10380, 10381, 10382, 10383, 10384, 10385, 10386, 10387, 10388, 10389, 10390, 10391, 10392
10393, 10394, 10395, 10396, 10397, 10398, 10399, 10400, 10401, 10402, 10403, 10404, 10405, 10406, 10407, 10408
10409, 10410, 10411, 10412, 10413, 10414, 10415, 10416, 10417, 10418, 10419, 10420, 10421, 10422, 10423, 10424
10425, 10426, 10427, 10428, 10429, 10430, 10431, 10432, 10433, 10434, 10435, 10436, 10437, 10438, 10439, 10440
10441, 10442, 10443, 10444, 10445, 10446, 10447, 10448, 10449, 10450, 10451, 10452, 10453, 10454, 10455, 10456
10457, 10458, 10459, 10460, 10461, 10462, 10463, 10464, 10465, 10466, 10467, 10468, 10469, 10470, 10471, 10472
10473, 10474, 10475, 10476, 10477, 10478, 10479, 10480, 10481, 10482, 10483, 10484, 10485, 10486, 10487, 10488
10489, 10490, 10491, 10492, 10493, 10494, 10495, 10496, 10497, 10498, 10499, 10500, 10501, 10502, 10503, 10504
10505, 10506, 10507, 10508, 10509, 10510, 10511, 10512, 10513, 10514, 10515, 10516, 10517, 10518, 10519, 10520
10521, 10522, 10523, 10524, 10525, 10526, 10527, 10528, 10529, 10530, 10531, 10532, 10533, 10534, 10535, 10536
10537, 10538, 10539, 10540, 10541, 10542, 10543, 10544, 10545, 10546, 10547, 10548, 10549, 10550, 10551, 10552
10553, 10554, 10555, 10556, 10557, 10558, 10559, 10560, 10561, 10562, 10563, 10564, 10565, 10566, 10567, 10568
10569, 10570, 10571, 10572, 10573, 10574, 10575, 10576, 10577, 10578, 10579, 10580, 10581, 10582, 10583, 10584
10585, 10586, 10587, 10588, 10589, 10590, 10591, 10592, 10593, 10594, 10595, 10596, 10597, 10598, 10599, 10600
10601, 10602, 10603, 10604, 10605, 10606, 10607, 10608, 10609, 10610, 10611, 10612, 10613, 10614, 10615, 10616
10617, 10618, 10619, 10620, 10621, 10622, 10623, 10624, 10625, 10626, 10627, 10628, 10629, 10630, 10631, 10632
10633, 10634, 10635, 10636, 10637, 10638, 10639, 10640, 10641, 10642, 10643, 10644, 10645, 10646, 10647, 10648
10649, 10650, 10651, 10652, 10653, 10654, 10655, 10656, 10657, 10658, 10659, 10660, 10661, 10662, 10663, 10664
10665, 10666, 10667, 10668, 10669, 10670, 10671, 10672, 10673, 10674, 10675, 10676, 10677, 10678, 10679, 10680
10681, 10682, 10683, 10684, 10685, 10686, 10687, 10688, 10689, 10690, 10691, 10692, 10693, 10694, 10695, 10696
10697, 10698, 10699, 10700, 10701, 10702, 10703, 10704, 10705, 10706, 10707, 10708, 10709, 10710, 10711, 10712
10713, 10714, 10715, 10716, 10717, 10718, 10719, 10720, 10721, 10722, 10723, 10724, 10725, 10726, 10727, 10728
10729, 10730, 10731, 10732, 10733, 10734, 10735, 10736, 10737, 10738, 10739, 10740, 10741, 10742, 10743, 10744
10745, 10746, 10747, 10748, 10749, 10750, 10751, 10752, 10753, 10754, 10755, 10756, 10757, 10758, 10759, 10760
10761, 10762, 10763, 10764, 10765, 10766, 10767, 10768, 10769, 10770, 10771, 10772, 10773, 10774, 10775, 10776
10777, 10778, 10779, 10780, 10781, 10782, 10783, 10784, 10785, 10786, 10787, 10788, 10789, 10790, 10791, 10792
10793, 10794, 10795, 10796, 10797, 10798, 10799, 10800, 10801, 10802, 10803, 10804, 10805, 10806, 10807, 10808
10809, 10810, 10811, 10812, 10813, 10814, 10815, 10816, 10817, 10818, 10819, 10820, 10821, 10822, 10823, 10824
10825, 10826, 10827, 10828, 10829, 10830, 10831, 10832, 10833, 10834, 10835, 10836, 10837, 10838, 10839, 10840
10841, 10842, 10843, 10844, 10845, 10846, 10847, 10848, 10849, 10850, 10851, 10852, 10853, 10854, 10855, 10856
10857, 10858, 10859, 10860, 10861, 10862, 10863, 10864, 10865, 10866, 10867, 10868, 10869, 10870, 10871, 10872
10873, 10874, 10875, 10876, 10877, 10878, 10879, 10880, 10881, 10882, 10883, 10884, 10885, 10886, 10887, 10888
10889, 10890, 10891, 10892, 10893, 10894, 10895, 10896, 10897, 10898, 10899, 10900, 10901, 10902, 10903, 10904
10905, 10906, 10907, 10908, 10909, 10910, 10911, 10912, 10913, 10914, 10915, 10916, 10917, 10918, 10919, 10920
10921, 10922, 10923, 10924, 10925, 10926, 10927, 10928, 10929, 10930, 10931, 10932, 10933, 10934, 10935, 10936
10937, 10938, 10939, 10940, 10941, 10942, 10943, 10944, 10945, 10946, 10947, 10948, 10949, 10950, 10951, 10952
10953, 10954, 10955, 10956, 10957, 10958, 10959, 10960, 10961, 10962, 10963, 10964, 10965, 10966, 10967, 10968
10969, 10970, 10971, 10972, 10973, 10974, 10975, 10976, 10977, 10978, 10979, 10980, 10981, 10982, 10983, 10984
10985, 10986, 10987, 10988, 10989, 10990, 10991, 10992, 10993, 10994, 10995, 10996, 10997, 10998, 10999, 11000
11001, 11002, 11003, 11004, 11005, 11006, 11007, 11008, 11009, 11010, 11011, 11012, 11013, 11014, 11015, 11016
11017, 11018, 11019, 11020, 11021, 11022, 11023, 11024, 11025, 11026, 11027, 11028, 11029, 11030, 11031, 11032
11033, 11034, 11035, 11036, 11037, 11038, 11039, 11040, 11041, 11042, 11043, 11044, 11045, 11046, 11047, 11048
11049, 11050, 11051, 11052, 11053, 11054, 11055, 11056, 11057, 11058, 11059, 11060, 11061, 11062, 11063, 11064
11065, 11066, 11067, 11068, 11069, 11070, 11071, 11072, 11073, 11074, 11075, 11076, 11077, 11078, 11079, 11080
11081, 11082, 11083, 11084, 11085, 11086, 11087, 11088, 11089, 11090, 11091, 11092, 11093, 11094, 11095, 11096
11097, 11098, 11099, 11100, 11101, 11102, 11103, 11104, 11105, 11106, 11107, 11108, 11109, 11110, 11111, 11112
11113, 11114, 11115, 11116, 11117, 11118, 11119, 11120, 11121, 11122, 11123, 11124, 11125, 11126, 11127, 11128
11129, 11130, 11131, 11132, 11133, 11134, 11135, 11136, 11137, 11138, 11139, 11140, 11141, 11142, 11143, 11144
11145, 11146, 11147, 11148, 11149, 11150, 11151, 11152, 11153, 11154, 11155, 11156, 11157, 11158, 11159, 11160
11161, 11162, 11163, 11164, 11165, 11166, 11167, 11168, 11169, 11170, 11171, 11172, 11173, 11174, 11175, 11176
11177, 11178, 11179, 11180, 11181, 11182, 11183, 11184, 11185, 11186, 11187, 11188, 11189, 11190, 11191, 11192
11193, 11194, 11195, 11196, 11197, 11198, 11199, 11200, 11201, 11202, 11203, 11204, 11205, 11206, 11207, 11208
11209, 11210, 11211, 11212, 11213, 11214, 11215, 11216, 11217, 11218, 11219, 11220, 11221, 11222, 11223, 11224
11225, 11226, 11227, 11228, 11229, 11230, 11231, 11232, 11233, 11234, 11235, 11236, 11237, 11238, 11239, 11240
11241, 11242, 11243, 11244, 11245, 11246, 11247, 11248, 11249, 11250, 11251, 11252, 11253, 11254, 11255, 11256
11257, 11258, 11259, 11260, 11261, 11262, 11263, 11264, 11265, 11266, 11267, 11268, 11269, 11270, 11271, 11272
11273, 11274, 11275, 11276, 11277, 11278, 11279, 11280, 11281, 11282, 11283, 11284, 11285, 11286, 11287, 11288
11289, 11290, 11291, 11292, 11293, 11294, 11295, 11296, 11297, 11298, 11299, 11300, 11301, 11302, 11303, 11304
11305, 11306, 11307, 11308, 11309, 11310, 11311, 11312, 11313, 11314, 11315, 11316, 11317, 11318, 11319, 11320
11321, 11322, 11323, 11324, 11325, 11326, 11327, 11328, 11329, 11330, 11331, 11332, 11333, 11334, 11335, 11336
11337, 11338, 11339, 11340, 11341, 11342, 11343, 11344, 11345, 11346, 11347, 11348, 11349, 11350, 11351, 11352
11353, 11354, 11355, 11356, 11357, 11358, 11359, 11360, 11361, 11362, 11363, 11364, 11365, 11366, 11367, 11368
11369, 11370, 11371, 11372, 11373, 11374, 11375, 11376, 11377, 11378, 11379, 11380, 11381, 11382, 11383, 11384
11385, 11386, 11387, 11388, 11389, 11390, 11391, 11392, 11393, 11394, 11395, 11396, 11397, 11398, 11399, 11400
11401, 11402, 11403, 11404, 11405, 11406, 11407, 11408, 11409, 11410, 11411, 11412, 11413, 11414, 11415, 11416
11417, 11418, 11419, 11420, 11421, 11422, 11423, 11424, 11425, 11426, 11427, 11428, 11429, 11430, 11431, 11432
11433, 11434, 11435, 11436, 11437, 11438, 11439, 11440, 11441, 11442, 11443, 11444, 11445, 11446, 11447, 11448
11449, 11450, 11451, 11452, 11453, 11454, 11455, 11456, 11457, 11458, 11459, 11460, 11461, 11462, 11463, 11464
11465, 11466, 11467, 11468, 11469, 11470, 11471, 11472, 11473, 11474, 11475, 11476, 11477, 11478, 11479, 11480
11481, 11482, 11483, 11484, 11485, 11486, 11487, 11488, 11489, 11490, 11491, 11492, 11493, 11494, 11495, 11496
11497, 11498, 11499, 11500, 11501, 11502, 11503, 11504, 11505, 11506, 11507, 11508, 11509, 11510, 11511, 11512
11513, 11514, 11515, 11516, 11517, 11518, 11519, 11520, 11521, 11522, 11523, 11524, 11525, 11526, 11527, 11528
11529, 11530, 11531, 11532, 11533, 11534, 11535, 11536, 11537, 11538, 11539, 11540, 11541, 11542, 11543, 11544
11545, 11546, 11547, 11548, 11549, 11550, 11551, 11552, 11553, 11554, 11555, 11556, 11557, 11558, 11559, 11560
11561, 11562, 11563, 11564, 11565, 11566, 11567, 11568, 11569, 11570, 11571, 11572, 11573, 11574, 11575, 11576
11577, 11578, 11579, 11580, 11581, 11582, 11583, 11584, 11585, 11586, 11587, 11588, 11589, 11590, 11591, 11592
11593, 11594, 11595, 11596, 11597, 11598, 11599, 11600, 11601, 11602, 11603, 11604, 11605, 11606, 11607, 11608
11609, 11610, 11611, 11612, 11613, 11614, 11615, 11616, 11617, 11618, 11619, 11620, 11621, 11622, 11623, 11624
11625, 11626, 11627, 11628, 11629, 11630, 11631, 11632, 11633, 11634, 11635, 11636, 11637, 11638, 11639, 11640
11641, 11642, 11643, 11644, 11645, 11646, 11647, 11648, 11649, 11650, 11651, 11652, 11653, 11654, 11655, 11656
11657, 11658, 11659, 11660, 11661, 11662, 11663, 11664, 11665, 11666, 11667, 11668, 11669, 11670, 11671, 11672
11673, 11674, 11675, 11676, 11677, 11678, 11679, 11680, 11681, 11682, 11683, 11684, 11685, 11686, 11687, 11688
11689, 11690, 11691, 11692, 11693, 11694, 11695, 11696, 11697, 11698, 11699, 11700, 11701, 11702, 11703, 11704
11705, 11706, 11707, 11708, 11709, 11710, 11711, 11712, 11713, 11714, 11715, 11716, 11717, 11718, 11719, 11720
11721, 11722, 11723, 11724, 11725, 11726, 11727, 11728, 11729, 11730, 11731, 11732, 11733, 11734, 11735, 11736
11737, 11738, 11739, 11740, 11741, 11742, 11743, 11744, 11745, 11746, 11747, 11748, 11749, 11750, 11751, 11752
11753, 11754, 11755, 11756, 11757, 11758, 11759, 11760, 11761, 11762, 11763, 11764, 11765, 11766, 11767, 11768
11769, 11770, 11771, 11772, 11773, 11774, 11775, 11776, 11777, 11778, 11779, 11780, 11781, 11782, 11783, 11784
11785, 11786, 11787, 11788, 11789, 11790, 11791, 11792, 11793, 11794, 11795, 11796, 11797, 11798, 11799, 11800
11801, 11802, 11803, 11804, 11805, 11806, 11807, 11808, 11809, 11810, 11811, 11812, 11813, 11814, 11815, 11816
11817, 11818, 11819, 11820, 11821, 11822, 11823, 11824, 11825, 11826, 11827, 11828, 11829, 11830, 11831, 11832
11833, 11834, 11835, 11836, 11837, 11838, 11839, 11840, 11841, 11842, 11843, 11844, 11845, 11846, 11847, 11848
11849, 11850, 11851, 11852, 11853, 11854, 11855, 11856, 11857, 11858, 11859, 11860, 11861, 11862, 11863, 11864
11865, 11866, 11867, 11868, 11869, 11870, 11871, 11872, 11873, 11874, 11875, 11876, 11877, 11878, 11879, 11880
11881, 11882, 11883, 11884, 11885, 11886, 11887, 11888, 11889, 11890, 11891, 11892, 11893, 11894, 11895, 11896
11897, 11898, 11899, 11900, 11901, 11902, 11903, 11904, 11905, 11906, 11907, 11908, 11909, 11910, 11911, 11912
11913, 11914, 11915, 11916, 11917, 11918, 11919, 11920, 11921, 11922, 11923, 11924, 11925, 11926, 11927, 11928
11929, 11930, 11931, 11932, 11933, 11934, 11935, 11936, 11937, 11938, 11939, 11940, 11941, 11942, 11943, 11944
11945, 11946, 11947, 11948, 11949, 11950, 11951, 11952, 11953, 11954, 11955, 11956, 11957, 11958, 11959, 11960
11961, 11962, 11963, 11964, 11965, 11966, 11967, 11968, 11969, 11970, 11971, 11972, 11973, 11974, 11975, 11976
11977, 11978, 11979, 11980, 11981, 11982, 11983, 11984, 11985, 11986, 11987, 11988, 11989, 11990, 11991, 11992
11993, 11994, 11995, 11996, 11997, 11998, 11999, 12000, 12001, 12002, 12003, 12004, 12005, 12006, 12007, 12008
12009, 12010, 12011, 12012, 12013, 12014, 12015, 12016, 12017, 12018, 12019, 12020, 12021, 12022, 12023, 12024
12025, 12026, 12027, 12028, 12029, 12030, 12031, 12032, 12033, 12034, 12035, 12036, 12037, 12038, 12039, 12040
12041, 12042, 12043, 12044, 12045, 12046, 12047, 12048, 12049, 12050, 12051, 12052, 12053, 12054, 12055, 12056
12057, 12058, 12059, 12060, 12061, 12062, 12063, 12064, 12065, 12066, 12067, 12068, 12069, 12070, 12071, 12072
12073, 12074, 12075, 12076, 12077, 12078, 12079, 12080, 12081, 12082, 12083, 12084, 12085, 12086, 12087, 12088
12089, 12090, 12091, 12092, 12093, 12094, 12095, 12096, 12097, 12098, 12099, 12100, 12101, 12102, 12103, 12104
12105, 12106, 12107, 12108, 12109, 12110, 12111, 12112, 12113, 12114, 12115, 12116, 12117, 12118, 12119, 12120
12121, 12122, 12123, 12124, 12125, 12126, 12127, 12128, 12129, 12130, 12131, 12132, 12133, 12134, 12135, 12136
12137, 12138, 12139, 12140, 12141, 12142, 12143, 12144, 12145, 12146, 12147, 12148, 12149, 12150, 12151, 12152
12153, 12154, 12155, 12156, 12157, 12158, 12159, 12160, 12161, 12162, 12163, 12164, 12165, 12166, 12167, 12168
12169, 12170, 12171, 12172, 12173, 12174, 12175, 12176, 12177, 12178, 12179, 12180, 12181, 12182, 12183, 12184
12185, 12186, 12187, 12188, 12189, 12190, 12191, 12192, 12193, 12194, 12195, 12196, 12197, 12198, 12199, 12200
12201, 12202, 12203, 12204, 12205, 12206, 12207, 12208, 12209, 12210, 12211, 12212, 12213, 12214, 12215, 12216
12217, 12218, 12219, 12220, 12221, 12222, 12223, 12224, 12225, 12226, 12227, 12228, 12229, 12230, 12231, 12232
12233, 12234, 12235, 12236, 12237, 12238, 12239, 12240, 12241, 12242, 12243, 12244, 12245, 12246, 12247, 12248
12249, 12250, 12251, 12252, 12253, 12254, 12255, 12256, 12257, 12258, 12259, 12260, 12261, 12262, 12263, 12264
12265, 12266, 12267, 12268, 12269, 12270, 12271, 12272, 12273, 12274, 12275, 12276, 12277, 12278, 12279, 12280
12281, 12282, 12283, 12284, 12285, 12286, 12287, 12288, 12289, 12290, 12291, 12292, 12293, 12294, 12295, 12296
12297, 12298, 12299, 12300, 12301, 12302, 12303, 12304, 12305, 12306, 12307, 12308, 12309, 12310, 12311, 12312
12313, 12314, 12315, 12316, 12317, 12318, 12319, 12320, 12321, 12322, 12323, 12324, 12325, 12326, 12327, 12328
12329, 12330, 12331, 12332, 12333, 12334, 12335, 12336, 12337, 12338, 12339, 12340, 12341, 12342, 12343, 12344
12345, 12346, 12347, 12348, 12349, 12350, 12351, 12352, 12353, 12354, 12355, 12356, 12357, 12358, 12359, 12360
12361, 12362, 12363, 12364, 12365, 12366, 12367, 12368, 12369, 12370, 12371, 12372, 12373, 12374, 12375, 12376
12377, 12378, 12379, 12380, 12381, 12382, 12383, 12384, 12385, 12386, 12387, 12388, 12389, 12390, 12391, 12392
12393, 12394, 12395, 12396, 12397, 12398, 12399, 12400, 12401, 12402, 12403, 12404, 12405, 12406, 12407, 12408
12409, 12410, 12411, 12412, 12413, 12414, 12415, 12416, 12417, 12418, 12419, 12420, 12421, 12422, 12423, 12424
12425, 12426, 12427, 12428, 12429, 12430, 12431, 12432, 12433, 12434, 12435, 12436, 12437, 12438, 12439, 12440
12441, 12442, 12443, 12444, 12445, 12446, 12447, 12448, 12449, 12450, 12451, 12452, 12453, 12454, 12455, 12456
12457, 12458, 12459, 12460, 12461, 12462, 12463, 12464, 12465, 12466, 12467, 12468, 12469, 12470, 12471, 12472
12473, 12474, 12475, 12476, 12477, 12478, 12479, 12480, 12481, 12482, 12483, 12484, 12485, 12486, 12487, 12488
12489, 12490, 12491, 12492, 12493, 12494, 12495, 12496, 12497, 12498, 12499, 12500, 12501, 12502, 12503, 12504
12505, 12506, 12507, 12508, 12509, 12510, 12511, 12512, 12513, 12514, 12515, 12516, 12517, 12518, 12519, 12520
12521, 12522, 12523, 12524, 12525, 12526, 12527, 12528, 12529, 12530, 12531, 12532, 12533, 12534, 12535, 12536
12537, 12538, 12539, 12540, 12541, 12542, 12543, 12544, 12545, 12546, 12547, 12548, 12549, 12550, 12551, 12552
12553, 12554, 12555, 12556, 12557, 12558, 12559, 12560, 12561, 12562, 12563, 12564, 12565, 12566, 12567, 12568
12569, 12570, 12571, 12572, 12573, 12574, 12575, 12576, 12577, 12578, 12579, 12580, 12581, 12582, 12583, 12584
12585, 12586, 12587, 12588, 12589, 12590, 12591, 12592, 12593, 12594, 12595, 12596, 12597, 12598, 12599, 12600
12601, 12602, 12603, 12604, 12605, 12606, 12607, 12608, 12609, 12610, 12611, 12612, 12613, 12614, 12615, 12616
12617, 12618, 12619, 12620, 12621, 12622, 12623, 12624, 12625, 12626, 12627, 12628, 12629, 12630, 12631, 12632
12633, 12634, 12635, 12636, 12637, 12638, 12639, 12640, 12641, 12642, 12643, 12644, 12645, 12646, 12647, 12648
12649, 12650, 12651, 12652, 12653, 12654, 12655, 12656, 12657, 12658, 12659, 12660, 12661, 12662, 12663, 12664
12665, 12666, 12667, 12668, 12669, 12670, 12671, 12672, 12673, 12674, 12675, 12676, 12677, 12678, 12679, 12680
12681, 12682, 12683, 12684, 12685, 12686, 12687, 12688, 12689, 12690, 12691, 12692, 12693, 12694, 12695, 12696
12697, 12698, 12699, 12700, 12701, 12702, 12703, 12704, 12705, 12706, 12707, 12708, 12709, 12710, 12711, 12712
12713, 12714, 12715, 12716, 12717, 12718, 12719, 12720, 12721, 12722, 12723, 12724, 12725, 12726, 12727, 12728
12729, 12730, 12731, 12732, 12733, 12734, 12735, 12736, 12737, 12738, 12739, 12740, 12741, 12742, 12743, 12744
12745, 12746, 12747, 12748, 12749, 12750, 12751, 12752, 12753, 12754, 12755, 12756, 12757, 12758, 12759, 12760
12761, 12762, 12763, 12764, 12765, 12766, 12767, 12768, 12769, 12770, 12771, 12772, 12773, 12774, 12775, 12776
12777, 12778, 12779, 12780, 12781, 12782, 12783, 12784, 12785, 12786, 12787, 12788, 12789, 12790, 12791, 12792
12793, 12794, 12795, 12796, 12797, 12798, 12799, 12800, 12801, 12802, 12803, 12804, 12805, 12806, 12807, 12808
12809, 12810, 12811, 12812, 12813, 12814, 12815, 12816, 12817, 12818, 12819, 12820, 12821, 12822, 12823, 12824
12825, 12826, 12827, 12828, 12829, 12830, 12831, 12832, 12833, 12834, 12835, 12836, 12837, 12838, 12839, 12840
12841, 12842, 12843, 12844, 12845, 12846, 12847, 12848, 12849, 12850, 12851, 12852, 12853, 12854, 12855, 12856
12857, 12858, 12859, 12860, 12861, 12862, 12863, 12864, 12865, 12866, 12867, 12868, 12869, 12870, 12871, 12872
12873, 12874, 12875, 12876, 12877, 12878, 12879, 12880, 12881, 12882, 12883, 12884, 12885, 12886, 12887, 12888
12889, 12890, 12891, 12892, 12893, 12894, 12895, 12896, 12897, 12898, 12899, 12900, 12901, 12902, 12903, 12904
12905, 12906, 12907, 12908, 12909, 12910, 12911, 12912, 12913, 12914, 12915, 12916, 12917, 12918, 12919, 12920
12921, 12922, 12923, 12924, 12925, 12926, 12927, 12928, 12929, 12930, 12931, 12932, 12933, 12934, 12935, 12936
12937, 12938, 12939, 12940, 12941, 12942, 12943, 12944, 12945, 12946, 12947, 12948, 12949, 12950, 12951, 12952
12953, 12954, 12955, 12956, 12957, 12958, 12959, 12960, 12961, 12962, 12963, 12964, 12965, 12966, 12967, 12968
12969, 12970, 12971, 12972, 12973, 12974, 12975, 12976, 12977, 12978, 12979, 12980, 12981, 12982, 12983, 12984
12985, 12986, 12987, 12988, 12989, 12990, 12991, 12992, 12993, 12994, 12995, 12996, 12997, 12998, 12999, 13000
13001, 13002, 13003, 13004, 13005, 13006, 13007, 13008, 13009, 13010, 13011, 13012, 13013, 13014, 13015, 13016
13017, 13018, 13019, 13020, 13021, 13022, 13023, 13024, 13025, 13026, 13027, 13028, 13029, 13030, 13031, 13032
13033, 13034, 13035, 13036, 13037, 13038, 13039, 13040, 13041, 13042, 13043, 13044, 13045, 13046, 13047, 13048
13049, 13050, 13051, 13052, 13053, 13054, 13055, 13056, 13057, 13058, 13059, 13060, 13061, 13062, 13063, 13064
13065, 13066, 13067, 13068, 13069, 13070, 13071, 13072, 13073, 13074, 13075, 13076, 13077, 13078, 13079, 13080
13081, 13082, 13083, 13084, 13085, 13086, 13087, 13088, 13089, 13090, 13091, 13092, 13093, 13094, 13095, 13096
13097, 13098, 13099, 13100, 13101, 13102, 13103, 13104, 13105, 13106, 13107, 13108, 13109, 13110, 13111, 13112
13113, 13114, 13115, 13116, 13117, 13118, 13119, 13120, 13121, 13122, 13123, 13124, 13125, 13126, 13127, 13128
13129, 13130, 13131, 13132, 13133, 13134, 13135, 13136, 13137, 13138, 13139, 13140, 13141, 13142, 13143, 13144
13145, 13146, 13147, 13148, 13149, 13150, 13151, 13152, 13153, 13154, 13155, 13156, 13157, 13158, 13159, 13160
13161, 13162, 13163, 13164, 13165, 13166, 13167, 13168, 13169, 13170, 13171, 13172, 13173, 13174, 13175, 13176
13177, 13178, 13179, 13180, 13181, 13182, 13183, 13184, 13185, 13186, 13187, 13188, 13189, 13190, 13191, 13192
13193, 13194, 13195, 13196, 13197, 13198, 13199, 13200, 13201, 13202, 13203, 13204, 13205, 13206, 13207, 13208
13209, 13210, 13211, 13212, 13213, 13214, 13215, 13216, 13217, 13218, 13219, 13220, 13221, 13222, 13223, 13224
13225, 13226, 13227, 13228, 13229, 13230, 13231, 13232, 13233, 13234, 13235, 13236, 13237, 13238, 13239, 13240
13241, 13242, 13243, 13244, 13245, 13246, 13247, 13248, 13249, 13250, 13251, 13252, 13253, 13254, 13255, 13256
13257, 13258, 13259, 13260, 13261, 13262, 13263, 13264, 13265, 13266, 13267, 13268, 13269, 13270, 13271, 13272
13273, 13274, 13275, 13276, 13277, 13278, 13279, 13280, 13281, 13282, 13283, 13284, 13285, 13286, 13287, 13288
13289, 13290, 13291, 13292, 13293, 13294, 13295, 13296, 13297, 13298, 13299, 13300, 13301, 13302, 13303, 13304
13305, 13306, 13307, 13308, 13309, 13310, 13311, 13312, 13313, 13314, 13315, 13316, 13317, 13318, 13319, 13320
13321, 13322, 13323, 13324, 13325, 13326, 13327, 13328, 13329, 13330, 13331, 13332, 13333, 13334, 13335, 13336
13337, 13338, 13339, 13340, 13341, 13342, 13343, 13344, 13345, 13346, 13347, 13348, 13349, 13350, 13351, 13352
13353, 13354, 13355, 13356, 13357, 13358, 13359, 13360, 13361, 13362, 13363, 13364, 13365, 13366, 13367, 13368
13369, 13370, 13371, 13372, 13373, 13374, 13375, 13376, 13377, 13378, 13379, 13380, 13381, 13382, 13383, 13384
13385, 13386, 13387, 13388, 13389, 13390, 13391, 13392, 13393, 13394, 13395, 13396, 13397, 13398, 13399, 13400
13401, 13402, 13403, 13404, 13405, 13406, 13407, 13408, 13409, 13410, 13411, 13412, 13413, 13414, 13415, 13416
13417, 13418, 13419, 13420, 13421, 13422, 13423, 13424, 13425, 13426, 13427, 13428, 13429, 13430, 13431, 13432
13433, 13434, 13435, 13436, 13437, 13438, 13439, 13440, 13441, 13442, 13443, 13444, 13445, 13446, 13447, 13448
13449, 13450, 13451, 13452, 13453, 13454, 13455, 13456, 13457, 13458, 13459, 13460, 13461, 13462, 13463, 13464
13465, 13466, 13467, 13468, 13469, 13470, 13471, 13472, 13473, 13474, 13475, 13476, 13477, 13478, 13479, 13480
13481, 13482, 13483, 13484, 13485, 13486, 13487, 13488, 13489, 13490, 13491, 13492, 13493, 13494, 13495, 13496
13497, 13498, 13499, 13500, 13501, 13502, 13503, 13504, 13505, 13506, 13507, 13508, 13509, 13510, 13511, 13512
13513, 13514, 13515, 13516, 13517, 13518, 13519, 13520, 13521, 13522, 13523, 13524, 13525, 13526, 13527, 13528
13529, 13530, 13531, 13532, 13533, 13534, 13535, 13536, 13537, 13538, 13539, 13540, 13541, 13542, 13543, 13544
13545, 13546, 13547, 13548, 13549, 13550, 13551, 13552, 13553, 13554, 13555, 13556, 13557, 13558, 13559, 13560
13561, 13562, 13563, 13564, 13565, 13566, 13567, 13568, 13569, 13570, 13571, 13572, 13573, 13574, 13575, 13576
13577, 13578, 13579, 13580, 13581, 13582, 13583, 13584, 13585, 13586, 13587, 13588, 13589, 13590, 13591, 13592
13593, 13594, 13595, 13596, 13597, 13598, 13599, 13600, 13601, 13602, 13603, 13604, 13605, 13606, 13607, 13608
13609, 13610, 13611, 13612, 13613, 13614, 13615, 13616, 13617, 13618, 13619, 13620, 13621, 13622, 13623, 13624
13625, 13626, 13627, 13628, 13629, 13630, 13631, 13632, 13633, 13634, 13635, 13636, 13637, 13638, 13639, 13640
13641, 13642, 13643, 13644, 13645, 13646, 13647, 13648, 13649, 13650, 13651, 13652, 13653, 13654, 13655, 13656
13657, 13658, 13659, 13660, 13661, 13662, 13663, 13664, 13665, 13666, 13667, 13668, 13669, 13670, 13671, 13672
13673, 13674, 13675, 13676, 13677, 13678, 13679, 13680, 13681, 13682, 13683, 13684, 13685, 13686, 13687, 13688
13689, 13690, 13691, 13692, 13693, 13694, 13695, 13696, 13697, 13698, 13699, 13700, 13701, 13702, 13703, 13704
13705, 13706, 13707, 13708, 13709, 13710, 13711, 13712, 13713, 13714, 13715, 13716, 13717, 13718, 13719, 13720
13721, 13722, 13723, 13724, 13725, 13726, 13727, 13728, 13729, 13730, 13731, 13732, 13733, 13734, 13735, 13736
13737, 13738, 13739, 13740, 13741, 13742, 13743, 13744, 13745, 13746, 13747, 13748, 13749, 13750, 13751, 13752
13753, 13754, 13755, 13756, 13757, 13758, 13759, 13760, 13761, 13762, 13763, 13764, 13765, 13766, 13767, 13768
13769, 13770, 13771, 13772, 13773, 13774, 13775, 13776, 13777, 13778, 13779, 13780, 13781, 13782, 13783, 13784
13785, 13786, 13787, 13788, 13789, 13790, 13791, 13792, 13793, 13794, 13795, 13796, 13797, 13798, 13799, 13800
13801, 13802, 13803, 13804, 13805, 13806, 13807, 13808, 13809, 13810, 13811, 13812, 13813, 13814, 13815, 13816
13817, 13818, 13819, 13820, 13821, 13822, 13823, 13824, 13825, 13826, 13827, 13828, 13829, 13830, 13831, 13832
13833, 13834, 13835, 13836, 13837, 13838, 13839, 13840, 13841, 13842, 13843, 13844, 13845, 13846, 13847, 13848
13849, 13850, 13851, 13852, 13853, 13854, 13855, 13856, 13857, 13858, 13859, 13860, 13861, 13862, 13863, 13864
13865, 13866, 13867, 13868, 13869, 13870, 13871, 13872, 13873, 13874, 13875, 13876, 13877, 13878, 13879, 13880
13881, 13882, 13883, 13884, 13885, 13886, 13887, 13888, 13889, 13890, 13891, 13892, 13893, 13894, 13895, 13896
13897, 13898, 13899, 13900, 13901, 13902, 13903, 13904, 13905, 13906, 13907, 13908, 13909, 13910, 13911, 13912
13913, 13914, 13915, 13916, 13917, 13918, 13919, 13920, 13921, 13922, 13923, 13924, 13925, 13926, 13927, 13928
13929, 13930, 13931, 13932, 13933, 13934, 13935, 13936, 13937, 13938, 13939, 13940, 13941, 13942, 13943, 13944
13945, 13946, 13947, 13948, 13949, 13950, 13951, 13952, 13953, 13954, 13955, 13956, 13957, 13958, 13959, 13960
13961, 13962, 13963, 13964, 13965, 13966, 13967, 13968, 13969, 13970, 13971, 13972, 13973, 13974, 13975, 13976
13977, 13978, 13979, 13980, 13981, 13982, 13983, 13984, 13985, 13986, 13987, 13988, 13989, 13990, 13991, 13992
13993, 13994, 13995, 13996, 13997, 13998, 13999, 14000, 14001, 14002, 14003, 14004, 14005, 14006, 14007, 14008
14009, 14010, 14011, 14012, 14013, 14014, 14015, 14016, 14017, 14018, 14019, 14020, 14021, 14022, 14023, 14024
14025, 14026, 14027, 14028, 14029, 14030, 14031, 14032, 14033, 14034, 14035, 14036, 14037, 14038, 14039, 14040
14041, 14042, 14043, 14044, 14045, 14046, 14047, 14048, 14049, 14050, 14051, 14052, 14053, 14054, 14055, 14056
14057, 14058, 14059, 14060, 14061, 14062, 14063, 14064, 14065, 14066, 14067, 14068, 14069, 14070, 14071, 14072
14073, 14074, 14075, 14076
*ELSET, ELSET=All_elem
PHASE_ELEM, MECH_ELEM, UMATELEM
*UEL PROPERTY, ELSET=PHASE_ELEM
 0.0075, 0.0027, 210.0, 0.3, 1.0e-7, 4692.0
*UEL PROPERTY, ELSET=MECH_ELEM
 0.0075, 0.0027, 210.0, 0.3, 1.0e-7, 4692.0
*SOLID SECTION, ELSET=UMATELEM, MATERIAL=UMAT_MAT
 1.0,
*MATERIAL, NAME=UMAT_MAT
*USER MATERIAL, CONSTANTS=3
 210.0, 0.3, 4692.
*DEPVAR
 20
*NSET, NSET=N_BOTTOM
1, 2, 3, 4, 5, 6, 7, 8, 9, 10, 11, 12, 13, 14, 15, 16
17, 18, 19, 20, 21, 22, 23, 24, 25, 604, 605, 606, 607, 608, 609, 610
611, 612, 613, 614, 615, 616, 617, 618, 619, 620, 621, 622, 623, 624, 625, 626
627, 628, 629, 630
*NSET, NSET=N_PIN
25
*NSET, NSET=N_TOP
49, 50, 51, 52, 53, 54, 55, 56, 57, 58, 59, 60, 61, 62, 63, 64
65, 66, 67, 68, 69, 70, 71, 72, 73, 677, 678, 679, 680, 681, 682, 683
684, 685, 686, 687, 688, 689, 690, 691, 692, 693, 694, 695, 696, 697, 698, 699
700, 701, 702, 703
*NSET, NSET=N_RP
999999
** KINEMATIC CONSTRAINTS: N_TOP coupling to N_RP (u_y)
** ==========================================================
*EQUATION
2
49, 2, 1.0, 999999, 2, -1.0
*EQUATION
2
50, 2, 1.0, 999999, 2, -1.0
*EQUATION
2
51, 2, 1.0, 999999, 2, -1.0
*EQUATION
2
52, 2, 1.0, 999999, 2, -1.0
*EQUATION
2
53, 2, 1.0, 999999, 2, -1.0
*EQUATION
2
54, 2, 1.0, 999999, 2, -1.0
*EQUATION
2
55, 2, 1.0, 999999, 2, -1.0
*EQUATION
2
56, 2, 1.0, 999999, 2, -1.0
*EQUATION
2
57, 2, 1.0, 999999, 2, -1.0
*EQUATION
2
58, 2, 1.0, 999999, 2, -1.0
*EQUATION
2
59, 2, 1.0, 999999, 2, -1.0
*EQUATION
2
60, 2, 1.0, 999999, 2, -1.0
*EQUATION
2
61, 2, 1.0, 999999, 2, -1.0
*EQUATION
2
62, 2, 1.0, 999999, 2, -1.0
*EQUATION
2
63, 2, 1.0, 999999, 2, -1.0
*EQUATION
2
64, 2, 1.0, 999999, 2, -1.0
*EQUATION
2
65, 2, 1.0, 999999, 2, -1.0
*EQUATION
2
66, 2, 1.0, 999999, 2, -1.0
*EQUATION
2
67, 2, 1.0, 999999, 2, -1.0
*EQUATION
2
68, 2, 1.0, 999999, 2, -1.0
*EQUATION
2
69, 2, 1.0, 999999, 2, -1.0
*EQUATION
2
70, 2, 1.0, 999999, 2, -1.0
*EQUATION
2
71, 2, 1.0, 999999, 2, -1.0
*EQUATION
2
72, 2, 1.0, 999999, 2, -1.0
*EQUATION
2
73, 2, 1.0, 999999, 2, -1.0
*EQUATION
2
677, 2, 1.0, 999999, 2, -1.0
*EQUATION
2
678, 2, 1.0, 999999, 2, -1.0
*EQUATION
2
679, 2, 1.0, 999999, 2, -1.0
*EQUATION
2
680, 2, 1.0, 999999, 2, -1.0
*EQUATION
2
681, 2, 1.0, 999999, 2, -1.0
*EQUATION
2
682, 2, 1.0, 999999, 2, -1.0
*EQUATION
2
683, 2, 1.0, 999999, 2, -1.0
*EQUATION
2
684, 2, 1.0, 999999, 2, -1.0
*EQUATION
2
685, 2, 1.0, 999999, 2, -1.0
*EQUATION
2
686, 2, 1.0, 999999, 2, -1.0
*EQUATION
2
687, 2, 1.0, 999999, 2, -1.0
*EQUATION
2
688, 2, 1.0, 999999, 2, -1.0
*EQUATION
2
689, 2, 1.0, 999999, 2, -1.0
*EQUATION
2
690, 2, 1.0, 999999, 2, -1.0
*EQUATION
2
691, 2, 1.0, 999999, 2, -1.0
*EQUATION
2
692, 2, 1.0, 999999, 2, -1.0
*EQUATION
2
693, 2, 1.0, 999999, 2, -1.0
*EQUATION
2
694, 2, 1.0, 999999, 2, -1.0
*EQUATION
2
695, 2, 1.0, 999999, 2, -1.0
*EQUATION
2
696, 2, 1.0, 999999, 2, -1.0
*EQUATION
2
697, 2, 1.0, 999999, 2, -1.0
*EQUATION
2
698, 2, 1.0, 999999, 2, -1.0
*EQUATION
2
699, 2, 1.0, 999999, 2, -1.0
*EQUATION
2
700, 2, 1.0, 999999, 2, -1.0
*EQUATION
2
701, 2, 1.0, 999999, 2, -1.0
*EQUATION
2
702, 2, 1.0, 999999, 2, -1.0
*EQUATION
2
703, 2, 1.0, 999999, 2, -1.0
** ==========================================================
** STEP 1: Monotonic Tensile Loading to u = 0.0050 mm
** ==========================================================
*STEP, NAME=Step-1, NLGEOM=NO, INC=2500
*STATIC
 5.0E-4, 1.0, 1.0E-9, 5.0E-4
*BOUNDARY
 N_BOTTOM, 2, 2, 0.0
 N_PIN, 1, 1, 0.0
 N_TOP, 1, 1, 0.0
 N_RP, 2, 2, 0.0050
*RESTART, WRITE, FREQUENCY=0
*OUTPUT, FIELD, FREQUENCY=1
*NODE OUTPUT, NSET=N_RP
 U, RF
*ELEMENT OUTPUT, ELSET=All_elem
 SDV
*NODE PRINT, FREQ=1, NSET=N_RP
 U2, RF2
*END STEP
** ==========================================================
** STEP 2: Monotonic Tensile Loading to u = 0.0100 mm
** ==========================================================
*STEP, NAME=Step-2, NLGEOM=NO, INC=6000
*STATIC
 2.0E-4, 1.0, 1.0E-9, 2.0E-4
*CONTROLS, PARAMETERS=TIME INCREMENTATION
 4, 10, 9, 20, 10, 4, 0, 10
*BOUNDARY
 N_RP, 2, 2, 0.0100
*RESTART, WRITE, FREQUENCY=0
*OUTPUT, FIELD, FREQUENCY=1
*NODE OUTPUT, NSET=N_RP
 U, RF
*ELEMENT OUTPUT, ELSET=All_elem
 SDV
*NODE PRINT, FREQ=1, NSET=N_RP
 U2, RF2
*END STEP
