*Heading
** Stage F8 deterministic 6x4 seeded-notch patch
*Preprint, echo=NO, model=NO, history=NO, contact=NO
*Part, name=PATCH
*Node
1, 0, 0
2, 0.005, 0
3, 0.01, 0
4, 0.015, 0
5, 0.02, 0
6, 0.025, 0
7, 0.03, 0
8, 0, 0.005
9, 0.005, 0.005
10, 0.01, 0.005
11, 0.015, 0.005
12, 0.02, 0.005
13, 0.025, 0.005
14, 0.03, 0.005
15, 0, 0.01
16, 0.005, 0.01
17, 0.01, 0.01
18, 0.015, 0.01
19, 0.02, 0.01
20, 0.025, 0.01
21, 0.03, 0.01
22, 0, 0.015
23, 0.005, 0.015
24, 0.01, 0.015
25, 0.015, 0.015
26, 0.02, 0.015
27, 0.025, 0.015
28, 0.03, 0.015
29, 0, 0.02
30, 0.005, 0.02
31, 0.01, 0.02
32, 0.015, 0.02
33, 0.02, 0.02
34, 0.025, 0.02
35, 0.03, 0.02
*User element, nodes=4, type=U1, properties=3, coordinates=2, VARIABLES=8
3
*Element, type=U1
1, 1, 2, 9, 8
2, 2, 3, 10, 9
3, 3, 4, 11, 10
4, 4, 5, 12, 11
5, 5, 6, 13, 12
6, 6, 7, 14, 13
7, 8, 9, 16, 15
8, 9, 10, 17, 16
9, 10, 11, 18, 17
10, 11, 12, 19, 18
11, 12, 13, 20, 19
12, 13, 14, 21, 20
13, 16, 17, 24, 23
14, 17, 18, 25, 24
15, 18, 19, 26, 25
16, 19, 20, 27, 26
17, 20, 21, 28, 27
18, 22, 23, 30, 29
19, 23, 24, 31, 30
20, 24, 25, 32, 31
21, 25, 26, 33, 32
22, 26, 27, 34, 33
23, 27, 28, 35, 34
*Elset, elset=PHASE
1, 2, 3, 4, 5, 6, 7, 8, 9, 10, 11, 12, 13, 14, 15, 16
17, 18, 19, 20, 21, 22, 23
*Uel property, elset=PHASE
0.015, 0.0027, 1.0
*User element, nodes=4, type=U2, properties=4, coordinates=2, VARIABLES=56
1, 2
*Element, type=U2
33853, 1, 2, 9, 8
33854, 2, 3, 10, 9
33855, 3, 4, 11, 10
33856, 4, 5, 12, 11
33857, 5, 6, 13, 12
33858, 6, 7, 14, 13
33859, 8, 9, 16, 15
33860, 9, 10, 17, 16
33861, 10, 11, 18, 17
33862, 11, 12, 19, 18
33863, 12, 13, 20, 19
33864, 13, 14, 21, 20
33865, 16, 17, 24, 23
33866, 17, 18, 25, 24
33867, 18, 19, 26, 25
33868, 19, 20, 27, 26
33869, 20, 21, 28, 27
33870, 22, 23, 30, 29
33871, 23, 24, 31, 30
33872, 24, 25, 32, 31
33873, 25, 26, 33, 32
33874, 26, 27, 34, 33
33875, 27, 28, 35, 34
*Elset, elset=DISP
33853, 33854, 33855, 33856, 33857, 33858, 33859, 33860, 33861, 33862, 33863, 33864, 33865, 33866, 33867, 33868
33869, 33870, 33871, 33872, 33873, 33874, 33875
*Uel property, elset=DISP
210.0, 0.3, 1.0, 1.0e-7
*Element, type=CPE4, elset=UMATELEM
67705, 1, 2, 9, 8
67706, 2, 3, 10, 9
67707, 3, 4, 11, 10
67708, 4, 5, 12, 11
67709, 5, 6, 13, 12
67710, 6, 7, 14, 13
67711, 8, 9, 16, 15
67712, 9, 10, 17, 16
67713, 10, 11, 18, 17
67714, 11, 12, 19, 18
67715, 12, 13, 20, 19
67716, 13, 14, 21, 20
67717, 16, 17, 24, 23
67718, 17, 18, 25, 24
67719, 18, 19, 26, 25
67720, 19, 20, 27, 26
67721, 20, 21, 28, 27
67722, 22, 23, 30, 29
67723, 23, 24, 31, 30
67724, 24, 25, 32, 31
67725, 25, 26, 33, 32
67726, 26, 27, 34, 33
67727, 27, 28, 35, 34
*Solid Section, elset=UMATELEM, material=UMATELEM
1.0
*End Part
*Assembly, name=Assembly
*Instance, name=PATCH-1, part=PATCH
*End Instance
*Nset, nset=BOTTOM, instance=PATCH-1
1, 2, 3, 4, 5, 6, 7
*Nset, nset=TOP, instance=PATCH-1
29, 30, 31, 32, 33, 34, 35
*Nset, nset=TOPLEFT, instance=PATCH-1
29
*Nset, nset=ALLNODES, instance=PATCH-1, generate
1, 35, 1
*Elset, elset=UMATELEM, instance=PATCH-1
67705, 67706, 67707, 67708, 67709, 67710, 67711, 67712, 67713, 67714, 67715, 67716, 67717, 67718, 67719, 67720
67721, 67722, 67723, 67724, 67725, 67726, 67727
*End Assembly
*Material, name=UMATELEM
*Depvar
16
*User Material, constants=2
1.0e-11, 0.3
*Amplitude, name=CYCLE, time=TOTAL TIME
1.0, 0.003, 1.5, 0.001, 2.0, 0.006
** Step 1: monotonic shear
*Step, name=MONOTONIC, nlgeom=NO, inc=200
*Static, direct
0.02, 1.0
*Boundary
BOTTOM, 1, 2, 0.0
TOPLEFT, 2, 2, 0.0
TOP, 1, 1, 0.003
*Output, field, frequency=1
*Node Output, nset=ALLNODES
U, RF
*Element Output, elset=UMATELEM
SDV
*Energy Output
ALLIE, ALLSE, ALLWK
*End Step
** Step 2: partial unload then reload
*Step, name=UNLOAD_RELOAD, nlgeom=NO, inc=200
*Static, direct
0.02, 1.0
*Boundary, amplitude=CYCLE
TOP, 1, 1, 1.0
*Output, field, frequency=1
*Node Output, nset=ALLNODES
U, RF
*Element Output, elset=UMATELEM
SDV
*Energy Output
ALLIE, ALLSE, ALLWK
*End Step
