*Heading
 Automated Layered Phase-Field UEL Deck: CYCLE_000_DONOR
** Physical Elements: 2116 (Quads: 2116, Tris: 0), Physical Nodes: 2232
** Total Layered Elements: 6348
** Parameters: l0=1.500000e-02, Gc=2.700000e-03, E=2.100000e+02, nu=0.3000, k=1.0000e-07, thickness=1.0000e+00
*Preprint, echo=NO, model=NO, history=NO, contact=NO
**
** PARTS
**
*Part, name=PlatePart
** User Element Declarations
*User Element, nodes=4, type=U1, properties=7, coordinates=2, VARIABLES=18, UNSYMM
 3
*User Element, nodes=4, type=U2, properties=7, coordinates=2, VARIABLES=18, UNSYMM
 1, 2
** Part Nodes
*Node
       1,  -5.0000000000e-01,  -5.0000000000e-01
       2,  -4.7602941180e-01,  -5.0000000000e-01
       3,  -4.5205882360e-01,  -5.0000000000e-01
       4,  -4.2808823540e-01,  -5.0000000000e-01
       5,  -4.0411764720e-01,  -5.0000000000e-01
       6,  -3.8014705900e-01,  -5.0000000000e-01
       7,  -3.5617647080e-01,  -5.0000000000e-01
       8,  -3.3220588260e-01,  -5.0000000000e-01
       9,  -3.0823529440e-01,  -5.0000000000e-01
      10,  -2.8426470620e-01,  -5.0000000000e-01
      11,  -2.6029411800e-01,  -5.0000000000e-01
      12,  -2.3632352980e-01,  -5.0000000000e-01
      13,  -2.1235294160e-01,  -5.0000000000e-01
      14,  -1.8838235340e-01,  -5.0000000000e-01
      15,  -1.6441176520e-01,  -5.0000000000e-01
      16,  -1.4044117700e-01,  -5.0000000000e-01
      17,  -1.1647058880e-01,  -5.0000000000e-01
      18,  -9.2500000600e-02,  -5.0000000000e-01
      19,  -6.7500000600e-02,  -5.0000000000e-01
      20,  -4.5000000600e-02,  -5.0000000000e-01
      21,  -3.0000000600e-02,  -5.0000000000e-01
      22,  -2.0000000600e-02,  -5.0000000000e-01
      23,  -1.0000000600e-02,  -5.0000000000e-01
      24,   0.0000000000e+00,  -5.0000000000e-01
      25,   1.0000000000e-02,  -5.0000000000e-01
      26,   2.0000000000e-02,  -5.0000000000e-01
      27,   3.0000000000e-02,  -5.0000000000e-01
      28,   4.5000000000e-02,  -5.0000000000e-01
      29,   6.7500000000e-02,  -5.0000000000e-01
      30,   9.2500000000e-02,  -5.0000000000e-01
      31,   1.1647058820e-01,  -5.0000000000e-01
      32,   1.4044117640e-01,  -5.0000000000e-01
      33,   1.6441176460e-01,  -5.0000000000e-01
      34,   1.8838235280e-01,  -5.0000000000e-01
      35,   2.1235294100e-01,  -5.0000000000e-01
      36,   2.3632352920e-01,  -5.0000000000e-01
      37,   2.6029411740e-01,  -5.0000000000e-01
      38,   2.8426470560e-01,  -5.0000000000e-01
      39,   3.0823529380e-01,  -5.0000000000e-01
      40,   3.3220588200e-01,  -5.0000000000e-01
      41,   3.5617647020e-01,  -5.0000000000e-01
      42,   3.8014705840e-01,  -5.0000000000e-01
      43,   4.0411764660e-01,  -5.0000000000e-01
      44,   4.2808823480e-01,  -5.0000000000e-01
      45,   4.5205882300e-01,  -5.0000000000e-01
      46,   4.7602941120e-01,  -5.0000000000e-01
      47,   5.0000000000e-01,  -5.0000000000e-01
      48,  -5.0000000000e-01,  -4.7602941180e-01
      49,  -4.7602941180e-01,  -4.7602941180e-01
      50,  -4.5205882360e-01,  -4.7602941180e-01
      51,  -4.2808823540e-01,  -4.7602941180e-01
      52,  -4.0411764720e-01,  -4.7602941180e-01
      53,  -3.8014705900e-01,  -4.7602941180e-01
      54,  -3.5617647080e-01,  -4.7602941180e-01
      55,  -3.3220588260e-01,  -4.7602941180e-01
      56,  -3.0823529440e-01,  -4.7602941180e-01
      57,  -2.8426470620e-01,  -4.7602941180e-01
      58,  -2.6029411800e-01,  -4.7602941180e-01
      59,  -2.3632352980e-01,  -4.7602941180e-01
      60,  -2.1235294160e-01,  -4.7602941180e-01
      61,  -1.8838235340e-01,  -4.7602941180e-01
      62,  -1.6441176520e-01,  -4.7602941180e-01
      63,  -1.4044117700e-01,  -4.7602941180e-01
      64,  -1.1647058880e-01,  -4.7602941180e-01
      65,  -9.2500000600e-02,  -4.7602941180e-01
      66,  -6.7500000600e-02,  -4.7602941180e-01
      67,  -4.5000000600e-02,  -4.7602941180e-01
      68,  -3.0000000600e-02,  -4.7602941180e-01
      69,  -2.0000000600e-02,  -4.7602941180e-01
      70,  -1.0000000600e-02,  -4.7602941180e-01
      71,   0.0000000000e+00,  -4.7602941180e-01
      72,   1.0000000000e-02,  -4.7602941180e-01
      73,   2.0000000000e-02,  -4.7602941180e-01
      74,   3.0000000000e-02,  -4.7602941180e-01
      75,   4.5000000000e-02,  -4.7602941180e-01
      76,   6.7500000000e-02,  -4.7602941180e-01
      77,   9.2500000000e-02,  -4.7602941180e-01
      78,   1.1647058820e-01,  -4.7602941180e-01
      79,   1.4044117640e-01,  -4.7602941180e-01
      80,   1.6441176460e-01,  -4.7602941180e-01
      81,   1.8838235280e-01,  -4.7602941180e-01
      82,   2.1235294100e-01,  -4.7602941180e-01
      83,   2.3632352920e-01,  -4.7602941180e-01
      84,   2.6029411740e-01,  -4.7602941180e-01
      85,   2.8426470560e-01,  -4.7602941180e-01
      86,   3.0823529380e-01,  -4.7602941180e-01
      87,   3.3220588200e-01,  -4.7602941180e-01
      88,   3.5617647020e-01,  -4.7602941180e-01
      89,   3.8014705840e-01,  -4.7602941180e-01
      90,   4.0411764660e-01,  -4.7602941180e-01
      91,   4.2808823480e-01,  -4.7602941180e-01
      92,   4.5205882300e-01,  -4.7602941180e-01
      93,   4.7602941120e-01,  -4.7602941180e-01
      94,   5.0000000000e-01,  -4.7602941180e-01
      95,  -5.0000000000e-01,  -4.5205882360e-01
      96,  -4.7602941180e-01,  -4.5205882360e-01
      97,  -4.5205882360e-01,  -4.5205882360e-01
      98,  -4.2808823540e-01,  -4.5205882360e-01
      99,  -4.0411764720e-01,  -4.5205882360e-01
     100,  -3.8014705900e-01,  -4.5205882360e-01
     101,  -3.5617647080e-01,  -4.5205882360e-01
     102,  -3.3220588260e-01,  -4.5205882360e-01
     103,  -3.0823529440e-01,  -4.5205882360e-01
     104,  -2.8426470620e-01,  -4.5205882360e-01
     105,  -2.6029411800e-01,  -4.5205882360e-01
     106,  -2.3632352980e-01,  -4.5205882360e-01
     107,  -2.1235294160e-01,  -4.5205882360e-01
     108,  -1.8838235340e-01,  -4.5205882360e-01
     109,  -1.6441176520e-01,  -4.5205882360e-01
     110,  -1.4044117700e-01,  -4.5205882360e-01
     111,  -1.1647058880e-01,  -4.5205882360e-01
     112,  -9.2500000600e-02,  -4.5205882360e-01
     113,  -6.7500000600e-02,  -4.5205882360e-01
     114,  -4.5000000600e-02,  -4.5205882360e-01
     115,  -3.0000000600e-02,  -4.5205882360e-01
     116,  -2.0000000600e-02,  -4.5205882360e-01
     117,  -1.0000000600e-02,  -4.5205882360e-01
     118,   0.0000000000e+00,  -4.5205882360e-01
     119,   1.0000000000e-02,  -4.5205882360e-01
     120,   2.0000000000e-02,  -4.5205882360e-01
     121,   3.0000000000e-02,  -4.5205882360e-01
     122,   4.5000000000e-02,  -4.5205882360e-01
     123,   6.7500000000e-02,  -4.5205882360e-01
     124,   9.2500000000e-02,  -4.5205882360e-01
     125,   1.1647058820e-01,  -4.5205882360e-01
     126,   1.4044117640e-01,  -4.5205882360e-01
     127,   1.6441176460e-01,  -4.5205882360e-01
     128,   1.8838235280e-01,  -4.5205882360e-01
     129,   2.1235294100e-01,  -4.5205882360e-01
     130,   2.3632352920e-01,  -4.5205882360e-01
     131,   2.6029411740e-01,  -4.5205882360e-01
     132,   2.8426470560e-01,  -4.5205882360e-01
     133,   3.0823529380e-01,  -4.5205882360e-01
     134,   3.3220588200e-01,  -4.5205882360e-01
     135,   3.5617647020e-01,  -4.5205882360e-01
     136,   3.8014705840e-01,  -4.5205882360e-01
     137,   4.0411764660e-01,  -4.5205882360e-01
     138,   4.2808823480e-01,  -4.5205882360e-01
     139,   4.5205882300e-01,  -4.5205882360e-01
     140,   4.7602941120e-01,  -4.5205882360e-01
     141,   5.0000000000e-01,  -4.5205882360e-01
     142,  -5.0000000000e-01,  -4.2808823540e-01
     143,  -4.7602941180e-01,  -4.2808823540e-01
     144,  -4.5205882360e-01,  -4.2808823540e-01
     145,  -4.2808823540e-01,  -4.2808823540e-01
     146,  -4.0411764720e-01,  -4.2808823540e-01
     147,  -3.8014705900e-01,  -4.2808823540e-01
     148,  -3.5617647080e-01,  -4.2808823540e-01
     149,  -3.3220588260e-01,  -4.2808823540e-01
     150,  -3.0823529440e-01,  -4.2808823540e-01
     151,  -2.8426470620e-01,  -4.2808823540e-01
     152,  -2.6029411800e-01,  -4.2808823540e-01
     153,  -2.3632352980e-01,  -4.2808823540e-01
     154,  -2.1235294160e-01,  -4.2808823540e-01
     155,  -1.8838235340e-01,  -4.2808823540e-01
     156,  -1.6441176520e-01,  -4.2808823540e-01
     157,  -1.4044117700e-01,  -4.2808823540e-01
     158,  -1.1647058880e-01,  -4.2808823540e-01
     159,  -9.2500000600e-02,  -4.2808823540e-01
     160,  -6.7500000600e-02,  -4.2808823540e-01
     161,  -4.5000000600e-02,  -4.2808823540e-01
     162,  -3.0000000600e-02,  -4.2808823540e-01
     163,  -2.0000000600e-02,  -4.2808823540e-01
     164,  -1.0000000600e-02,  -4.2808823540e-01
     165,   0.0000000000e+00,  -4.2808823540e-01
     166,   1.0000000000e-02,  -4.2808823540e-01
     167,   2.0000000000e-02,  -4.2808823540e-01
     168,   3.0000000000e-02,  -4.2808823540e-01
     169,   4.5000000000e-02,  -4.2808823540e-01
     170,   6.7500000000e-02,  -4.2808823540e-01
     171,   9.2500000000e-02,  -4.2808823540e-01
     172,   1.1647058820e-01,  -4.2808823540e-01
     173,   1.4044117640e-01,  -4.2808823540e-01
     174,   1.6441176460e-01,  -4.2808823540e-01
     175,   1.8838235280e-01,  -4.2808823540e-01
     176,   2.1235294100e-01,  -4.2808823540e-01
     177,   2.3632352920e-01,  -4.2808823540e-01
     178,   2.6029411740e-01,  -4.2808823540e-01
     179,   2.8426470560e-01,  -4.2808823540e-01
     180,   3.0823529380e-01,  -4.2808823540e-01
     181,   3.3220588200e-01,  -4.2808823540e-01
     182,   3.5617647020e-01,  -4.2808823540e-01
     183,   3.8014705840e-01,  -4.2808823540e-01
     184,   4.0411764660e-01,  -4.2808823540e-01
     185,   4.2808823480e-01,  -4.2808823540e-01
     186,   4.5205882300e-01,  -4.2808823540e-01
     187,   4.7602941120e-01,  -4.2808823540e-01
     188,   5.0000000000e-01,  -4.2808823540e-01
     189,  -5.0000000000e-01,  -4.0411764720e-01
     190,  -4.7602941180e-01,  -4.0411764720e-01
     191,  -4.5205882360e-01,  -4.0411764720e-01
     192,  -4.2808823540e-01,  -4.0411764720e-01
     193,  -4.0411764720e-01,  -4.0411764720e-01
     194,  -3.8014705900e-01,  -4.0411764720e-01
     195,  -3.5617647080e-01,  -4.0411764720e-01
     196,  -3.3220588260e-01,  -4.0411764720e-01
     197,  -3.0823529440e-01,  -4.0411764720e-01
     198,  -2.8426470620e-01,  -4.0411764720e-01
     199,  -2.6029411800e-01,  -4.0411764720e-01
     200,  -2.3632352980e-01,  -4.0411764720e-01
     201,  -2.1235294160e-01,  -4.0411764720e-01
     202,  -1.8838235340e-01,  -4.0411764720e-01
     203,  -1.6441176520e-01,  -4.0411764720e-01
     204,  -1.4044117700e-01,  -4.0411764720e-01
     205,  -1.1647058880e-01,  -4.0411764720e-01
     206,  -9.2500000600e-02,  -4.0411764720e-01
     207,  -6.7500000600e-02,  -4.0411764720e-01
     208,  -4.5000000600e-02,  -4.0411764720e-01
     209,  -3.0000000600e-02,  -4.0411764720e-01
     210,  -2.0000000600e-02,  -4.0411764720e-01
     211,  -1.0000000600e-02,  -4.0411764720e-01
     212,   0.0000000000e+00,  -4.0411764720e-01
     213,   1.0000000000e-02,  -4.0411764720e-01
     214,   2.0000000000e-02,  -4.0411764720e-01
     215,   3.0000000000e-02,  -4.0411764720e-01
     216,   4.5000000000e-02,  -4.0411764720e-01
     217,   6.7500000000e-02,  -4.0411764720e-01
     218,   9.2500000000e-02,  -4.0411764720e-01
     219,   1.1647058820e-01,  -4.0411764720e-01
     220,   1.4044117640e-01,  -4.0411764720e-01
     221,   1.6441176460e-01,  -4.0411764720e-01
     222,   1.8838235280e-01,  -4.0411764720e-01
     223,   2.1235294100e-01,  -4.0411764720e-01
     224,   2.3632352920e-01,  -4.0411764720e-01
     225,   2.6029411740e-01,  -4.0411764720e-01
     226,   2.8426470560e-01,  -4.0411764720e-01
     227,   3.0823529380e-01,  -4.0411764720e-01
     228,   3.3220588200e-01,  -4.0411764720e-01
     229,   3.5617647020e-01,  -4.0411764720e-01
     230,   3.8014705840e-01,  -4.0411764720e-01
     231,   4.0411764660e-01,  -4.0411764720e-01
     232,   4.2808823480e-01,  -4.0411764720e-01
     233,   4.5205882300e-01,  -4.0411764720e-01
     234,   4.7602941120e-01,  -4.0411764720e-01
     235,   5.0000000000e-01,  -4.0411764720e-01
     236,  -5.0000000000e-01,  -3.8014705900e-01
     237,  -4.7602941180e-01,  -3.8014705900e-01
     238,  -4.5205882360e-01,  -3.8014705900e-01
     239,  -4.2808823540e-01,  -3.8014705900e-01
     240,  -4.0411764720e-01,  -3.8014705900e-01
     241,  -3.8014705900e-01,  -3.8014705900e-01
     242,  -3.5617647080e-01,  -3.8014705900e-01
     243,  -3.3220588260e-01,  -3.8014705900e-01
     244,  -3.0823529440e-01,  -3.8014705900e-01
     245,  -2.8426470620e-01,  -3.8014705900e-01
     246,  -2.6029411800e-01,  -3.8014705900e-01
     247,  -2.3632352980e-01,  -3.8014705900e-01
     248,  -2.1235294160e-01,  -3.8014705900e-01
     249,  -1.8838235340e-01,  -3.8014705900e-01
     250,  -1.6441176520e-01,  -3.8014705900e-01
     251,  -1.4044117700e-01,  -3.8014705900e-01
     252,  -1.1647058880e-01,  -3.8014705900e-01
     253,  -9.2500000600e-02,  -3.8014705900e-01
     254,  -6.7500000600e-02,  -3.8014705900e-01
     255,  -4.5000000600e-02,  -3.8014705900e-01
     256,  -3.0000000600e-02,  -3.8014705900e-01
     257,  -2.0000000600e-02,  -3.8014705900e-01
     258,  -1.0000000600e-02,  -3.8014705900e-01
     259,   0.0000000000e+00,  -3.8014705900e-01
     260,   1.0000000000e-02,  -3.8014705900e-01
     261,   2.0000000000e-02,  -3.8014705900e-01
     262,   3.0000000000e-02,  -3.8014705900e-01
     263,   4.5000000000e-02,  -3.8014705900e-01
     264,   6.7500000000e-02,  -3.8014705900e-01
     265,   9.2500000000e-02,  -3.8014705900e-01
     266,   1.1647058820e-01,  -3.8014705900e-01
     267,   1.4044117640e-01,  -3.8014705900e-01
     268,   1.6441176460e-01,  -3.8014705900e-01
     269,   1.8838235280e-01,  -3.8014705900e-01
     270,   2.1235294100e-01,  -3.8014705900e-01
     271,   2.3632352920e-01,  -3.8014705900e-01
     272,   2.6029411740e-01,  -3.8014705900e-01
     273,   2.8426470560e-01,  -3.8014705900e-01
     274,   3.0823529380e-01,  -3.8014705900e-01
     275,   3.3220588200e-01,  -3.8014705900e-01
     276,   3.5617647020e-01,  -3.8014705900e-01
     277,   3.8014705840e-01,  -3.8014705900e-01
     278,   4.0411764660e-01,  -3.8014705900e-01
     279,   4.2808823480e-01,  -3.8014705900e-01
     280,   4.5205882300e-01,  -3.8014705900e-01
     281,   4.7602941120e-01,  -3.8014705900e-01
     282,   5.0000000000e-01,  -3.8014705900e-01
     283,  -5.0000000000e-01,  -3.5617647080e-01
     284,  -4.7602941180e-01,  -3.5617647080e-01
     285,  -4.5205882360e-01,  -3.5617647080e-01
     286,  -4.2808823540e-01,  -3.5617647080e-01
     287,  -4.0411764720e-01,  -3.5617647080e-01
     288,  -3.8014705900e-01,  -3.5617647080e-01
     289,  -3.5617647080e-01,  -3.5617647080e-01
     290,  -3.3220588260e-01,  -3.5617647080e-01
     291,  -3.0823529440e-01,  -3.5617647080e-01
     292,  -2.8426470620e-01,  -3.5617647080e-01
     293,  -2.6029411800e-01,  -3.5617647080e-01
     294,  -2.3632352980e-01,  -3.5617647080e-01
     295,  -2.1235294160e-01,  -3.5617647080e-01
     296,  -1.8838235340e-01,  -3.5617647080e-01
     297,  -1.6441176520e-01,  -3.5617647080e-01
     298,  -1.4044117700e-01,  -3.5617647080e-01
     299,  -1.1647058880e-01,  -3.5617647080e-01
     300,  -9.2500000600e-02,  -3.5617647080e-01
     301,  -6.7500000600e-02,  -3.5617647080e-01
     302,  -4.5000000600e-02,  -3.5617647080e-01
     303,  -3.0000000600e-02,  -3.5617647080e-01
     304,  -2.0000000600e-02,  -3.5617647080e-01
     305,  -1.0000000600e-02,  -3.5617647080e-01
     306,   0.0000000000e+00,  -3.5617647080e-01
     307,   1.0000000000e-02,  -3.5617647080e-01
     308,   2.0000000000e-02,  -3.5617647080e-01
     309,   3.0000000000e-02,  -3.5617647080e-01
     310,   4.5000000000e-02,  -3.5617647080e-01
     311,   6.7500000000e-02,  -3.5617647080e-01
     312,   9.2500000000e-02,  -3.5617647080e-01
     313,   1.1647058820e-01,  -3.5617647080e-01
     314,   1.4044117640e-01,  -3.5617647080e-01
     315,   1.6441176460e-01,  -3.5617647080e-01
     316,   1.8838235280e-01,  -3.5617647080e-01
     317,   2.1235294100e-01,  -3.5617647080e-01
     318,   2.3632352920e-01,  -3.5617647080e-01
     319,   2.6029411740e-01,  -3.5617647080e-01
     320,   2.8426470560e-01,  -3.5617647080e-01
     321,   3.0823529380e-01,  -3.5617647080e-01
     322,   3.3220588200e-01,  -3.5617647080e-01
     323,   3.5617647020e-01,  -3.5617647080e-01
     324,   3.8014705840e-01,  -3.5617647080e-01
     325,   4.0411764660e-01,  -3.5617647080e-01
     326,   4.2808823480e-01,  -3.5617647080e-01
     327,   4.5205882300e-01,  -3.5617647080e-01
     328,   4.7602941120e-01,  -3.5617647080e-01
     329,   5.0000000000e-01,  -3.5617647080e-01
     330,  -5.0000000000e-01,  -3.3220588260e-01
     331,  -4.7602941180e-01,  -3.3220588260e-01
     332,  -4.5205882360e-01,  -3.3220588260e-01
     333,  -4.2808823540e-01,  -3.3220588260e-01
     334,  -4.0411764720e-01,  -3.3220588260e-01
     335,  -3.8014705900e-01,  -3.3220588260e-01
     336,  -3.5617647080e-01,  -3.3220588260e-01
     337,  -3.3220588260e-01,  -3.3220588260e-01
     338,  -3.0823529440e-01,  -3.3220588260e-01
     339,  -2.8426470620e-01,  -3.3220588260e-01
     340,  -2.6029411800e-01,  -3.3220588260e-01
     341,  -2.3632352980e-01,  -3.3220588260e-01
     342,  -2.1235294160e-01,  -3.3220588260e-01
     343,  -1.8838235340e-01,  -3.3220588260e-01
     344,  -1.6441176520e-01,  -3.3220588260e-01
     345,  -1.4044117700e-01,  -3.3220588260e-01
     346,  -1.1647058880e-01,  -3.3220588260e-01
     347,  -9.2500000600e-02,  -3.3220588260e-01
     348,  -6.7500000600e-02,  -3.3220588260e-01
     349,  -4.5000000600e-02,  -3.3220588260e-01
     350,  -3.0000000600e-02,  -3.3220588260e-01
     351,  -2.0000000600e-02,  -3.3220588260e-01
     352,  -1.0000000600e-02,  -3.3220588260e-01
     353,   0.0000000000e+00,  -3.3220588260e-01
     354,   1.0000000000e-02,  -3.3220588260e-01
     355,   2.0000000000e-02,  -3.3220588260e-01
     356,   3.0000000000e-02,  -3.3220588260e-01
     357,   4.5000000000e-02,  -3.3220588260e-01
     358,   6.7500000000e-02,  -3.3220588260e-01
     359,   9.2500000000e-02,  -3.3220588260e-01
     360,   1.1647058820e-01,  -3.3220588260e-01
     361,   1.4044117640e-01,  -3.3220588260e-01
     362,   1.6441176460e-01,  -3.3220588260e-01
     363,   1.8838235280e-01,  -3.3220588260e-01
     364,   2.1235294100e-01,  -3.3220588260e-01
     365,   2.3632352920e-01,  -3.3220588260e-01
     366,   2.6029411740e-01,  -3.3220588260e-01
     367,   2.8426470560e-01,  -3.3220588260e-01
     368,   3.0823529380e-01,  -3.3220588260e-01
     369,   3.3220588200e-01,  -3.3220588260e-01
     370,   3.5617647020e-01,  -3.3220588260e-01
     371,   3.8014705840e-01,  -3.3220588260e-01
     372,   4.0411764660e-01,  -3.3220588260e-01
     373,   4.2808823480e-01,  -3.3220588260e-01
     374,   4.5205882300e-01,  -3.3220588260e-01
     375,   4.7602941120e-01,  -3.3220588260e-01
     376,   5.0000000000e-01,  -3.3220588260e-01
     377,  -5.0000000000e-01,  -3.0823529440e-01
     378,  -4.7602941180e-01,  -3.0823529440e-01
     379,  -4.5205882360e-01,  -3.0823529440e-01
     380,  -4.2808823540e-01,  -3.0823529440e-01
     381,  -4.0411764720e-01,  -3.0823529440e-01
     382,  -3.8014705900e-01,  -3.0823529440e-01
     383,  -3.5617647080e-01,  -3.0823529440e-01
     384,  -3.3220588260e-01,  -3.0823529440e-01
     385,  -3.0823529440e-01,  -3.0823529440e-01
     386,  -2.8426470620e-01,  -3.0823529440e-01
     387,  -2.6029411800e-01,  -3.0823529440e-01
     388,  -2.3632352980e-01,  -3.0823529440e-01
     389,  -2.1235294160e-01,  -3.0823529440e-01
     390,  -1.8838235340e-01,  -3.0823529440e-01
     391,  -1.6441176520e-01,  -3.0823529440e-01
     392,  -1.4044117700e-01,  -3.0823529440e-01
     393,  -1.1647058880e-01,  -3.0823529440e-01
     394,  -9.2500000600e-02,  -3.0823529440e-01
     395,  -6.7500000600e-02,  -3.0823529440e-01
     396,  -4.5000000600e-02,  -3.0823529440e-01
     397,  -3.0000000600e-02,  -3.0823529440e-01
     398,  -2.0000000600e-02,  -3.0823529440e-01
     399,  -1.0000000600e-02,  -3.0823529440e-01
     400,   0.0000000000e+00,  -3.0823529440e-01
     401,   1.0000000000e-02,  -3.0823529440e-01
     402,   2.0000000000e-02,  -3.0823529440e-01
     403,   3.0000000000e-02,  -3.0823529440e-01
     404,   4.5000000000e-02,  -3.0823529440e-01
     405,   6.7500000000e-02,  -3.0823529440e-01
     406,   9.2500000000e-02,  -3.0823529440e-01
     407,   1.1647058820e-01,  -3.0823529440e-01
     408,   1.4044117640e-01,  -3.0823529440e-01
     409,   1.6441176460e-01,  -3.0823529440e-01
     410,   1.8838235280e-01,  -3.0823529440e-01
     411,   2.1235294100e-01,  -3.0823529440e-01
     412,   2.3632352920e-01,  -3.0823529440e-01
     413,   2.6029411740e-01,  -3.0823529440e-01
     414,   2.8426470560e-01,  -3.0823529440e-01
     415,   3.0823529380e-01,  -3.0823529440e-01
     416,   3.3220588200e-01,  -3.0823529440e-01
     417,   3.5617647020e-01,  -3.0823529440e-01
     418,   3.8014705840e-01,  -3.0823529440e-01
     419,   4.0411764660e-01,  -3.0823529440e-01
     420,   4.2808823480e-01,  -3.0823529440e-01
     421,   4.5205882300e-01,  -3.0823529440e-01
     422,   4.7602941120e-01,  -3.0823529440e-01
     423,   5.0000000000e-01,  -3.0823529440e-01
     424,  -5.0000000000e-01,  -2.8426470620e-01
     425,  -4.7602941180e-01,  -2.8426470620e-01
     426,  -4.5205882360e-01,  -2.8426470620e-01
     427,  -4.2808823540e-01,  -2.8426470620e-01
     428,  -4.0411764720e-01,  -2.8426470620e-01
     429,  -3.8014705900e-01,  -2.8426470620e-01
     430,  -3.5617647080e-01,  -2.8426470620e-01
     431,  -3.3220588260e-01,  -2.8426470620e-01
     432,  -3.0823529440e-01,  -2.8426470620e-01
     433,  -2.8426470620e-01,  -2.8426470620e-01
     434,  -2.6029411800e-01,  -2.8426470620e-01
     435,  -2.3632352980e-01,  -2.8426470620e-01
     436,  -2.1235294160e-01,  -2.8426470620e-01
     437,  -1.8838235340e-01,  -2.8426470620e-01
     438,  -1.6441176520e-01,  -2.8426470620e-01
     439,  -1.4044117700e-01,  -2.8426470620e-01
     440,  -1.1647058880e-01,  -2.8426470620e-01
     441,  -9.2500000600e-02,  -2.8426470620e-01
     442,  -6.7500000600e-02,  -2.8426470620e-01
     443,  -4.5000000600e-02,  -2.8426470620e-01
     444,  -3.0000000600e-02,  -2.8426470620e-01
     445,  -2.0000000600e-02,  -2.8426470620e-01
     446,  -1.0000000600e-02,  -2.8426470620e-01
     447,   0.0000000000e+00,  -2.8426470620e-01
     448,   1.0000000000e-02,  -2.8426470620e-01
     449,   2.0000000000e-02,  -2.8426470620e-01
     450,   3.0000000000e-02,  -2.8426470620e-01
     451,   4.5000000000e-02,  -2.8426470620e-01
     452,   6.7500000000e-02,  -2.8426470620e-01
     453,   9.2500000000e-02,  -2.8426470620e-01
     454,   1.1647058820e-01,  -2.8426470620e-01
     455,   1.4044117640e-01,  -2.8426470620e-01
     456,   1.6441176460e-01,  -2.8426470620e-01
     457,   1.8838235280e-01,  -2.8426470620e-01
     458,   2.1235294100e-01,  -2.8426470620e-01
     459,   2.3632352920e-01,  -2.8426470620e-01
     460,   2.6029411740e-01,  -2.8426470620e-01
     461,   2.8426470560e-01,  -2.8426470620e-01
     462,   3.0823529380e-01,  -2.8426470620e-01
     463,   3.3220588200e-01,  -2.8426470620e-01
     464,   3.5617647020e-01,  -2.8426470620e-01
     465,   3.8014705840e-01,  -2.8426470620e-01
     466,   4.0411764660e-01,  -2.8426470620e-01
     467,   4.2808823480e-01,  -2.8426470620e-01
     468,   4.5205882300e-01,  -2.8426470620e-01
     469,   4.7602941120e-01,  -2.8426470620e-01
     470,   5.0000000000e-01,  -2.8426470620e-01
     471,  -5.0000000000e-01,  -2.6029411800e-01
     472,  -4.7602941180e-01,  -2.6029411800e-01
     473,  -4.5205882360e-01,  -2.6029411800e-01
     474,  -4.2808823540e-01,  -2.6029411800e-01
     475,  -4.0411764720e-01,  -2.6029411800e-01
     476,  -3.8014705900e-01,  -2.6029411800e-01
     477,  -3.5617647080e-01,  -2.6029411800e-01
     478,  -3.3220588260e-01,  -2.6029411800e-01
     479,  -3.0823529440e-01,  -2.6029411800e-01
     480,  -2.8426470620e-01,  -2.6029411800e-01
     481,  -2.6029411800e-01,  -2.6029411800e-01
     482,  -2.3632352980e-01,  -2.6029411800e-01
     483,  -2.1235294160e-01,  -2.6029411800e-01
     484,  -1.8838235340e-01,  -2.6029411800e-01
     485,  -1.6441176520e-01,  -2.6029411800e-01
     486,  -1.4044117700e-01,  -2.6029411800e-01
     487,  -1.1647058880e-01,  -2.6029411800e-01
     488,  -9.2500000600e-02,  -2.6029411800e-01
     489,  -6.7500000600e-02,  -2.6029411800e-01
     490,  -4.5000000600e-02,  -2.6029411800e-01
     491,  -3.0000000600e-02,  -2.6029411800e-01
     492,  -2.0000000600e-02,  -2.6029411800e-01
     493,  -1.0000000600e-02,  -2.6029411800e-01
     494,   0.0000000000e+00,  -2.6029411800e-01
     495,   1.0000000000e-02,  -2.6029411800e-01
     496,   2.0000000000e-02,  -2.6029411800e-01
     497,   3.0000000000e-02,  -2.6029411800e-01
     498,   4.5000000000e-02,  -2.6029411800e-01
     499,   6.7500000000e-02,  -2.6029411800e-01
     500,   9.2500000000e-02,  -2.6029411800e-01
     501,   1.1647058820e-01,  -2.6029411800e-01
     502,   1.4044117640e-01,  -2.6029411800e-01
     503,   1.6441176460e-01,  -2.6029411800e-01
     504,   1.8838235280e-01,  -2.6029411800e-01
     505,   2.1235294100e-01,  -2.6029411800e-01
     506,   2.3632352920e-01,  -2.6029411800e-01
     507,   2.6029411740e-01,  -2.6029411800e-01
     508,   2.8426470560e-01,  -2.6029411800e-01
     509,   3.0823529380e-01,  -2.6029411800e-01
     510,   3.3220588200e-01,  -2.6029411800e-01
     511,   3.5617647020e-01,  -2.6029411800e-01
     512,   3.8014705840e-01,  -2.6029411800e-01
     513,   4.0411764660e-01,  -2.6029411800e-01
     514,   4.2808823480e-01,  -2.6029411800e-01
     515,   4.5205882300e-01,  -2.6029411800e-01
     516,   4.7602941120e-01,  -2.6029411800e-01
     517,   5.0000000000e-01,  -2.6029411800e-01
     518,  -5.0000000000e-01,  -2.3632352980e-01
     519,  -4.7602941180e-01,  -2.3632352980e-01
     520,  -4.5205882360e-01,  -2.3632352980e-01
     521,  -4.2808823540e-01,  -2.3632352980e-01
     522,  -4.0411764720e-01,  -2.3632352980e-01
     523,  -3.8014705900e-01,  -2.3632352980e-01
     524,  -3.5617647080e-01,  -2.3632352980e-01
     525,  -3.3220588260e-01,  -2.3632352980e-01
     526,  -3.0823529440e-01,  -2.3632352980e-01
     527,  -2.8426470620e-01,  -2.3632352980e-01
     528,  -2.6029411800e-01,  -2.3632352980e-01
     529,  -2.3632352980e-01,  -2.3632352980e-01
     530,  -2.1235294160e-01,  -2.3632352980e-01
     531,  -1.8838235340e-01,  -2.3632352980e-01
     532,  -1.6441176520e-01,  -2.3632352980e-01
     533,  -1.4044117700e-01,  -2.3632352980e-01
     534,  -1.1647058880e-01,  -2.3632352980e-01
     535,  -9.2500000600e-02,  -2.3632352980e-01
     536,  -6.7500000600e-02,  -2.3632352980e-01
     537,  -4.5000000600e-02,  -2.3632352980e-01
     538,  -3.0000000600e-02,  -2.3632352980e-01
     539,  -2.0000000600e-02,  -2.3632352980e-01
     540,  -1.0000000600e-02,  -2.3632352980e-01
     541,   0.0000000000e+00,  -2.3632352980e-01
     542,   1.0000000000e-02,  -2.3632352980e-01
     543,   2.0000000000e-02,  -2.3632352980e-01
     544,   3.0000000000e-02,  -2.3632352980e-01
     545,   4.5000000000e-02,  -2.3632352980e-01
     546,   6.7500000000e-02,  -2.3632352980e-01
     547,   9.2500000000e-02,  -2.3632352980e-01
     548,   1.1647058820e-01,  -2.3632352980e-01
     549,   1.4044117640e-01,  -2.3632352980e-01
     550,   1.6441176460e-01,  -2.3632352980e-01
     551,   1.8838235280e-01,  -2.3632352980e-01
     552,   2.1235294100e-01,  -2.3632352980e-01
     553,   2.3632352920e-01,  -2.3632352980e-01
     554,   2.6029411740e-01,  -2.3632352980e-01
     555,   2.8426470560e-01,  -2.3632352980e-01
     556,   3.0823529380e-01,  -2.3632352980e-01
     557,   3.3220588200e-01,  -2.3632352980e-01
     558,   3.5617647020e-01,  -2.3632352980e-01
     559,   3.8014705840e-01,  -2.3632352980e-01
     560,   4.0411764660e-01,  -2.3632352980e-01
     561,   4.2808823480e-01,  -2.3632352980e-01
     562,   4.5205882300e-01,  -2.3632352980e-01
     563,   4.7602941120e-01,  -2.3632352980e-01
     564,   5.0000000000e-01,  -2.3632352980e-01
     565,  -5.0000000000e-01,  -2.1235294160e-01
     566,  -4.7602941180e-01,  -2.1235294160e-01
     567,  -4.5205882360e-01,  -2.1235294160e-01
     568,  -4.2808823540e-01,  -2.1235294160e-01
     569,  -4.0411764720e-01,  -2.1235294160e-01
     570,  -3.8014705900e-01,  -2.1235294160e-01
     571,  -3.5617647080e-01,  -2.1235294160e-01
     572,  -3.3220588260e-01,  -2.1235294160e-01
     573,  -3.0823529440e-01,  -2.1235294160e-01
     574,  -2.8426470620e-01,  -2.1235294160e-01
     575,  -2.6029411800e-01,  -2.1235294160e-01
     576,  -2.3632352980e-01,  -2.1235294160e-01
     577,  -2.1235294160e-01,  -2.1235294160e-01
     578,  -1.8838235340e-01,  -2.1235294160e-01
     579,  -1.6441176520e-01,  -2.1235294160e-01
     580,  -1.4044117700e-01,  -2.1235294160e-01
     581,  -1.1647058880e-01,  -2.1235294160e-01
     582,  -9.2500000600e-02,  -2.1235294160e-01
     583,  -6.7500000600e-02,  -2.1235294160e-01
     584,  -4.5000000600e-02,  -2.1235294160e-01
     585,  -3.0000000600e-02,  -2.1235294160e-01
     586,  -2.0000000600e-02,  -2.1235294160e-01
     587,  -1.0000000600e-02,  -2.1235294160e-01
     588,   0.0000000000e+00,  -2.1235294160e-01
     589,   1.0000000000e-02,  -2.1235294160e-01
     590,   2.0000000000e-02,  -2.1235294160e-01
     591,   3.0000000000e-02,  -2.1235294160e-01
     592,   4.5000000000e-02,  -2.1235294160e-01
     593,   6.7500000000e-02,  -2.1235294160e-01
     594,   9.2500000000e-02,  -2.1235294160e-01
     595,   1.1647058820e-01,  -2.1235294160e-01
     596,   1.4044117640e-01,  -2.1235294160e-01
     597,   1.6441176460e-01,  -2.1235294160e-01
     598,   1.8838235280e-01,  -2.1235294160e-01
     599,   2.1235294100e-01,  -2.1235294160e-01
     600,   2.3632352920e-01,  -2.1235294160e-01
     601,   2.6029411740e-01,  -2.1235294160e-01
     602,   2.8426470560e-01,  -2.1235294160e-01
     603,   3.0823529380e-01,  -2.1235294160e-01
     604,   3.3220588200e-01,  -2.1235294160e-01
     605,   3.5617647020e-01,  -2.1235294160e-01
     606,   3.8014705840e-01,  -2.1235294160e-01
     607,   4.0411764660e-01,  -2.1235294160e-01
     608,   4.2808823480e-01,  -2.1235294160e-01
     609,   4.5205882300e-01,  -2.1235294160e-01
     610,   4.7602941120e-01,  -2.1235294160e-01
     611,   5.0000000000e-01,  -2.1235294160e-01
     612,  -5.0000000000e-01,  -1.8838235340e-01
     613,  -4.7602941180e-01,  -1.8838235340e-01
     614,  -4.5205882360e-01,  -1.8838235340e-01
     615,  -4.2808823540e-01,  -1.8838235340e-01
     616,  -4.0411764720e-01,  -1.8838235340e-01
     617,  -3.8014705900e-01,  -1.8838235340e-01
     618,  -3.5617647080e-01,  -1.8838235340e-01
     619,  -3.3220588260e-01,  -1.8838235340e-01
     620,  -3.0823529440e-01,  -1.8838235340e-01
     621,  -2.8426470620e-01,  -1.8838235340e-01
     622,  -2.6029411800e-01,  -1.8838235340e-01
     623,  -2.3632352980e-01,  -1.8838235340e-01
     624,  -2.1235294160e-01,  -1.8838235340e-01
     625,  -1.8838235340e-01,  -1.8838235340e-01
     626,  -1.6441176520e-01,  -1.8838235340e-01
     627,  -1.4044117700e-01,  -1.8838235340e-01
     628,  -1.1647058880e-01,  -1.8838235340e-01
     629,  -9.2500000600e-02,  -1.8838235340e-01
     630,  -6.7500000600e-02,  -1.8838235340e-01
     631,  -4.5000000600e-02,  -1.8838235340e-01
     632,  -3.0000000600e-02,  -1.8838235340e-01
     633,  -2.0000000600e-02,  -1.8838235340e-01
     634,  -1.0000000600e-02,  -1.8838235340e-01
     635,   0.0000000000e+00,  -1.8838235340e-01
     636,   1.0000000000e-02,  -1.8838235340e-01
     637,   2.0000000000e-02,  -1.8838235340e-01
     638,   3.0000000000e-02,  -1.8838235340e-01
     639,   4.5000000000e-02,  -1.8838235340e-01
     640,   6.7500000000e-02,  -1.8838235340e-01
     641,   9.2500000000e-02,  -1.8838235340e-01
     642,   1.1647058820e-01,  -1.8838235340e-01
     643,   1.4044117640e-01,  -1.8838235340e-01
     644,   1.6441176460e-01,  -1.8838235340e-01
     645,   1.8838235280e-01,  -1.8838235340e-01
     646,   2.1235294100e-01,  -1.8838235340e-01
     647,   2.3632352920e-01,  -1.8838235340e-01
     648,   2.6029411740e-01,  -1.8838235340e-01
     649,   2.8426470560e-01,  -1.8838235340e-01
     650,   3.0823529380e-01,  -1.8838235340e-01
     651,   3.3220588200e-01,  -1.8838235340e-01
     652,   3.5617647020e-01,  -1.8838235340e-01
     653,   3.8014705840e-01,  -1.8838235340e-01
     654,   4.0411764660e-01,  -1.8838235340e-01
     655,   4.2808823480e-01,  -1.8838235340e-01
     656,   4.5205882300e-01,  -1.8838235340e-01
     657,   4.7602941120e-01,  -1.8838235340e-01
     658,   5.0000000000e-01,  -1.8838235340e-01
     659,  -5.0000000000e-01,  -1.6441176520e-01
     660,  -4.7602941180e-01,  -1.6441176520e-01
     661,  -4.5205882360e-01,  -1.6441176520e-01
     662,  -4.2808823540e-01,  -1.6441176520e-01
     663,  -4.0411764720e-01,  -1.6441176520e-01
     664,  -3.8014705900e-01,  -1.6441176520e-01
     665,  -3.5617647080e-01,  -1.6441176520e-01
     666,  -3.3220588260e-01,  -1.6441176520e-01
     667,  -3.0823529440e-01,  -1.6441176520e-01
     668,  -2.8426470620e-01,  -1.6441176520e-01
     669,  -2.6029411800e-01,  -1.6441176520e-01
     670,  -2.3632352980e-01,  -1.6441176520e-01
     671,  -2.1235294160e-01,  -1.6441176520e-01
     672,  -1.8838235340e-01,  -1.6441176520e-01
     673,  -1.6441176520e-01,  -1.6441176520e-01
     674,  -1.4044117700e-01,  -1.6441176520e-01
     675,  -1.1647058880e-01,  -1.6441176520e-01
     676,  -9.2500000600e-02,  -1.6441176520e-01
     677,  -6.7500000600e-02,  -1.6441176520e-01
     678,  -4.5000000600e-02,  -1.6441176520e-01
     679,  -3.0000000600e-02,  -1.6441176520e-01
     680,  -2.0000000600e-02,  -1.6441176520e-01
     681,  -1.0000000600e-02,  -1.6441176520e-01
     682,   0.0000000000e+00,  -1.6441176520e-01
     683,   1.0000000000e-02,  -1.6441176520e-01
     684,   2.0000000000e-02,  -1.6441176520e-01
     685,   3.0000000000e-02,  -1.6441176520e-01
     686,   4.5000000000e-02,  -1.6441176520e-01
     687,   6.7500000000e-02,  -1.6441176520e-01
     688,   9.2500000000e-02,  -1.6441176520e-01
     689,   1.1647058820e-01,  -1.6441176520e-01
     690,   1.4044117640e-01,  -1.6441176520e-01
     691,   1.6441176460e-01,  -1.6441176520e-01
     692,   1.8838235280e-01,  -1.6441176520e-01
     693,   2.1235294100e-01,  -1.6441176520e-01
     694,   2.3632352920e-01,  -1.6441176520e-01
     695,   2.6029411740e-01,  -1.6441176520e-01
     696,   2.8426470560e-01,  -1.6441176520e-01
     697,   3.0823529380e-01,  -1.6441176520e-01
     698,   3.3220588200e-01,  -1.6441176520e-01
     699,   3.5617647020e-01,  -1.6441176520e-01
     700,   3.8014705840e-01,  -1.6441176520e-01
     701,   4.0411764660e-01,  -1.6441176520e-01
     702,   4.2808823480e-01,  -1.6441176520e-01
     703,   4.5205882300e-01,  -1.6441176520e-01
     704,   4.7602941120e-01,  -1.6441176520e-01
     705,   5.0000000000e-01,  -1.6441176520e-01
     706,  -5.0000000000e-01,  -1.4044117700e-01
     707,  -4.7602941180e-01,  -1.4044117700e-01
     708,  -4.5205882360e-01,  -1.4044117700e-01
     709,  -4.2808823540e-01,  -1.4044117700e-01
     710,  -4.0411764720e-01,  -1.4044117700e-01
     711,  -3.8014705900e-01,  -1.4044117700e-01
     712,  -3.5617647080e-01,  -1.4044117700e-01
     713,  -3.3220588260e-01,  -1.4044117700e-01
     714,  -3.0823529440e-01,  -1.4044117700e-01
     715,  -2.8426470620e-01,  -1.4044117700e-01
     716,  -2.6029411800e-01,  -1.4044117700e-01
     717,  -2.3632352980e-01,  -1.4044117700e-01
     718,  -2.1235294160e-01,  -1.4044117700e-01
     719,  -1.8838235340e-01,  -1.4044117700e-01
     720,  -1.6441176520e-01,  -1.4044117700e-01
     721,  -1.4044117700e-01,  -1.4044117700e-01
     722,  -1.1647058880e-01,  -1.4044117700e-01
     723,  -9.2500000600e-02,  -1.4044117700e-01
     724,  -6.7500000600e-02,  -1.4044117700e-01
     725,  -4.5000000600e-02,  -1.4044117700e-01
     726,  -3.0000000600e-02,  -1.4044117700e-01
     727,  -2.0000000600e-02,  -1.4044117700e-01
     728,  -1.0000000600e-02,  -1.4044117700e-01
     729,   0.0000000000e+00,  -1.4044117700e-01
     730,   1.0000000000e-02,  -1.4044117700e-01
     731,   2.0000000000e-02,  -1.4044117700e-01
     732,   3.0000000000e-02,  -1.4044117700e-01
     733,   4.5000000000e-02,  -1.4044117700e-01
     734,   6.7500000000e-02,  -1.4044117700e-01
     735,   9.2500000000e-02,  -1.4044117700e-01
     736,   1.1647058820e-01,  -1.4044117700e-01
     737,   1.4044117640e-01,  -1.4044117700e-01
     738,   1.6441176460e-01,  -1.4044117700e-01
     739,   1.8838235280e-01,  -1.4044117700e-01
     740,   2.1235294100e-01,  -1.4044117700e-01
     741,   2.3632352920e-01,  -1.4044117700e-01
     742,   2.6029411740e-01,  -1.4044117700e-01
     743,   2.8426470560e-01,  -1.4044117700e-01
     744,   3.0823529380e-01,  -1.4044117700e-01
     745,   3.3220588200e-01,  -1.4044117700e-01
     746,   3.5617647020e-01,  -1.4044117700e-01
     747,   3.8014705840e-01,  -1.4044117700e-01
     748,   4.0411764660e-01,  -1.4044117700e-01
     749,   4.2808823480e-01,  -1.4044117700e-01
     750,   4.5205882300e-01,  -1.4044117700e-01
     751,   4.7602941120e-01,  -1.4044117700e-01
     752,   5.0000000000e-01,  -1.4044117700e-01
     753,  -5.0000000000e-01,  -1.1647058880e-01
     754,  -4.7602941180e-01,  -1.1647058880e-01
     755,  -4.5205882360e-01,  -1.1647058880e-01
     756,  -4.2808823540e-01,  -1.1647058880e-01
     757,  -4.0411764720e-01,  -1.1647058880e-01
     758,  -3.8014705900e-01,  -1.1647058880e-01
     759,  -3.5617647080e-01,  -1.1647058880e-01
     760,  -3.3220588260e-01,  -1.1647058880e-01
     761,  -3.0823529440e-01,  -1.1647058880e-01
     762,  -2.8426470620e-01,  -1.1647058880e-01
     763,  -2.6029411800e-01,  -1.1647058880e-01
     764,  -2.3632352980e-01,  -1.1647058880e-01
     765,  -2.1235294160e-01,  -1.1647058880e-01
     766,  -1.8838235340e-01,  -1.1647058880e-01
     767,  -1.6441176520e-01,  -1.1647058880e-01
     768,  -1.4044117700e-01,  -1.1647058880e-01
     769,  -1.1647058880e-01,  -1.1647058880e-01
     770,  -9.2500000600e-02,  -1.1647058880e-01
     771,  -6.7500000600e-02,  -1.1647058880e-01
     772,  -4.5000000600e-02,  -1.1647058880e-01
     773,  -3.0000000600e-02,  -1.1647058880e-01
     774,  -2.0000000600e-02,  -1.1647058880e-01
     775,  -1.0000000600e-02,  -1.1647058880e-01
     776,   0.0000000000e+00,  -1.1647058880e-01
     777,   1.0000000000e-02,  -1.1647058880e-01
     778,   2.0000000000e-02,  -1.1647058880e-01
     779,   3.0000000000e-02,  -1.1647058880e-01
     780,   4.5000000000e-02,  -1.1647058880e-01
     781,   6.7500000000e-02,  -1.1647058880e-01
     782,   9.2500000000e-02,  -1.1647058880e-01
     783,   1.1647058820e-01,  -1.1647058880e-01
     784,   1.4044117640e-01,  -1.1647058880e-01
     785,   1.6441176460e-01,  -1.1647058880e-01
     786,   1.8838235280e-01,  -1.1647058880e-01
     787,   2.1235294100e-01,  -1.1647058880e-01
     788,   2.3632352920e-01,  -1.1647058880e-01
     789,   2.6029411740e-01,  -1.1647058880e-01
     790,   2.8426470560e-01,  -1.1647058880e-01
     791,   3.0823529380e-01,  -1.1647058880e-01
     792,   3.3220588200e-01,  -1.1647058880e-01
     793,   3.5617647020e-01,  -1.1647058880e-01
     794,   3.8014705840e-01,  -1.1647058880e-01
     795,   4.0411764660e-01,  -1.1647058880e-01
     796,   4.2808823480e-01,  -1.1647058880e-01
     797,   4.5205882300e-01,  -1.1647058880e-01
     798,   4.7602941120e-01,  -1.1647058880e-01
     799,   5.0000000000e-01,  -1.1647058880e-01
     800,  -5.0000000000e-01,  -9.2500000600e-02
     801,  -4.7602941180e-01,  -9.2500000600e-02
     802,  -4.5205882360e-01,  -9.2500000600e-02
     803,  -4.2808823540e-01,  -9.2500000600e-02
     804,  -4.0411764720e-01,  -9.2500000600e-02
     805,  -3.8014705900e-01,  -9.2500000600e-02
     806,  -3.5617647080e-01,  -9.2500000600e-02
     807,  -3.3220588260e-01,  -9.2500000600e-02
     808,  -3.0823529440e-01,  -9.2500000600e-02
     809,  -2.8426470620e-01,  -9.2500000600e-02
     810,  -2.6029411800e-01,  -9.2500000600e-02
     811,  -2.3632352980e-01,  -9.2500000600e-02
     812,  -2.1235294160e-01,  -9.2500000600e-02
     813,  -1.8838235340e-01,  -9.2500000600e-02
     814,  -1.6441176520e-01,  -9.2500000600e-02
     815,  -1.4044117700e-01,  -9.2500000600e-02
     816,  -1.1647058880e-01,  -9.2500000600e-02
     817,  -9.2500000600e-02,  -9.2500000600e-02
     818,  -6.7500000600e-02,  -9.2500000600e-02
     819,  -4.5000000600e-02,  -9.2500000600e-02
     820,  -3.0000000600e-02,  -9.2500000600e-02
     821,  -2.0000000600e-02,  -9.2500000600e-02
     822,  -1.0000000600e-02,  -9.2500000600e-02
     823,   0.0000000000e+00,  -9.2500000600e-02
     824,   1.0000000000e-02,  -9.2500000600e-02
     825,   2.0000000000e-02,  -9.2500000600e-02
     826,   3.0000000000e-02,  -9.2500000600e-02
     827,   4.5000000000e-02,  -9.2500000600e-02
     828,   6.7500000000e-02,  -9.2500000600e-02
     829,   9.2500000000e-02,  -9.2500000600e-02
     830,   1.1647058820e-01,  -9.2500000600e-02
     831,   1.4044117640e-01,  -9.2500000600e-02
     832,   1.6441176460e-01,  -9.2500000600e-02
     833,   1.8838235280e-01,  -9.2500000600e-02
     834,   2.1235294100e-01,  -9.2500000600e-02
     835,   2.3632352920e-01,  -9.2500000600e-02
     836,   2.6029411740e-01,  -9.2500000600e-02
     837,   2.8426470560e-01,  -9.2500000600e-02
     838,   3.0823529380e-01,  -9.2500000600e-02
     839,   3.3220588200e-01,  -9.2500000600e-02
     840,   3.5617647020e-01,  -9.2500000600e-02
     841,   3.8014705840e-01,  -9.2500000600e-02
     842,   4.0411764660e-01,  -9.2500000600e-02
     843,   4.2808823480e-01,  -9.2500000600e-02
     844,   4.5205882300e-01,  -9.2500000600e-02
     845,   4.7602941120e-01,  -9.2500000600e-02
     846,   5.0000000000e-01,  -9.2500000600e-02
     847,  -5.0000000000e-01,  -6.7500000600e-02
     848,  -4.7602941180e-01,  -6.7500000600e-02
     849,  -4.5205882360e-01,  -6.7500000600e-02
     850,  -4.2808823540e-01,  -6.7500000600e-02
     851,  -4.0411764720e-01,  -6.7500000600e-02
     852,  -3.8014705900e-01,  -6.7500000600e-02
     853,  -3.5617647080e-01,  -6.7500000600e-02
     854,  -3.3220588260e-01,  -6.7500000600e-02
     855,  -3.0823529440e-01,  -6.7500000600e-02
     856,  -2.8426470620e-01,  -6.7500000600e-02
     857,  -2.6029411800e-01,  -6.7500000600e-02
     858,  -2.3632352980e-01,  -6.7500000600e-02
     859,  -2.1235294160e-01,  -6.7500000600e-02
     860,  -1.8838235340e-01,  -6.7500000600e-02
     861,  -1.6441176520e-01,  -6.7500000600e-02
     862,  -1.4044117700e-01,  -6.7500000600e-02
     863,  -1.1647058880e-01,  -6.7500000600e-02
     864,  -9.2500000600e-02,  -6.7500000600e-02
     865,  -6.7500000600e-02,  -6.7500000600e-02
     866,  -4.5000000600e-02,  -6.7500000600e-02
     867,  -3.0000000600e-02,  -6.7500000600e-02
     868,  -2.0000000600e-02,  -6.7500000600e-02
     869,  -1.0000000600e-02,  -6.7500000600e-02
     870,   0.0000000000e+00,  -6.7500000600e-02
     871,   1.0000000000e-02,  -6.7500000600e-02
     872,   2.0000000000e-02,  -6.7500000600e-02
     873,   3.0000000000e-02,  -6.7500000600e-02
     874,   4.5000000000e-02,  -6.7500000600e-02
     875,   6.7500000000e-02,  -6.7500000600e-02
     876,   9.2500000000e-02,  -6.7500000600e-02
     877,   1.1647058820e-01,  -6.7500000600e-02
     878,   1.4044117640e-01,  -6.7500000600e-02
     879,   1.6441176460e-01,  -6.7500000600e-02
     880,   1.8838235280e-01,  -6.7500000600e-02
     881,   2.1235294100e-01,  -6.7500000600e-02
     882,   2.3632352920e-01,  -6.7500000600e-02
     883,   2.6029411740e-01,  -6.7500000600e-02
     884,   2.8426470560e-01,  -6.7500000600e-02
     885,   3.0823529380e-01,  -6.7500000600e-02
     886,   3.3220588200e-01,  -6.7500000600e-02
     887,   3.5617647020e-01,  -6.7500000600e-02
     888,   3.8014705840e-01,  -6.7500000600e-02
     889,   4.0411764660e-01,  -6.7500000600e-02
     890,   4.2808823480e-01,  -6.7500000600e-02
     891,   4.5205882300e-01,  -6.7500000600e-02
     892,   4.7602941120e-01,  -6.7500000600e-02
     893,   5.0000000000e-01,  -6.7500000600e-02
     894,  -5.0000000000e-01,  -4.5000000600e-02
     895,  -4.7602941180e-01,  -4.5000000600e-02
     896,  -4.5205882360e-01,  -4.5000000600e-02
     897,  -4.2808823540e-01,  -4.5000000600e-02
     898,  -4.0411764720e-01,  -4.5000000600e-02
     899,  -3.8014705900e-01,  -4.5000000600e-02
     900,  -3.5617647080e-01,  -4.5000000600e-02
     901,  -3.3220588260e-01,  -4.5000000600e-02
     902,  -3.0823529440e-01,  -4.5000000600e-02
     903,  -2.8426470620e-01,  -4.5000000600e-02
     904,  -2.6029411800e-01,  -4.5000000600e-02
     905,  -2.3632352980e-01,  -4.5000000600e-02
     906,  -2.1235294160e-01,  -4.5000000600e-02
     907,  -1.8838235340e-01,  -4.5000000600e-02
     908,  -1.6441176520e-01,  -4.5000000600e-02
     909,  -1.4044117700e-01,  -4.5000000600e-02
     910,  -1.1647058880e-01,  -4.5000000600e-02
     911,  -9.2500000600e-02,  -4.5000000600e-02
     912,  -6.7500000600e-02,  -4.5000000600e-02
     913,  -4.5000000600e-02,  -4.5000000600e-02
     914,  -3.0000000600e-02,  -4.5000000600e-02
     915,  -2.0000000600e-02,  -4.5000000600e-02
     916,  -1.0000000600e-02,  -4.5000000600e-02
     917,   0.0000000000e+00,  -4.5000000600e-02
     918,   1.0000000000e-02,  -4.5000000600e-02
     919,   2.0000000000e-02,  -4.5000000600e-02
     920,   3.0000000000e-02,  -4.5000000600e-02
     921,   4.5000000000e-02,  -4.5000000600e-02
     922,   6.7500000000e-02,  -4.5000000600e-02
     923,   9.2500000000e-02,  -4.5000000600e-02
     924,   1.1647058820e-01,  -4.5000000600e-02
     925,   1.4044117640e-01,  -4.5000000600e-02
     926,   1.6441176460e-01,  -4.5000000600e-02
     927,   1.8838235280e-01,  -4.5000000600e-02
     928,   2.1235294100e-01,  -4.5000000600e-02
     929,   2.3632352920e-01,  -4.5000000600e-02
     930,   2.6029411740e-01,  -4.5000000600e-02
     931,   2.8426470560e-01,  -4.5000000600e-02
     932,   3.0823529380e-01,  -4.5000000600e-02
     933,   3.3220588200e-01,  -4.5000000600e-02
     934,   3.5617647020e-01,  -4.5000000600e-02
     935,   3.8014705840e-01,  -4.5000000600e-02
     936,   4.0411764660e-01,  -4.5000000600e-02
     937,   4.2808823480e-01,  -4.5000000600e-02
     938,   4.5205882300e-01,  -4.5000000600e-02
     939,   4.7602941120e-01,  -4.5000000600e-02
     940,   5.0000000000e-01,  -4.5000000600e-02
     941,  -5.0000000000e-01,  -3.0000000600e-02
     942,  -4.7602941180e-01,  -3.0000000600e-02
     943,  -4.5205882360e-01,  -3.0000000600e-02
     944,  -4.2808823540e-01,  -3.0000000600e-02
     945,  -4.0411764720e-01,  -3.0000000600e-02
     946,  -3.8014705900e-01,  -3.0000000600e-02
     947,  -3.5617647080e-01,  -3.0000000600e-02
     948,  -3.3220588260e-01,  -3.0000000600e-02
     949,  -3.0823529440e-01,  -3.0000000600e-02
     950,  -2.8426470620e-01,  -3.0000000600e-02
     951,  -2.6029411800e-01,  -3.0000000600e-02
     952,  -2.3632352980e-01,  -3.0000000600e-02
     953,  -2.1235294160e-01,  -3.0000000600e-02
     954,  -1.8838235340e-01,  -3.0000000600e-02
     955,  -1.6441176520e-01,  -3.0000000600e-02
     956,  -1.4044117700e-01,  -3.0000000600e-02
     957,  -1.1647058880e-01,  -3.0000000600e-02
     958,  -9.2500000600e-02,  -3.0000000600e-02
     959,  -6.7500000600e-02,  -3.0000000600e-02
     960,  -4.5000000600e-02,  -3.0000000600e-02
     961,  -3.0000000600e-02,  -3.0000000600e-02
     962,  -2.0000000600e-02,  -3.0000000600e-02
     963,  -1.0000000600e-02,  -3.0000000600e-02
     964,   0.0000000000e+00,  -3.0000000600e-02
     965,   1.0000000000e-02,  -3.0000000600e-02
     966,   2.0000000000e-02,  -3.0000000600e-02
     967,   3.0000000000e-02,  -3.0000000600e-02
     968,   4.5000000000e-02,  -3.0000000600e-02
     969,   6.7500000000e-02,  -3.0000000600e-02
     970,   9.2500000000e-02,  -3.0000000600e-02
     971,   1.1647058820e-01,  -3.0000000600e-02
     972,   1.4044117640e-01,  -3.0000000600e-02
     973,   1.6441176460e-01,  -3.0000000600e-02
     974,   1.8838235280e-01,  -3.0000000600e-02
     975,   2.1235294100e-01,  -3.0000000600e-02
     976,   2.3632352920e-01,  -3.0000000600e-02
     977,   2.6029411740e-01,  -3.0000000600e-02
     978,   2.8426470560e-01,  -3.0000000600e-02
     979,   3.0823529380e-01,  -3.0000000600e-02
     980,   3.3220588200e-01,  -3.0000000600e-02
     981,   3.5617647020e-01,  -3.0000000600e-02
     982,   3.8014705840e-01,  -3.0000000600e-02
     983,   4.0411764660e-01,  -3.0000000600e-02
     984,   4.2808823480e-01,  -3.0000000600e-02
     985,   4.5205882300e-01,  -3.0000000600e-02
     986,   4.7602941120e-01,  -3.0000000600e-02
     987,   5.0000000000e-01,  -3.0000000600e-02
     988,  -5.0000000000e-01,  -2.0000000600e-02
     989,  -4.7602941180e-01,  -2.0000000600e-02
     990,  -4.5205882360e-01,  -2.0000000600e-02
     991,  -4.2808823540e-01,  -2.0000000600e-02
     992,  -4.0411764720e-01,  -2.0000000600e-02
     993,  -3.8014705900e-01,  -2.0000000600e-02
     994,  -3.5617647080e-01,  -2.0000000600e-02
     995,  -3.3220588260e-01,  -2.0000000600e-02
     996,  -3.0823529440e-01,  -2.0000000600e-02
     997,  -2.8426470620e-01,  -2.0000000600e-02
     998,  -2.6029411800e-01,  -2.0000000600e-02
     999,  -2.3632352980e-01,  -2.0000000600e-02
    1000,  -2.1235294160e-01,  -2.0000000600e-02
    1001,  -1.8838235340e-01,  -2.0000000600e-02
    1002,  -1.6441176520e-01,  -2.0000000600e-02
    1003,  -1.4044117700e-01,  -2.0000000600e-02
    1004,  -1.1647058880e-01,  -2.0000000600e-02
    1005,  -9.2500000600e-02,  -2.0000000600e-02
    1006,  -6.7500000600e-02,  -2.0000000600e-02
    1007,  -4.5000000600e-02,  -2.0000000600e-02
    1008,  -3.0000000600e-02,  -2.0000000600e-02
    1009,  -2.0000000600e-02,  -2.0000000600e-02
    1010,  -1.0000000600e-02,  -2.0000000600e-02
    1011,   0.0000000000e+00,  -2.0000000600e-02
    1012,   1.0000000000e-02,  -2.0000000600e-02
    1013,   2.0000000000e-02,  -2.0000000600e-02
    1014,   3.0000000000e-02,  -2.0000000600e-02
    1015,   4.5000000000e-02,  -2.0000000600e-02
    1016,   6.7500000000e-02,  -2.0000000600e-02
    1017,   9.2500000000e-02,  -2.0000000600e-02
    1018,   1.1647058820e-01,  -2.0000000600e-02
    1019,   1.4044117640e-01,  -2.0000000600e-02
    1020,   1.6441176460e-01,  -2.0000000600e-02
    1021,   1.8838235280e-01,  -2.0000000600e-02
    1022,   2.1235294100e-01,  -2.0000000600e-02
    1023,   2.3632352920e-01,  -2.0000000600e-02
    1024,   2.6029411740e-01,  -2.0000000600e-02
    1025,   2.8426470560e-01,  -2.0000000600e-02
    1026,   3.0823529380e-01,  -2.0000000600e-02
    1027,   3.3220588200e-01,  -2.0000000600e-02
    1028,   3.5617647020e-01,  -2.0000000600e-02
    1029,   3.8014705840e-01,  -2.0000000600e-02
    1030,   4.0411764660e-01,  -2.0000000600e-02
    1031,   4.2808823480e-01,  -2.0000000600e-02
    1032,   4.5205882300e-01,  -2.0000000600e-02
    1033,   4.7602941120e-01,  -2.0000000600e-02
    1034,   5.0000000000e-01,  -2.0000000600e-02
    1035,  -5.0000000000e-01,  -1.0000000600e-02
    1036,  -4.7602941180e-01,  -1.0000000600e-02
    1037,  -4.5205882360e-01,  -1.0000000600e-02
    1038,  -4.2808823540e-01,  -1.0000000600e-02
    1039,  -4.0411764720e-01,  -1.0000000600e-02
    1040,  -3.8014705900e-01,  -1.0000000600e-02
    1041,  -3.5617647080e-01,  -1.0000000600e-02
    1042,  -3.3220588260e-01,  -1.0000000600e-02
    1043,  -3.0823529440e-01,  -1.0000000600e-02
    1044,  -2.8426470620e-01,  -1.0000000600e-02
    1045,  -2.6029411800e-01,  -1.0000000600e-02
    1046,  -2.3632352980e-01,  -1.0000000600e-02
    1047,  -2.1235294160e-01,  -1.0000000600e-02
    1048,  -1.8838235340e-01,  -1.0000000600e-02
    1049,  -1.6441176520e-01,  -1.0000000600e-02
    1050,  -1.4044117700e-01,  -1.0000000600e-02
    1051,  -1.1647058880e-01,  -1.0000000600e-02
    1052,  -9.2500000600e-02,  -1.0000000600e-02
    1053,  -6.7500000600e-02,  -1.0000000600e-02
    1054,  -4.5000000600e-02,  -1.0000000600e-02
    1055,  -3.0000000600e-02,  -1.0000000600e-02
    1056,  -2.0000000600e-02,  -1.0000000600e-02
    1057,  -1.0000000600e-02,  -1.0000000600e-02
    1058,   0.0000000000e+00,  -1.0000000600e-02
    1059,   1.0000000000e-02,  -1.0000000600e-02
    1060,   2.0000000000e-02,  -1.0000000600e-02
    1061,   3.0000000000e-02,  -1.0000000600e-02
    1062,   4.5000000000e-02,  -1.0000000600e-02
    1063,   6.7500000000e-02,  -1.0000000600e-02
    1064,   9.2500000000e-02,  -1.0000000600e-02
    1065,   1.1647058820e-01,  -1.0000000600e-02
    1066,   1.4044117640e-01,  -1.0000000600e-02
    1067,   1.6441176460e-01,  -1.0000000600e-02
    1068,   1.8838235280e-01,  -1.0000000600e-02
    1069,   2.1235294100e-01,  -1.0000000600e-02
    1070,   2.3632352920e-01,  -1.0000000600e-02
    1071,   2.6029411740e-01,  -1.0000000600e-02
    1072,   2.8426470560e-01,  -1.0000000600e-02
    1073,   3.0823529380e-01,  -1.0000000600e-02
    1074,   3.3220588200e-01,  -1.0000000600e-02
    1075,   3.5617647020e-01,  -1.0000000600e-02
    1076,   3.8014705840e-01,  -1.0000000600e-02
    1077,   4.0411764660e-01,  -1.0000000600e-02
    1078,   4.2808823480e-01,  -1.0000000600e-02
    1079,   4.5205882300e-01,  -1.0000000600e-02
    1080,   4.7602941120e-01,  -1.0000000600e-02
    1081,   5.0000000000e-01,  -1.0000000600e-02
    1082,  -5.0000000000e-01,   0.0000000000e+00
    1083,  -5.0000000000e-01,   0.0000000000e+00
    1084,  -4.7602941180e-01,   0.0000000000e+00
    1085,  -4.7602941180e-01,   0.0000000000e+00
    1086,  -4.5205882360e-01,   0.0000000000e+00
    1087,  -4.5205882360e-01,   0.0000000000e+00
    1088,  -4.2808823540e-01,   0.0000000000e+00
    1089,  -4.2808823540e-01,   0.0000000000e+00
    1090,  -4.0411764720e-01,   0.0000000000e+00
    1091,  -4.0411764720e-01,   0.0000000000e+00
    1092,  -3.8014705900e-01,   0.0000000000e+00
    1093,  -3.8014705900e-01,   0.0000000000e+00
    1094,  -3.5617647080e-01,   0.0000000000e+00
    1095,  -3.5617647080e-01,   0.0000000000e+00
    1096,  -3.3220588260e-01,   0.0000000000e+00
    1097,  -3.3220588260e-01,   0.0000000000e+00
    1098,  -3.0823529440e-01,   0.0000000000e+00
    1099,  -3.0823529440e-01,   0.0000000000e+00
    1100,  -2.8426470620e-01,   0.0000000000e+00
    1101,  -2.8426470620e-01,   0.0000000000e+00
    1102,  -2.6029411800e-01,   0.0000000000e+00
    1103,  -2.6029411800e-01,   0.0000000000e+00
    1104,  -2.3632352980e-01,   0.0000000000e+00
    1105,  -2.3632352980e-01,   0.0000000000e+00
    1106,  -2.1235294160e-01,   0.0000000000e+00
    1107,  -2.1235294160e-01,   0.0000000000e+00
    1108,  -1.8838235340e-01,   0.0000000000e+00
    1109,  -1.8838235340e-01,   0.0000000000e+00
    1110,  -1.6441176520e-01,   0.0000000000e+00
    1111,  -1.6441176520e-01,   0.0000000000e+00
    1112,  -1.4044117700e-01,   0.0000000000e+00
    1113,  -1.4044117700e-01,   0.0000000000e+00
    1114,  -1.1647058880e-01,   0.0000000000e+00
    1115,  -1.1647058880e-01,   0.0000000000e+00
    1116,  -9.2500000600e-02,   0.0000000000e+00
    1117,  -9.2500000600e-02,   0.0000000000e+00
    1118,  -6.7500000600e-02,   0.0000000000e+00
    1119,  -6.7500000600e-02,   0.0000000000e+00
    1120,  -4.5000000600e-02,   0.0000000000e+00
    1121,  -4.5000000600e-02,   0.0000000000e+00
    1122,  -3.0000000600e-02,   0.0000000000e+00
    1123,  -3.0000000600e-02,   0.0000000000e+00
    1124,  -2.0000000600e-02,   0.0000000000e+00
    1125,  -2.0000000600e-02,   0.0000000000e+00
    1126,  -1.0000000600e-02,   0.0000000000e+00
    1127,  -1.0000000600e-02,   0.0000000000e+00
    1128,   0.0000000000e+00,   0.0000000000e+00
    1129,   1.0000000000e-02,   0.0000000000e+00
    1130,   2.0000000000e-02,   0.0000000000e+00
    1131,   3.0000000000e-02,   0.0000000000e+00
    1132,   4.5000000000e-02,   0.0000000000e+00
    1133,   6.7500000000e-02,   0.0000000000e+00
    1134,   9.2500000000e-02,   0.0000000000e+00
    1135,   1.1647058820e-01,   0.0000000000e+00
    1136,   1.4044117640e-01,   0.0000000000e+00
    1137,   1.6441176460e-01,   0.0000000000e+00
    1138,   1.8838235280e-01,   0.0000000000e+00
    1139,   2.1235294100e-01,   0.0000000000e+00
    1140,   2.3632352920e-01,   0.0000000000e+00
    1141,   2.6029411740e-01,   0.0000000000e+00
    1142,   2.8426470560e-01,   0.0000000000e+00
    1143,   3.0823529380e-01,   0.0000000000e+00
    1144,   3.3220588200e-01,   0.0000000000e+00
    1145,   3.5617647020e-01,   0.0000000000e+00
    1146,   3.8014705840e-01,   0.0000000000e+00
    1147,   4.0411764660e-01,   0.0000000000e+00
    1148,   4.2808823480e-01,   0.0000000000e+00
    1149,   4.5205882300e-01,   0.0000000000e+00
    1150,   4.7602941120e-01,   0.0000000000e+00
    1151,   5.0000000000e-01,   0.0000000000e+00
    1152,  -5.0000000000e-01,   1.0000000000e-02
    1153,  -4.7602941180e-01,   1.0000000000e-02
    1154,  -4.5205882360e-01,   1.0000000000e-02
    1155,  -4.2808823540e-01,   1.0000000000e-02
    1156,  -4.0411764720e-01,   1.0000000000e-02
    1157,  -3.8014705900e-01,   1.0000000000e-02
    1158,  -3.5617647080e-01,   1.0000000000e-02
    1159,  -3.3220588260e-01,   1.0000000000e-02
    1160,  -3.0823529440e-01,   1.0000000000e-02
    1161,  -2.8426470620e-01,   1.0000000000e-02
    1162,  -2.6029411800e-01,   1.0000000000e-02
    1163,  -2.3632352980e-01,   1.0000000000e-02
    1164,  -2.1235294160e-01,   1.0000000000e-02
    1165,  -1.8838235340e-01,   1.0000000000e-02
    1166,  -1.6441176520e-01,   1.0000000000e-02
    1167,  -1.4044117700e-01,   1.0000000000e-02
    1168,  -1.1647058880e-01,   1.0000000000e-02
    1169,  -9.2500000600e-02,   1.0000000000e-02
    1170,  -6.7500000600e-02,   1.0000000000e-02
    1171,  -4.5000000600e-02,   1.0000000000e-02
    1172,  -3.0000000600e-02,   1.0000000000e-02
    1173,  -2.0000000600e-02,   1.0000000000e-02
    1174,  -1.0000000600e-02,   1.0000000000e-02
    1175,   0.0000000000e+00,   1.0000000000e-02
    1176,   1.0000000000e-02,   1.0000000000e-02
    1177,   2.0000000000e-02,   1.0000000000e-02
    1178,   3.0000000000e-02,   1.0000000000e-02
    1179,   4.5000000000e-02,   1.0000000000e-02
    1180,   6.7500000000e-02,   1.0000000000e-02
    1181,   9.2500000000e-02,   1.0000000000e-02
    1182,   1.1647058820e-01,   1.0000000000e-02
    1183,   1.4044117640e-01,   1.0000000000e-02
    1184,   1.6441176460e-01,   1.0000000000e-02
    1185,   1.8838235280e-01,   1.0000000000e-02
    1186,   2.1235294100e-01,   1.0000000000e-02
    1187,   2.3632352920e-01,   1.0000000000e-02
    1188,   2.6029411740e-01,   1.0000000000e-02
    1189,   2.8426470560e-01,   1.0000000000e-02
    1190,   3.0823529380e-01,   1.0000000000e-02
    1191,   3.3220588200e-01,   1.0000000000e-02
    1192,   3.5617647020e-01,   1.0000000000e-02
    1193,   3.8014705840e-01,   1.0000000000e-02
    1194,   4.0411764660e-01,   1.0000000000e-02
    1195,   4.2808823480e-01,   1.0000000000e-02
    1196,   4.5205882300e-01,   1.0000000000e-02
    1197,   4.7602941120e-01,   1.0000000000e-02
    1198,   5.0000000000e-01,   1.0000000000e-02
    1199,  -5.0000000000e-01,   2.0000000000e-02
    1200,  -4.7602941180e-01,   2.0000000000e-02
    1201,  -4.5205882360e-01,   2.0000000000e-02
    1202,  -4.2808823540e-01,   2.0000000000e-02
    1203,  -4.0411764720e-01,   2.0000000000e-02
    1204,  -3.8014705900e-01,   2.0000000000e-02
    1205,  -3.5617647080e-01,   2.0000000000e-02
    1206,  -3.3220588260e-01,   2.0000000000e-02
    1207,  -3.0823529440e-01,   2.0000000000e-02
    1208,  -2.8426470620e-01,   2.0000000000e-02
    1209,  -2.6029411800e-01,   2.0000000000e-02
    1210,  -2.3632352980e-01,   2.0000000000e-02
    1211,  -2.1235294160e-01,   2.0000000000e-02
    1212,  -1.8838235340e-01,   2.0000000000e-02
    1213,  -1.6441176520e-01,   2.0000000000e-02
    1214,  -1.4044117700e-01,   2.0000000000e-02
    1215,  -1.1647058880e-01,   2.0000000000e-02
    1216,  -9.2500000600e-02,   2.0000000000e-02
    1217,  -6.7500000600e-02,   2.0000000000e-02
    1218,  -4.5000000600e-02,   2.0000000000e-02
    1219,  -3.0000000600e-02,   2.0000000000e-02
    1220,  -2.0000000600e-02,   2.0000000000e-02
    1221,  -1.0000000600e-02,   2.0000000000e-02
    1222,   0.0000000000e+00,   2.0000000000e-02
    1223,   1.0000000000e-02,   2.0000000000e-02
    1224,   2.0000000000e-02,   2.0000000000e-02
    1225,   3.0000000000e-02,   2.0000000000e-02
    1226,   4.5000000000e-02,   2.0000000000e-02
    1227,   6.7500000000e-02,   2.0000000000e-02
    1228,   9.2500000000e-02,   2.0000000000e-02
    1229,   1.1647058820e-01,   2.0000000000e-02
    1230,   1.4044117640e-01,   2.0000000000e-02
    1231,   1.6441176460e-01,   2.0000000000e-02
    1232,   1.8838235280e-01,   2.0000000000e-02
    1233,   2.1235294100e-01,   2.0000000000e-02
    1234,   2.3632352920e-01,   2.0000000000e-02
    1235,   2.6029411740e-01,   2.0000000000e-02
    1236,   2.8426470560e-01,   2.0000000000e-02
    1237,   3.0823529380e-01,   2.0000000000e-02
    1238,   3.3220588200e-01,   2.0000000000e-02
    1239,   3.5617647020e-01,   2.0000000000e-02
    1240,   3.8014705840e-01,   2.0000000000e-02
    1241,   4.0411764660e-01,   2.0000000000e-02
    1242,   4.2808823480e-01,   2.0000000000e-02
    1243,   4.5205882300e-01,   2.0000000000e-02
    1244,   4.7602941120e-01,   2.0000000000e-02
    1245,   5.0000000000e-01,   2.0000000000e-02
    1246,  -5.0000000000e-01,   3.0000000000e-02
    1247,  -4.7602941180e-01,   3.0000000000e-02
    1248,  -4.5205882360e-01,   3.0000000000e-02
    1249,  -4.2808823540e-01,   3.0000000000e-02
    1250,  -4.0411764720e-01,   3.0000000000e-02
    1251,  -3.8014705900e-01,   3.0000000000e-02
    1252,  -3.5617647080e-01,   3.0000000000e-02
    1253,  -3.3220588260e-01,   3.0000000000e-02
    1254,  -3.0823529440e-01,   3.0000000000e-02
    1255,  -2.8426470620e-01,   3.0000000000e-02
    1256,  -2.6029411800e-01,   3.0000000000e-02
    1257,  -2.3632352980e-01,   3.0000000000e-02
    1258,  -2.1235294160e-01,   3.0000000000e-02
    1259,  -1.8838235340e-01,   3.0000000000e-02
    1260,  -1.6441176520e-01,   3.0000000000e-02
    1261,  -1.4044117700e-01,   3.0000000000e-02
    1262,  -1.1647058880e-01,   3.0000000000e-02
    1263,  -9.2500000600e-02,   3.0000000000e-02
    1264,  -6.7500000600e-02,   3.0000000000e-02
    1265,  -4.5000000600e-02,   3.0000000000e-02
    1266,  -3.0000000600e-02,   3.0000000000e-02
    1267,  -2.0000000600e-02,   3.0000000000e-02
    1268,  -1.0000000600e-02,   3.0000000000e-02
    1269,   0.0000000000e+00,   3.0000000000e-02
    1270,   1.0000000000e-02,   3.0000000000e-02
    1271,   2.0000000000e-02,   3.0000000000e-02
    1272,   3.0000000000e-02,   3.0000000000e-02
    1273,   4.5000000000e-02,   3.0000000000e-02
    1274,   6.7500000000e-02,   3.0000000000e-02
    1275,   9.2500000000e-02,   3.0000000000e-02
    1276,   1.1647058820e-01,   3.0000000000e-02
    1277,   1.4044117640e-01,   3.0000000000e-02
    1278,   1.6441176460e-01,   3.0000000000e-02
    1279,   1.8838235280e-01,   3.0000000000e-02
    1280,   2.1235294100e-01,   3.0000000000e-02
    1281,   2.3632352920e-01,   3.0000000000e-02
    1282,   2.6029411740e-01,   3.0000000000e-02
    1283,   2.8426470560e-01,   3.0000000000e-02
    1284,   3.0823529380e-01,   3.0000000000e-02
    1285,   3.3220588200e-01,   3.0000000000e-02
    1286,   3.5617647020e-01,   3.0000000000e-02
    1287,   3.8014705840e-01,   3.0000000000e-02
    1288,   4.0411764660e-01,   3.0000000000e-02
    1289,   4.2808823480e-01,   3.0000000000e-02
    1290,   4.5205882300e-01,   3.0000000000e-02
    1291,   4.7602941120e-01,   3.0000000000e-02
    1292,   5.0000000000e-01,   3.0000000000e-02
    1293,  -5.0000000000e-01,   4.5000000000e-02
    1294,  -4.7602941180e-01,   4.5000000000e-02
    1295,  -4.5205882360e-01,   4.5000000000e-02
    1296,  -4.2808823540e-01,   4.5000000000e-02
    1297,  -4.0411764720e-01,   4.5000000000e-02
    1298,  -3.8014705900e-01,   4.5000000000e-02
    1299,  -3.5617647080e-01,   4.5000000000e-02
    1300,  -3.3220588260e-01,   4.5000000000e-02
    1301,  -3.0823529440e-01,   4.5000000000e-02
    1302,  -2.8426470620e-01,   4.5000000000e-02
    1303,  -2.6029411800e-01,   4.5000000000e-02
    1304,  -2.3632352980e-01,   4.5000000000e-02
    1305,  -2.1235294160e-01,   4.5000000000e-02
    1306,  -1.8838235340e-01,   4.5000000000e-02
    1307,  -1.6441176520e-01,   4.5000000000e-02
    1308,  -1.4044117700e-01,   4.5000000000e-02
    1309,  -1.1647058880e-01,   4.5000000000e-02
    1310,  -9.2500000600e-02,   4.5000000000e-02
    1311,  -6.7500000600e-02,   4.5000000000e-02
    1312,  -4.5000000600e-02,   4.5000000000e-02
    1313,  -3.0000000600e-02,   4.5000000000e-02
    1314,  -2.0000000600e-02,   4.5000000000e-02
    1315,  -1.0000000600e-02,   4.5000000000e-02
    1316,   0.0000000000e+00,   4.5000000000e-02
    1317,   1.0000000000e-02,   4.5000000000e-02
    1318,   2.0000000000e-02,   4.5000000000e-02
    1319,   3.0000000000e-02,   4.5000000000e-02
    1320,   4.5000000000e-02,   4.5000000000e-02
    1321,   6.7500000000e-02,   4.5000000000e-02
    1322,   9.2500000000e-02,   4.5000000000e-02
    1323,   1.1647058820e-01,   4.5000000000e-02
    1324,   1.4044117640e-01,   4.5000000000e-02
    1325,   1.6441176460e-01,   4.5000000000e-02
    1326,   1.8838235280e-01,   4.5000000000e-02
    1327,   2.1235294100e-01,   4.5000000000e-02
    1328,   2.3632352920e-01,   4.5000000000e-02
    1329,   2.6029411740e-01,   4.5000000000e-02
    1330,   2.8426470560e-01,   4.5000000000e-02
    1331,   3.0823529380e-01,   4.5000000000e-02
    1332,   3.3220588200e-01,   4.5000000000e-02
    1333,   3.5617647020e-01,   4.5000000000e-02
    1334,   3.8014705840e-01,   4.5000000000e-02
    1335,   4.0411764660e-01,   4.5000000000e-02
    1336,   4.2808823480e-01,   4.5000000000e-02
    1337,   4.5205882300e-01,   4.5000000000e-02
    1338,   4.7602941120e-01,   4.5000000000e-02
    1339,   5.0000000000e-01,   4.5000000000e-02
    1340,  -5.0000000000e-01,   6.7500000000e-02
    1341,  -4.7602941180e-01,   6.7500000000e-02
    1342,  -4.5205882360e-01,   6.7500000000e-02
    1343,  -4.2808823540e-01,   6.7500000000e-02
    1344,  -4.0411764720e-01,   6.7500000000e-02
    1345,  -3.8014705900e-01,   6.7500000000e-02
    1346,  -3.5617647080e-01,   6.7500000000e-02
    1347,  -3.3220588260e-01,   6.7500000000e-02
    1348,  -3.0823529440e-01,   6.7500000000e-02
    1349,  -2.8426470620e-01,   6.7500000000e-02
    1350,  -2.6029411800e-01,   6.7500000000e-02
    1351,  -2.3632352980e-01,   6.7500000000e-02
    1352,  -2.1235294160e-01,   6.7500000000e-02
    1353,  -1.8838235340e-01,   6.7500000000e-02
    1354,  -1.6441176520e-01,   6.7500000000e-02
    1355,  -1.4044117700e-01,   6.7500000000e-02
    1356,  -1.1647058880e-01,   6.7500000000e-02
    1357,  -9.2500000600e-02,   6.7500000000e-02
    1358,  -6.7500000600e-02,   6.7500000000e-02
    1359,  -4.5000000600e-02,   6.7500000000e-02
    1360,  -3.0000000600e-02,   6.7500000000e-02
    1361,  -2.0000000600e-02,   6.7500000000e-02
    1362,  -1.0000000600e-02,   6.7500000000e-02
    1363,   0.0000000000e+00,   6.7500000000e-02
    1364,   1.0000000000e-02,   6.7500000000e-02
    1365,   2.0000000000e-02,   6.7500000000e-02
    1366,   3.0000000000e-02,   6.7500000000e-02
    1367,   4.5000000000e-02,   6.7500000000e-02
    1368,   6.7500000000e-02,   6.7500000000e-02
    1369,   9.2500000000e-02,   6.7500000000e-02
    1370,   1.1647058820e-01,   6.7500000000e-02
    1371,   1.4044117640e-01,   6.7500000000e-02
    1372,   1.6441176460e-01,   6.7500000000e-02
    1373,   1.8838235280e-01,   6.7500000000e-02
    1374,   2.1235294100e-01,   6.7500000000e-02
    1375,   2.3632352920e-01,   6.7500000000e-02
    1376,   2.6029411740e-01,   6.7500000000e-02
    1377,   2.8426470560e-01,   6.7500000000e-02
    1378,   3.0823529380e-01,   6.7500000000e-02
    1379,   3.3220588200e-01,   6.7500000000e-02
    1380,   3.5617647020e-01,   6.7500000000e-02
    1381,   3.8014705840e-01,   6.7500000000e-02
    1382,   4.0411764660e-01,   6.7500000000e-02
    1383,   4.2808823480e-01,   6.7500000000e-02
    1384,   4.5205882300e-01,   6.7500000000e-02
    1385,   4.7602941120e-01,   6.7500000000e-02
    1386,   5.0000000000e-01,   6.7500000000e-02
    1387,  -5.0000000000e-01,   9.2500000000e-02
    1388,  -4.7602941180e-01,   9.2500000000e-02
    1389,  -4.5205882360e-01,   9.2500000000e-02
    1390,  -4.2808823540e-01,   9.2500000000e-02
    1391,  -4.0411764720e-01,   9.2500000000e-02
    1392,  -3.8014705900e-01,   9.2500000000e-02
    1393,  -3.5617647080e-01,   9.2500000000e-02
    1394,  -3.3220588260e-01,   9.2500000000e-02
    1395,  -3.0823529440e-01,   9.2500000000e-02
    1396,  -2.8426470620e-01,   9.2500000000e-02
    1397,  -2.6029411800e-01,   9.2500000000e-02
    1398,  -2.3632352980e-01,   9.2500000000e-02
    1399,  -2.1235294160e-01,   9.2500000000e-02
    1400,  -1.8838235340e-01,   9.2500000000e-02
    1401,  -1.6441176520e-01,   9.2500000000e-02
    1402,  -1.4044117700e-01,   9.2500000000e-02
    1403,  -1.1647058880e-01,   9.2500000000e-02
    1404,  -9.2500000600e-02,   9.2500000000e-02
    1405,  -6.7500000600e-02,   9.2500000000e-02
    1406,  -4.5000000600e-02,   9.2500000000e-02
    1407,  -3.0000000600e-02,   9.2500000000e-02
    1408,  -2.0000000600e-02,   9.2500000000e-02
    1409,  -1.0000000600e-02,   9.2500000000e-02
    1410,   0.0000000000e+00,   9.2500000000e-02
    1411,   1.0000000000e-02,   9.2500000000e-02
    1412,   2.0000000000e-02,   9.2500000000e-02
    1413,   3.0000000000e-02,   9.2500000000e-02
    1414,   4.5000000000e-02,   9.2500000000e-02
    1415,   6.7500000000e-02,   9.2500000000e-02
    1416,   9.2500000000e-02,   9.2500000000e-02
    1417,   1.1647058820e-01,   9.2500000000e-02
    1418,   1.4044117640e-01,   9.2500000000e-02
    1419,   1.6441176460e-01,   9.2500000000e-02
    1420,   1.8838235280e-01,   9.2500000000e-02
    1421,   2.1235294100e-01,   9.2500000000e-02
    1422,   2.3632352920e-01,   9.2500000000e-02
    1423,   2.6029411740e-01,   9.2500000000e-02
    1424,   2.8426470560e-01,   9.2500000000e-02
    1425,   3.0823529380e-01,   9.2500000000e-02
    1426,   3.3220588200e-01,   9.2500000000e-02
    1427,   3.5617647020e-01,   9.2500000000e-02
    1428,   3.8014705840e-01,   9.2500000000e-02
    1429,   4.0411764660e-01,   9.2500000000e-02
    1430,   4.2808823480e-01,   9.2500000000e-02
    1431,   4.5205882300e-01,   9.2500000000e-02
    1432,   4.7602941120e-01,   9.2500000000e-02
    1433,   5.0000000000e-01,   9.2500000000e-02
    1434,  -5.0000000000e-01,   1.1647058820e-01
    1435,  -4.7602941180e-01,   1.1647058820e-01
    1436,  -4.5205882360e-01,   1.1647058820e-01
    1437,  -4.2808823540e-01,   1.1647058820e-01
    1438,  -4.0411764720e-01,   1.1647058820e-01
    1439,  -3.8014705900e-01,   1.1647058820e-01
    1440,  -3.5617647080e-01,   1.1647058820e-01
    1441,  -3.3220588260e-01,   1.1647058820e-01
    1442,  -3.0823529440e-01,   1.1647058820e-01
    1443,  -2.8426470620e-01,   1.1647058820e-01
    1444,  -2.6029411800e-01,   1.1647058820e-01
    1445,  -2.3632352980e-01,   1.1647058820e-01
    1446,  -2.1235294160e-01,   1.1647058820e-01
    1447,  -1.8838235340e-01,   1.1647058820e-01
    1448,  -1.6441176520e-01,   1.1647058820e-01
    1449,  -1.4044117700e-01,   1.1647058820e-01
    1450,  -1.1647058880e-01,   1.1647058820e-01
    1451,  -9.2500000600e-02,   1.1647058820e-01
    1452,  -6.7500000600e-02,   1.1647058820e-01
    1453,  -4.5000000600e-02,   1.1647058820e-01
    1454,  -3.0000000600e-02,   1.1647058820e-01
    1455,  -2.0000000600e-02,   1.1647058820e-01
    1456,  -1.0000000600e-02,   1.1647058820e-01
    1457,   0.0000000000e+00,   1.1647058820e-01
    1458,   1.0000000000e-02,   1.1647058820e-01
    1459,   2.0000000000e-02,   1.1647058820e-01
    1460,   3.0000000000e-02,   1.1647058820e-01
    1461,   4.5000000000e-02,   1.1647058820e-01
    1462,   6.7500000000e-02,   1.1647058820e-01
    1463,   9.2500000000e-02,   1.1647058820e-01
    1464,   1.1647058820e-01,   1.1647058820e-01
    1465,   1.4044117640e-01,   1.1647058820e-01
    1466,   1.6441176460e-01,   1.1647058820e-01
    1467,   1.8838235280e-01,   1.1647058820e-01
    1468,   2.1235294100e-01,   1.1647058820e-01
    1469,   2.3632352920e-01,   1.1647058820e-01
    1470,   2.6029411740e-01,   1.1647058820e-01
    1471,   2.8426470560e-01,   1.1647058820e-01
    1472,   3.0823529380e-01,   1.1647058820e-01
    1473,   3.3220588200e-01,   1.1647058820e-01
    1474,   3.5617647020e-01,   1.1647058820e-01
    1475,   3.8014705840e-01,   1.1647058820e-01
    1476,   4.0411764660e-01,   1.1647058820e-01
    1477,   4.2808823480e-01,   1.1647058820e-01
    1478,   4.5205882300e-01,   1.1647058820e-01
    1479,   4.7602941120e-01,   1.1647058820e-01
    1480,   5.0000000000e-01,   1.1647058820e-01
    1481,  -5.0000000000e-01,   1.4044117640e-01
    1482,  -4.7602941180e-01,   1.4044117640e-01
    1483,  -4.5205882360e-01,   1.4044117640e-01
    1484,  -4.2808823540e-01,   1.4044117640e-01
    1485,  -4.0411764720e-01,   1.4044117640e-01
    1486,  -3.8014705900e-01,   1.4044117640e-01
    1487,  -3.5617647080e-01,   1.4044117640e-01
    1488,  -3.3220588260e-01,   1.4044117640e-01
    1489,  -3.0823529440e-01,   1.4044117640e-01
    1490,  -2.8426470620e-01,   1.4044117640e-01
    1491,  -2.6029411800e-01,   1.4044117640e-01
    1492,  -2.3632352980e-01,   1.4044117640e-01
    1493,  -2.1235294160e-01,   1.4044117640e-01
    1494,  -1.8838235340e-01,   1.4044117640e-01
    1495,  -1.6441176520e-01,   1.4044117640e-01
    1496,  -1.4044117700e-01,   1.4044117640e-01
    1497,  -1.1647058880e-01,   1.4044117640e-01
    1498,  -9.2500000600e-02,   1.4044117640e-01
    1499,  -6.7500000600e-02,   1.4044117640e-01
    1500,  -4.5000000600e-02,   1.4044117640e-01
    1501,  -3.0000000600e-02,   1.4044117640e-01
    1502,  -2.0000000600e-02,   1.4044117640e-01
    1503,  -1.0000000600e-02,   1.4044117640e-01
    1504,   0.0000000000e+00,   1.4044117640e-01
    1505,   1.0000000000e-02,   1.4044117640e-01
    1506,   2.0000000000e-02,   1.4044117640e-01
    1507,   3.0000000000e-02,   1.4044117640e-01
    1508,   4.5000000000e-02,   1.4044117640e-01
    1509,   6.7500000000e-02,   1.4044117640e-01
    1510,   9.2500000000e-02,   1.4044117640e-01
    1511,   1.1647058820e-01,   1.4044117640e-01
    1512,   1.4044117640e-01,   1.4044117640e-01
    1513,   1.6441176460e-01,   1.4044117640e-01
    1514,   1.8838235280e-01,   1.4044117640e-01
    1515,   2.1235294100e-01,   1.4044117640e-01
    1516,   2.3632352920e-01,   1.4044117640e-01
    1517,   2.6029411740e-01,   1.4044117640e-01
    1518,   2.8426470560e-01,   1.4044117640e-01
    1519,   3.0823529380e-01,   1.4044117640e-01
    1520,   3.3220588200e-01,   1.4044117640e-01
    1521,   3.5617647020e-01,   1.4044117640e-01
    1522,   3.8014705840e-01,   1.4044117640e-01
    1523,   4.0411764660e-01,   1.4044117640e-01
    1524,   4.2808823480e-01,   1.4044117640e-01
    1525,   4.5205882300e-01,   1.4044117640e-01
    1526,   4.7602941120e-01,   1.4044117640e-01
    1527,   5.0000000000e-01,   1.4044117640e-01
    1528,  -5.0000000000e-01,   1.6441176460e-01
    1529,  -4.7602941180e-01,   1.6441176460e-01
    1530,  -4.5205882360e-01,   1.6441176460e-01
    1531,  -4.2808823540e-01,   1.6441176460e-01
    1532,  -4.0411764720e-01,   1.6441176460e-01
    1533,  -3.8014705900e-01,   1.6441176460e-01
    1534,  -3.5617647080e-01,   1.6441176460e-01
    1535,  -3.3220588260e-01,   1.6441176460e-01
    1536,  -3.0823529440e-01,   1.6441176460e-01
    1537,  -2.8426470620e-01,   1.6441176460e-01
    1538,  -2.6029411800e-01,   1.6441176460e-01
    1539,  -2.3632352980e-01,   1.6441176460e-01
    1540,  -2.1235294160e-01,   1.6441176460e-01
    1541,  -1.8838235340e-01,   1.6441176460e-01
    1542,  -1.6441176520e-01,   1.6441176460e-01
    1543,  -1.4044117700e-01,   1.6441176460e-01
    1544,  -1.1647058880e-01,   1.6441176460e-01
    1545,  -9.2500000600e-02,   1.6441176460e-01
    1546,  -6.7500000600e-02,   1.6441176460e-01
    1547,  -4.5000000600e-02,   1.6441176460e-01
    1548,  -3.0000000600e-02,   1.6441176460e-01
    1549,  -2.0000000600e-02,   1.6441176460e-01
    1550,  -1.0000000600e-02,   1.6441176460e-01
    1551,   0.0000000000e+00,   1.6441176460e-01
    1552,   1.0000000000e-02,   1.6441176460e-01
    1553,   2.0000000000e-02,   1.6441176460e-01
    1554,   3.0000000000e-02,   1.6441176460e-01
    1555,   4.5000000000e-02,   1.6441176460e-01
    1556,   6.7500000000e-02,   1.6441176460e-01
    1557,   9.2500000000e-02,   1.6441176460e-01
    1558,   1.1647058820e-01,   1.6441176460e-01
    1559,   1.4044117640e-01,   1.6441176460e-01
    1560,   1.6441176460e-01,   1.6441176460e-01
    1561,   1.8838235280e-01,   1.6441176460e-01
    1562,   2.1235294100e-01,   1.6441176460e-01
    1563,   2.3632352920e-01,   1.6441176460e-01
    1564,   2.6029411740e-01,   1.6441176460e-01
    1565,   2.8426470560e-01,   1.6441176460e-01
    1566,   3.0823529380e-01,   1.6441176460e-01
    1567,   3.3220588200e-01,   1.6441176460e-01
    1568,   3.5617647020e-01,   1.6441176460e-01
    1569,   3.8014705840e-01,   1.6441176460e-01
    1570,   4.0411764660e-01,   1.6441176460e-01
    1571,   4.2808823480e-01,   1.6441176460e-01
    1572,   4.5205882300e-01,   1.6441176460e-01
    1573,   4.7602941120e-01,   1.6441176460e-01
    1574,   5.0000000000e-01,   1.6441176460e-01
    1575,  -5.0000000000e-01,   1.8838235280e-01
    1576,  -4.7602941180e-01,   1.8838235280e-01
    1577,  -4.5205882360e-01,   1.8838235280e-01
    1578,  -4.2808823540e-01,   1.8838235280e-01
    1579,  -4.0411764720e-01,   1.8838235280e-01
    1580,  -3.8014705900e-01,   1.8838235280e-01
    1581,  -3.5617647080e-01,   1.8838235280e-01
    1582,  -3.3220588260e-01,   1.8838235280e-01
    1583,  -3.0823529440e-01,   1.8838235280e-01
    1584,  -2.8426470620e-01,   1.8838235280e-01
    1585,  -2.6029411800e-01,   1.8838235280e-01
    1586,  -2.3632352980e-01,   1.8838235280e-01
    1587,  -2.1235294160e-01,   1.8838235280e-01
    1588,  -1.8838235340e-01,   1.8838235280e-01
    1589,  -1.6441176520e-01,   1.8838235280e-01
    1590,  -1.4044117700e-01,   1.8838235280e-01
    1591,  -1.1647058880e-01,   1.8838235280e-01
    1592,  -9.2500000600e-02,   1.8838235280e-01
    1593,  -6.7500000600e-02,   1.8838235280e-01
    1594,  -4.5000000600e-02,   1.8838235280e-01
    1595,  -3.0000000600e-02,   1.8838235280e-01
    1596,  -2.0000000600e-02,   1.8838235280e-01
    1597,  -1.0000000600e-02,   1.8838235280e-01
    1598,   0.0000000000e+00,   1.8838235280e-01
    1599,   1.0000000000e-02,   1.8838235280e-01
    1600,   2.0000000000e-02,   1.8838235280e-01
    1601,   3.0000000000e-02,   1.8838235280e-01
    1602,   4.5000000000e-02,   1.8838235280e-01
    1603,   6.7500000000e-02,   1.8838235280e-01
    1604,   9.2500000000e-02,   1.8838235280e-01
    1605,   1.1647058820e-01,   1.8838235280e-01
    1606,   1.4044117640e-01,   1.8838235280e-01
    1607,   1.6441176460e-01,   1.8838235280e-01
    1608,   1.8838235280e-01,   1.8838235280e-01
    1609,   2.1235294100e-01,   1.8838235280e-01
    1610,   2.3632352920e-01,   1.8838235280e-01
    1611,   2.6029411740e-01,   1.8838235280e-01
    1612,   2.8426470560e-01,   1.8838235280e-01
    1613,   3.0823529380e-01,   1.8838235280e-01
    1614,   3.3220588200e-01,   1.8838235280e-01
    1615,   3.5617647020e-01,   1.8838235280e-01
    1616,   3.8014705840e-01,   1.8838235280e-01
    1617,   4.0411764660e-01,   1.8838235280e-01
    1618,   4.2808823480e-01,   1.8838235280e-01
    1619,   4.5205882300e-01,   1.8838235280e-01
    1620,   4.7602941120e-01,   1.8838235280e-01
    1621,   5.0000000000e-01,   1.8838235280e-01
    1622,  -5.0000000000e-01,   2.1235294100e-01
    1623,  -4.7602941180e-01,   2.1235294100e-01
    1624,  -4.5205882360e-01,   2.1235294100e-01
    1625,  -4.2808823540e-01,   2.1235294100e-01
    1626,  -4.0411764720e-01,   2.1235294100e-01
    1627,  -3.8014705900e-01,   2.1235294100e-01
    1628,  -3.5617647080e-01,   2.1235294100e-01
    1629,  -3.3220588260e-01,   2.1235294100e-01
    1630,  -3.0823529440e-01,   2.1235294100e-01
    1631,  -2.8426470620e-01,   2.1235294100e-01
    1632,  -2.6029411800e-01,   2.1235294100e-01
    1633,  -2.3632352980e-01,   2.1235294100e-01
    1634,  -2.1235294160e-01,   2.1235294100e-01
    1635,  -1.8838235340e-01,   2.1235294100e-01
    1636,  -1.6441176520e-01,   2.1235294100e-01
    1637,  -1.4044117700e-01,   2.1235294100e-01
    1638,  -1.1647058880e-01,   2.1235294100e-01
    1639,  -9.2500000600e-02,   2.1235294100e-01
    1640,  -6.7500000600e-02,   2.1235294100e-01
    1641,  -4.5000000600e-02,   2.1235294100e-01
    1642,  -3.0000000600e-02,   2.1235294100e-01
    1643,  -2.0000000600e-02,   2.1235294100e-01
    1644,  -1.0000000600e-02,   2.1235294100e-01
    1645,   0.0000000000e+00,   2.1235294100e-01
    1646,   1.0000000000e-02,   2.1235294100e-01
    1647,   2.0000000000e-02,   2.1235294100e-01
    1648,   3.0000000000e-02,   2.1235294100e-01
    1649,   4.5000000000e-02,   2.1235294100e-01
    1650,   6.7500000000e-02,   2.1235294100e-01
    1651,   9.2500000000e-02,   2.1235294100e-01
    1652,   1.1647058820e-01,   2.1235294100e-01
    1653,   1.4044117640e-01,   2.1235294100e-01
    1654,   1.6441176460e-01,   2.1235294100e-01
    1655,   1.8838235280e-01,   2.1235294100e-01
    1656,   2.1235294100e-01,   2.1235294100e-01
    1657,   2.3632352920e-01,   2.1235294100e-01
    1658,   2.6029411740e-01,   2.1235294100e-01
    1659,   2.8426470560e-01,   2.1235294100e-01
    1660,   3.0823529380e-01,   2.1235294100e-01
    1661,   3.3220588200e-01,   2.1235294100e-01
    1662,   3.5617647020e-01,   2.1235294100e-01
    1663,   3.8014705840e-01,   2.1235294100e-01
    1664,   4.0411764660e-01,   2.1235294100e-01
    1665,   4.2808823480e-01,   2.1235294100e-01
    1666,   4.5205882300e-01,   2.1235294100e-01
    1667,   4.7602941120e-01,   2.1235294100e-01
    1668,   5.0000000000e-01,   2.1235294100e-01
    1669,  -5.0000000000e-01,   2.3632352920e-01
    1670,  -4.7602941180e-01,   2.3632352920e-01
    1671,  -4.5205882360e-01,   2.3632352920e-01
    1672,  -4.2808823540e-01,   2.3632352920e-01
    1673,  -4.0411764720e-01,   2.3632352920e-01
    1674,  -3.8014705900e-01,   2.3632352920e-01
    1675,  -3.5617647080e-01,   2.3632352920e-01
    1676,  -3.3220588260e-01,   2.3632352920e-01
    1677,  -3.0823529440e-01,   2.3632352920e-01
    1678,  -2.8426470620e-01,   2.3632352920e-01
    1679,  -2.6029411800e-01,   2.3632352920e-01
    1680,  -2.3632352980e-01,   2.3632352920e-01
    1681,  -2.1235294160e-01,   2.3632352920e-01
    1682,  -1.8838235340e-01,   2.3632352920e-01
    1683,  -1.6441176520e-01,   2.3632352920e-01
    1684,  -1.4044117700e-01,   2.3632352920e-01
    1685,  -1.1647058880e-01,   2.3632352920e-01
    1686,  -9.2500000600e-02,   2.3632352920e-01
    1687,  -6.7500000600e-02,   2.3632352920e-01
    1688,  -4.5000000600e-02,   2.3632352920e-01
    1689,  -3.0000000600e-02,   2.3632352920e-01
    1690,  -2.0000000600e-02,   2.3632352920e-01
    1691,  -1.0000000600e-02,   2.3632352920e-01
    1692,   0.0000000000e+00,   2.3632352920e-01
    1693,   1.0000000000e-02,   2.3632352920e-01
    1694,   2.0000000000e-02,   2.3632352920e-01
    1695,   3.0000000000e-02,   2.3632352920e-01
    1696,   4.5000000000e-02,   2.3632352920e-01
    1697,   6.7500000000e-02,   2.3632352920e-01
    1698,   9.2500000000e-02,   2.3632352920e-01
    1699,   1.1647058820e-01,   2.3632352920e-01
    1700,   1.4044117640e-01,   2.3632352920e-01
    1701,   1.6441176460e-01,   2.3632352920e-01
    1702,   1.8838235280e-01,   2.3632352920e-01
    1703,   2.1235294100e-01,   2.3632352920e-01
    1704,   2.3632352920e-01,   2.3632352920e-01
    1705,   2.6029411740e-01,   2.3632352920e-01
    1706,   2.8426470560e-01,   2.3632352920e-01
    1707,   3.0823529380e-01,   2.3632352920e-01
    1708,   3.3220588200e-01,   2.3632352920e-01
    1709,   3.5617647020e-01,   2.3632352920e-01
    1710,   3.8014705840e-01,   2.3632352920e-01
    1711,   4.0411764660e-01,   2.3632352920e-01
    1712,   4.2808823480e-01,   2.3632352920e-01
    1713,   4.5205882300e-01,   2.3632352920e-01
    1714,   4.7602941120e-01,   2.3632352920e-01
    1715,   5.0000000000e-01,   2.3632352920e-01
    1716,  -5.0000000000e-01,   2.6029411740e-01
    1717,  -4.7602941180e-01,   2.6029411740e-01
    1718,  -4.5205882360e-01,   2.6029411740e-01
    1719,  -4.2808823540e-01,   2.6029411740e-01
    1720,  -4.0411764720e-01,   2.6029411740e-01
    1721,  -3.8014705900e-01,   2.6029411740e-01
    1722,  -3.5617647080e-01,   2.6029411740e-01
    1723,  -3.3220588260e-01,   2.6029411740e-01
    1724,  -3.0823529440e-01,   2.6029411740e-01
    1725,  -2.8426470620e-01,   2.6029411740e-01
    1726,  -2.6029411800e-01,   2.6029411740e-01
    1727,  -2.3632352980e-01,   2.6029411740e-01
    1728,  -2.1235294160e-01,   2.6029411740e-01
    1729,  -1.8838235340e-01,   2.6029411740e-01
    1730,  -1.6441176520e-01,   2.6029411740e-01
    1731,  -1.4044117700e-01,   2.6029411740e-01
    1732,  -1.1647058880e-01,   2.6029411740e-01
    1733,  -9.2500000600e-02,   2.6029411740e-01
    1734,  -6.7500000600e-02,   2.6029411740e-01
    1735,  -4.5000000600e-02,   2.6029411740e-01
    1736,  -3.0000000600e-02,   2.6029411740e-01
    1737,  -2.0000000600e-02,   2.6029411740e-01
    1738,  -1.0000000600e-02,   2.6029411740e-01
    1739,   0.0000000000e+00,   2.6029411740e-01
    1740,   1.0000000000e-02,   2.6029411740e-01
    1741,   2.0000000000e-02,   2.6029411740e-01
    1742,   3.0000000000e-02,   2.6029411740e-01
    1743,   4.5000000000e-02,   2.6029411740e-01
    1744,   6.7500000000e-02,   2.6029411740e-01
    1745,   9.2500000000e-02,   2.6029411740e-01
    1746,   1.1647058820e-01,   2.6029411740e-01
    1747,   1.4044117640e-01,   2.6029411740e-01
    1748,   1.6441176460e-01,   2.6029411740e-01
    1749,   1.8838235280e-01,   2.6029411740e-01
    1750,   2.1235294100e-01,   2.6029411740e-01
    1751,   2.3632352920e-01,   2.6029411740e-01
    1752,   2.6029411740e-01,   2.6029411740e-01
    1753,   2.8426470560e-01,   2.6029411740e-01
    1754,   3.0823529380e-01,   2.6029411740e-01
    1755,   3.3220588200e-01,   2.6029411740e-01
    1756,   3.5617647020e-01,   2.6029411740e-01
    1757,   3.8014705840e-01,   2.6029411740e-01
    1758,   4.0411764660e-01,   2.6029411740e-01
    1759,   4.2808823480e-01,   2.6029411740e-01
    1760,   4.5205882300e-01,   2.6029411740e-01
    1761,   4.7602941120e-01,   2.6029411740e-01
    1762,   5.0000000000e-01,   2.6029411740e-01
    1763,  -5.0000000000e-01,   2.8426470560e-01
    1764,  -4.7602941180e-01,   2.8426470560e-01
    1765,  -4.5205882360e-01,   2.8426470560e-01
    1766,  -4.2808823540e-01,   2.8426470560e-01
    1767,  -4.0411764720e-01,   2.8426470560e-01
    1768,  -3.8014705900e-01,   2.8426470560e-01
    1769,  -3.5617647080e-01,   2.8426470560e-01
    1770,  -3.3220588260e-01,   2.8426470560e-01
    1771,  -3.0823529440e-01,   2.8426470560e-01
    1772,  -2.8426470620e-01,   2.8426470560e-01
    1773,  -2.6029411800e-01,   2.8426470560e-01
    1774,  -2.3632352980e-01,   2.8426470560e-01
    1775,  -2.1235294160e-01,   2.8426470560e-01
    1776,  -1.8838235340e-01,   2.8426470560e-01
    1777,  -1.6441176520e-01,   2.8426470560e-01
    1778,  -1.4044117700e-01,   2.8426470560e-01
    1779,  -1.1647058880e-01,   2.8426470560e-01
    1780,  -9.2500000600e-02,   2.8426470560e-01
    1781,  -6.7500000600e-02,   2.8426470560e-01
    1782,  -4.5000000600e-02,   2.8426470560e-01
    1783,  -3.0000000600e-02,   2.8426470560e-01
    1784,  -2.0000000600e-02,   2.8426470560e-01
    1785,  -1.0000000600e-02,   2.8426470560e-01
    1786,   0.0000000000e+00,   2.8426470560e-01
    1787,   1.0000000000e-02,   2.8426470560e-01
    1788,   2.0000000000e-02,   2.8426470560e-01
    1789,   3.0000000000e-02,   2.8426470560e-01
    1790,   4.5000000000e-02,   2.8426470560e-01
    1791,   6.7500000000e-02,   2.8426470560e-01
    1792,   9.2500000000e-02,   2.8426470560e-01
    1793,   1.1647058820e-01,   2.8426470560e-01
    1794,   1.4044117640e-01,   2.8426470560e-01
    1795,   1.6441176460e-01,   2.8426470560e-01
    1796,   1.8838235280e-01,   2.8426470560e-01
    1797,   2.1235294100e-01,   2.8426470560e-01
    1798,   2.3632352920e-01,   2.8426470560e-01
    1799,   2.6029411740e-01,   2.8426470560e-01
    1800,   2.8426470560e-01,   2.8426470560e-01
    1801,   3.0823529380e-01,   2.8426470560e-01
    1802,   3.3220588200e-01,   2.8426470560e-01
    1803,   3.5617647020e-01,   2.8426470560e-01
    1804,   3.8014705840e-01,   2.8426470560e-01
    1805,   4.0411764660e-01,   2.8426470560e-01
    1806,   4.2808823480e-01,   2.8426470560e-01
    1807,   4.5205882300e-01,   2.8426470560e-01
    1808,   4.7602941120e-01,   2.8426470560e-01
    1809,   5.0000000000e-01,   2.8426470560e-01
    1810,  -5.0000000000e-01,   3.0823529380e-01
    1811,  -4.7602941180e-01,   3.0823529380e-01
    1812,  -4.5205882360e-01,   3.0823529380e-01
    1813,  -4.2808823540e-01,   3.0823529380e-01
    1814,  -4.0411764720e-01,   3.0823529380e-01
    1815,  -3.8014705900e-01,   3.0823529380e-01
    1816,  -3.5617647080e-01,   3.0823529380e-01
    1817,  -3.3220588260e-01,   3.0823529380e-01
    1818,  -3.0823529440e-01,   3.0823529380e-01
    1819,  -2.8426470620e-01,   3.0823529380e-01
    1820,  -2.6029411800e-01,   3.0823529380e-01
    1821,  -2.3632352980e-01,   3.0823529380e-01
    1822,  -2.1235294160e-01,   3.0823529380e-01
    1823,  -1.8838235340e-01,   3.0823529380e-01
    1824,  -1.6441176520e-01,   3.0823529380e-01
    1825,  -1.4044117700e-01,   3.0823529380e-01
    1826,  -1.1647058880e-01,   3.0823529380e-01
    1827,  -9.2500000600e-02,   3.0823529380e-01
    1828,  -6.7500000600e-02,   3.0823529380e-01
    1829,  -4.5000000600e-02,   3.0823529380e-01
    1830,  -3.0000000600e-02,   3.0823529380e-01
    1831,  -2.0000000600e-02,   3.0823529380e-01
    1832,  -1.0000000600e-02,   3.0823529380e-01
    1833,   0.0000000000e+00,   3.0823529380e-01
    1834,   1.0000000000e-02,   3.0823529380e-01
    1835,   2.0000000000e-02,   3.0823529380e-01
    1836,   3.0000000000e-02,   3.0823529380e-01
    1837,   4.5000000000e-02,   3.0823529380e-01
    1838,   6.7500000000e-02,   3.0823529380e-01
    1839,   9.2500000000e-02,   3.0823529380e-01
    1840,   1.1647058820e-01,   3.0823529380e-01
    1841,   1.4044117640e-01,   3.0823529380e-01
    1842,   1.6441176460e-01,   3.0823529380e-01
    1843,   1.8838235280e-01,   3.0823529380e-01
    1844,   2.1235294100e-01,   3.0823529380e-01
    1845,   2.3632352920e-01,   3.0823529380e-01
    1846,   2.6029411740e-01,   3.0823529380e-01
    1847,   2.8426470560e-01,   3.0823529380e-01
    1848,   3.0823529380e-01,   3.0823529380e-01
    1849,   3.3220588200e-01,   3.0823529380e-01
    1850,   3.5617647020e-01,   3.0823529380e-01
    1851,   3.8014705840e-01,   3.0823529380e-01
    1852,   4.0411764660e-01,   3.0823529380e-01
    1853,   4.2808823480e-01,   3.0823529380e-01
    1854,   4.5205882300e-01,   3.0823529380e-01
    1855,   4.7602941120e-01,   3.0823529380e-01
    1856,   5.0000000000e-01,   3.0823529380e-01
    1857,  -5.0000000000e-01,   3.3220588200e-01
    1858,  -4.7602941180e-01,   3.3220588200e-01
    1859,  -4.5205882360e-01,   3.3220588200e-01
    1860,  -4.2808823540e-01,   3.3220588200e-01
    1861,  -4.0411764720e-01,   3.3220588200e-01
    1862,  -3.8014705900e-01,   3.3220588200e-01
    1863,  -3.5617647080e-01,   3.3220588200e-01
    1864,  -3.3220588260e-01,   3.3220588200e-01
    1865,  -3.0823529440e-01,   3.3220588200e-01
    1866,  -2.8426470620e-01,   3.3220588200e-01
    1867,  -2.6029411800e-01,   3.3220588200e-01
    1868,  -2.3632352980e-01,   3.3220588200e-01
    1869,  -2.1235294160e-01,   3.3220588200e-01
    1870,  -1.8838235340e-01,   3.3220588200e-01
    1871,  -1.6441176520e-01,   3.3220588200e-01
    1872,  -1.4044117700e-01,   3.3220588200e-01
    1873,  -1.1647058880e-01,   3.3220588200e-01
    1874,  -9.2500000600e-02,   3.3220588200e-01
    1875,  -6.7500000600e-02,   3.3220588200e-01
    1876,  -4.5000000600e-02,   3.3220588200e-01
    1877,  -3.0000000600e-02,   3.3220588200e-01
    1878,  -2.0000000600e-02,   3.3220588200e-01
    1879,  -1.0000000600e-02,   3.3220588200e-01
    1880,   0.0000000000e+00,   3.3220588200e-01
    1881,   1.0000000000e-02,   3.3220588200e-01
    1882,   2.0000000000e-02,   3.3220588200e-01
    1883,   3.0000000000e-02,   3.3220588200e-01
    1884,   4.5000000000e-02,   3.3220588200e-01
    1885,   6.7500000000e-02,   3.3220588200e-01
    1886,   9.2500000000e-02,   3.3220588200e-01
    1887,   1.1647058820e-01,   3.3220588200e-01
    1888,   1.4044117640e-01,   3.3220588200e-01
    1889,   1.6441176460e-01,   3.3220588200e-01
    1890,   1.8838235280e-01,   3.3220588200e-01
    1891,   2.1235294100e-01,   3.3220588200e-01
    1892,   2.3632352920e-01,   3.3220588200e-01
    1893,   2.6029411740e-01,   3.3220588200e-01
    1894,   2.8426470560e-01,   3.3220588200e-01
    1895,   3.0823529380e-01,   3.3220588200e-01
    1896,   3.3220588200e-01,   3.3220588200e-01
    1897,   3.5617647020e-01,   3.3220588200e-01
    1898,   3.8014705840e-01,   3.3220588200e-01
    1899,   4.0411764660e-01,   3.3220588200e-01
    1900,   4.2808823480e-01,   3.3220588200e-01
    1901,   4.5205882300e-01,   3.3220588200e-01
    1902,   4.7602941120e-01,   3.3220588200e-01
    1903,   5.0000000000e-01,   3.3220588200e-01
    1904,  -5.0000000000e-01,   3.5617647020e-01
    1905,  -4.7602941180e-01,   3.5617647020e-01
    1906,  -4.5205882360e-01,   3.5617647020e-01
    1907,  -4.2808823540e-01,   3.5617647020e-01
    1908,  -4.0411764720e-01,   3.5617647020e-01
    1909,  -3.8014705900e-01,   3.5617647020e-01
    1910,  -3.5617647080e-01,   3.5617647020e-01
    1911,  -3.3220588260e-01,   3.5617647020e-01
    1912,  -3.0823529440e-01,   3.5617647020e-01
    1913,  -2.8426470620e-01,   3.5617647020e-01
    1914,  -2.6029411800e-01,   3.5617647020e-01
    1915,  -2.3632352980e-01,   3.5617647020e-01
    1916,  -2.1235294160e-01,   3.5617647020e-01
    1917,  -1.8838235340e-01,   3.5617647020e-01
    1918,  -1.6441176520e-01,   3.5617647020e-01
    1919,  -1.4044117700e-01,   3.5617647020e-01
    1920,  -1.1647058880e-01,   3.5617647020e-01
    1921,  -9.2500000600e-02,   3.5617647020e-01
    1922,  -6.7500000600e-02,   3.5617647020e-01
    1923,  -4.5000000600e-02,   3.5617647020e-01
    1924,  -3.0000000600e-02,   3.5617647020e-01
    1925,  -2.0000000600e-02,   3.5617647020e-01
    1926,  -1.0000000600e-02,   3.5617647020e-01
    1927,   0.0000000000e+00,   3.5617647020e-01
    1928,   1.0000000000e-02,   3.5617647020e-01
    1929,   2.0000000000e-02,   3.5617647020e-01
    1930,   3.0000000000e-02,   3.5617647020e-01
    1931,   4.5000000000e-02,   3.5617647020e-01
    1932,   6.7500000000e-02,   3.5617647020e-01
    1933,   9.2500000000e-02,   3.5617647020e-01
    1934,   1.1647058820e-01,   3.5617647020e-01
    1935,   1.4044117640e-01,   3.5617647020e-01
    1936,   1.6441176460e-01,   3.5617647020e-01
    1937,   1.8838235280e-01,   3.5617647020e-01
    1938,   2.1235294100e-01,   3.5617647020e-01
    1939,   2.3632352920e-01,   3.5617647020e-01
    1940,   2.6029411740e-01,   3.5617647020e-01
    1941,   2.8426470560e-01,   3.5617647020e-01
    1942,   3.0823529380e-01,   3.5617647020e-01
    1943,   3.3220588200e-01,   3.5617647020e-01
    1944,   3.5617647020e-01,   3.5617647020e-01
    1945,   3.8014705840e-01,   3.5617647020e-01
    1946,   4.0411764660e-01,   3.5617647020e-01
    1947,   4.2808823480e-01,   3.5617647020e-01
    1948,   4.5205882300e-01,   3.5617647020e-01
    1949,   4.7602941120e-01,   3.5617647020e-01
    1950,   5.0000000000e-01,   3.5617647020e-01
    1951,  -5.0000000000e-01,   3.8014705840e-01
    1952,  -4.7602941180e-01,   3.8014705840e-01
    1953,  -4.5205882360e-01,   3.8014705840e-01
    1954,  -4.2808823540e-01,   3.8014705840e-01
    1955,  -4.0411764720e-01,   3.8014705840e-01
    1956,  -3.8014705900e-01,   3.8014705840e-01
    1957,  -3.5617647080e-01,   3.8014705840e-01
    1958,  -3.3220588260e-01,   3.8014705840e-01
    1959,  -3.0823529440e-01,   3.8014705840e-01
    1960,  -2.8426470620e-01,   3.8014705840e-01
    1961,  -2.6029411800e-01,   3.8014705840e-01
    1962,  -2.3632352980e-01,   3.8014705840e-01
    1963,  -2.1235294160e-01,   3.8014705840e-01
    1964,  -1.8838235340e-01,   3.8014705840e-01
    1965,  -1.6441176520e-01,   3.8014705840e-01
    1966,  -1.4044117700e-01,   3.8014705840e-01
    1967,  -1.1647058880e-01,   3.8014705840e-01
    1968,  -9.2500000600e-02,   3.8014705840e-01
    1969,  -6.7500000600e-02,   3.8014705840e-01
    1970,  -4.5000000600e-02,   3.8014705840e-01
    1971,  -3.0000000600e-02,   3.8014705840e-01
    1972,  -2.0000000600e-02,   3.8014705840e-01
    1973,  -1.0000000600e-02,   3.8014705840e-01
    1974,   0.0000000000e+00,   3.8014705840e-01
    1975,   1.0000000000e-02,   3.8014705840e-01
    1976,   2.0000000000e-02,   3.8014705840e-01
    1977,   3.0000000000e-02,   3.8014705840e-01
    1978,   4.5000000000e-02,   3.8014705840e-01
    1979,   6.7500000000e-02,   3.8014705840e-01
    1980,   9.2500000000e-02,   3.8014705840e-01
    1981,   1.1647058820e-01,   3.8014705840e-01
    1982,   1.4044117640e-01,   3.8014705840e-01
    1983,   1.6441176460e-01,   3.8014705840e-01
    1984,   1.8838235280e-01,   3.8014705840e-01
    1985,   2.1235294100e-01,   3.8014705840e-01
    1986,   2.3632352920e-01,   3.8014705840e-01
    1987,   2.6029411740e-01,   3.8014705840e-01
    1988,   2.8426470560e-01,   3.8014705840e-01
    1989,   3.0823529380e-01,   3.8014705840e-01
    1990,   3.3220588200e-01,   3.8014705840e-01
    1991,   3.5617647020e-01,   3.8014705840e-01
    1992,   3.8014705840e-01,   3.8014705840e-01
    1993,   4.0411764660e-01,   3.8014705840e-01
    1994,   4.2808823480e-01,   3.8014705840e-01
    1995,   4.5205882300e-01,   3.8014705840e-01
    1996,   4.7602941120e-01,   3.8014705840e-01
    1997,   5.0000000000e-01,   3.8014705840e-01
    1998,  -5.0000000000e-01,   4.0411764660e-01
    1999,  -4.7602941180e-01,   4.0411764660e-01
    2000,  -4.5205882360e-01,   4.0411764660e-01
    2001,  -4.2808823540e-01,   4.0411764660e-01
    2002,  -4.0411764720e-01,   4.0411764660e-01
    2003,  -3.8014705900e-01,   4.0411764660e-01
    2004,  -3.5617647080e-01,   4.0411764660e-01
    2005,  -3.3220588260e-01,   4.0411764660e-01
    2006,  -3.0823529440e-01,   4.0411764660e-01
    2007,  -2.8426470620e-01,   4.0411764660e-01
    2008,  -2.6029411800e-01,   4.0411764660e-01
    2009,  -2.3632352980e-01,   4.0411764660e-01
    2010,  -2.1235294160e-01,   4.0411764660e-01
    2011,  -1.8838235340e-01,   4.0411764660e-01
    2012,  -1.6441176520e-01,   4.0411764660e-01
    2013,  -1.4044117700e-01,   4.0411764660e-01
    2014,  -1.1647058880e-01,   4.0411764660e-01
    2015,  -9.2500000600e-02,   4.0411764660e-01
    2016,  -6.7500000600e-02,   4.0411764660e-01
    2017,  -4.5000000600e-02,   4.0411764660e-01
    2018,  -3.0000000600e-02,   4.0411764660e-01
    2019,  -2.0000000600e-02,   4.0411764660e-01
    2020,  -1.0000000600e-02,   4.0411764660e-01
    2021,   0.0000000000e+00,   4.0411764660e-01
    2022,   1.0000000000e-02,   4.0411764660e-01
    2023,   2.0000000000e-02,   4.0411764660e-01
    2024,   3.0000000000e-02,   4.0411764660e-01
    2025,   4.5000000000e-02,   4.0411764660e-01
    2026,   6.7500000000e-02,   4.0411764660e-01
    2027,   9.2500000000e-02,   4.0411764660e-01
    2028,   1.1647058820e-01,   4.0411764660e-01
    2029,   1.4044117640e-01,   4.0411764660e-01
    2030,   1.6441176460e-01,   4.0411764660e-01
    2031,   1.8838235280e-01,   4.0411764660e-01
    2032,   2.1235294100e-01,   4.0411764660e-01
    2033,   2.3632352920e-01,   4.0411764660e-01
    2034,   2.6029411740e-01,   4.0411764660e-01
    2035,   2.8426470560e-01,   4.0411764660e-01
    2036,   3.0823529380e-01,   4.0411764660e-01
    2037,   3.3220588200e-01,   4.0411764660e-01
    2038,   3.5617647020e-01,   4.0411764660e-01
    2039,   3.8014705840e-01,   4.0411764660e-01
    2040,   4.0411764660e-01,   4.0411764660e-01
    2041,   4.2808823480e-01,   4.0411764660e-01
    2042,   4.5205882300e-01,   4.0411764660e-01
    2043,   4.7602941120e-01,   4.0411764660e-01
    2044,   5.0000000000e-01,   4.0411764660e-01
    2045,  -5.0000000000e-01,   4.2808823480e-01
    2046,  -4.7602941180e-01,   4.2808823480e-01
    2047,  -4.5205882360e-01,   4.2808823480e-01
    2048,  -4.2808823540e-01,   4.2808823480e-01
    2049,  -4.0411764720e-01,   4.2808823480e-01
    2050,  -3.8014705900e-01,   4.2808823480e-01
    2051,  -3.5617647080e-01,   4.2808823480e-01
    2052,  -3.3220588260e-01,   4.2808823480e-01
    2053,  -3.0823529440e-01,   4.2808823480e-01
    2054,  -2.8426470620e-01,   4.2808823480e-01
    2055,  -2.6029411800e-01,   4.2808823480e-01
    2056,  -2.3632352980e-01,   4.2808823480e-01
    2057,  -2.1235294160e-01,   4.2808823480e-01
    2058,  -1.8838235340e-01,   4.2808823480e-01
    2059,  -1.6441176520e-01,   4.2808823480e-01
    2060,  -1.4044117700e-01,   4.2808823480e-01
    2061,  -1.1647058880e-01,   4.2808823480e-01
    2062,  -9.2500000600e-02,   4.2808823480e-01
    2063,  -6.7500000600e-02,   4.2808823480e-01
    2064,  -4.5000000600e-02,   4.2808823480e-01
    2065,  -3.0000000600e-02,   4.2808823480e-01
    2066,  -2.0000000600e-02,   4.2808823480e-01
    2067,  -1.0000000600e-02,   4.2808823480e-01
    2068,   0.0000000000e+00,   4.2808823480e-01
    2069,   1.0000000000e-02,   4.2808823480e-01
    2070,   2.0000000000e-02,   4.2808823480e-01
    2071,   3.0000000000e-02,   4.2808823480e-01
    2072,   4.5000000000e-02,   4.2808823480e-01
    2073,   6.7500000000e-02,   4.2808823480e-01
    2074,   9.2500000000e-02,   4.2808823480e-01
    2075,   1.1647058820e-01,   4.2808823480e-01
    2076,   1.4044117640e-01,   4.2808823480e-01
    2077,   1.6441176460e-01,   4.2808823480e-01
    2078,   1.8838235280e-01,   4.2808823480e-01
    2079,   2.1235294100e-01,   4.2808823480e-01
    2080,   2.3632352920e-01,   4.2808823480e-01
    2081,   2.6029411740e-01,   4.2808823480e-01
    2082,   2.8426470560e-01,   4.2808823480e-01
    2083,   3.0823529380e-01,   4.2808823480e-01
    2084,   3.3220588200e-01,   4.2808823480e-01
    2085,   3.5617647020e-01,   4.2808823480e-01
    2086,   3.8014705840e-01,   4.2808823480e-01
    2087,   4.0411764660e-01,   4.2808823480e-01
    2088,   4.2808823480e-01,   4.2808823480e-01
    2089,   4.5205882300e-01,   4.2808823480e-01
    2090,   4.7602941120e-01,   4.2808823480e-01
    2091,   5.0000000000e-01,   4.2808823480e-01
    2092,  -5.0000000000e-01,   4.5205882300e-01
    2093,  -4.7602941180e-01,   4.5205882300e-01
    2094,  -4.5205882360e-01,   4.5205882300e-01
    2095,  -4.2808823540e-01,   4.5205882300e-01
    2096,  -4.0411764720e-01,   4.5205882300e-01
    2097,  -3.8014705900e-01,   4.5205882300e-01
    2098,  -3.5617647080e-01,   4.5205882300e-01
    2099,  -3.3220588260e-01,   4.5205882300e-01
    2100,  -3.0823529440e-01,   4.5205882300e-01
    2101,  -2.8426470620e-01,   4.5205882300e-01
    2102,  -2.6029411800e-01,   4.5205882300e-01
    2103,  -2.3632352980e-01,   4.5205882300e-01
    2104,  -2.1235294160e-01,   4.5205882300e-01
    2105,  -1.8838235340e-01,   4.5205882300e-01
    2106,  -1.6441176520e-01,   4.5205882300e-01
    2107,  -1.4044117700e-01,   4.5205882300e-01
    2108,  -1.1647058880e-01,   4.5205882300e-01
    2109,  -9.2500000600e-02,   4.5205882300e-01
    2110,  -6.7500000600e-02,   4.5205882300e-01
    2111,  -4.5000000600e-02,   4.5205882300e-01
    2112,  -3.0000000600e-02,   4.5205882300e-01
    2113,  -2.0000000600e-02,   4.5205882300e-01
    2114,  -1.0000000600e-02,   4.5205882300e-01
    2115,   0.0000000000e+00,   4.5205882300e-01
    2116,   1.0000000000e-02,   4.5205882300e-01
    2117,   2.0000000000e-02,   4.5205882300e-01
    2118,   3.0000000000e-02,   4.5205882300e-01
    2119,   4.5000000000e-02,   4.5205882300e-01
    2120,   6.7500000000e-02,   4.5205882300e-01
    2121,   9.2500000000e-02,   4.5205882300e-01
    2122,   1.1647058820e-01,   4.5205882300e-01
    2123,   1.4044117640e-01,   4.5205882300e-01
    2124,   1.6441176460e-01,   4.5205882300e-01
    2125,   1.8838235280e-01,   4.5205882300e-01
    2126,   2.1235294100e-01,   4.5205882300e-01
    2127,   2.3632352920e-01,   4.5205882300e-01
    2128,   2.6029411740e-01,   4.5205882300e-01
    2129,   2.8426470560e-01,   4.5205882300e-01
    2130,   3.0823529380e-01,   4.5205882300e-01
    2131,   3.3220588200e-01,   4.5205882300e-01
    2132,   3.5617647020e-01,   4.5205882300e-01
    2133,   3.8014705840e-01,   4.5205882300e-01
    2134,   4.0411764660e-01,   4.5205882300e-01
    2135,   4.2808823480e-01,   4.5205882300e-01
    2136,   4.5205882300e-01,   4.5205882300e-01
    2137,   4.7602941120e-01,   4.5205882300e-01
    2138,   5.0000000000e-01,   4.5205882300e-01
    2139,  -5.0000000000e-01,   4.7602941120e-01
    2140,  -4.7602941180e-01,   4.7602941120e-01
    2141,  -4.5205882360e-01,   4.7602941120e-01
    2142,  -4.2808823540e-01,   4.7602941120e-01
    2143,  -4.0411764720e-01,   4.7602941120e-01
    2144,  -3.8014705900e-01,   4.7602941120e-01
    2145,  -3.5617647080e-01,   4.7602941120e-01
    2146,  -3.3220588260e-01,   4.7602941120e-01
    2147,  -3.0823529440e-01,   4.7602941120e-01
    2148,  -2.8426470620e-01,   4.7602941120e-01
    2149,  -2.6029411800e-01,   4.7602941120e-01
    2150,  -2.3632352980e-01,   4.7602941120e-01
    2151,  -2.1235294160e-01,   4.7602941120e-01
    2152,  -1.8838235340e-01,   4.7602941120e-01
    2153,  -1.6441176520e-01,   4.7602941120e-01
    2154,  -1.4044117700e-01,   4.7602941120e-01
    2155,  -1.1647058880e-01,   4.7602941120e-01
    2156,  -9.2500000600e-02,   4.7602941120e-01
    2157,  -6.7500000600e-02,   4.7602941120e-01
    2158,  -4.5000000600e-02,   4.7602941120e-01
    2159,  -3.0000000600e-02,   4.7602941120e-01
    2160,  -2.0000000600e-02,   4.7602941120e-01
    2161,  -1.0000000600e-02,   4.7602941120e-01
    2162,   0.0000000000e+00,   4.7602941120e-01
    2163,   1.0000000000e-02,   4.7602941120e-01
    2164,   2.0000000000e-02,   4.7602941120e-01
    2165,   3.0000000000e-02,   4.7602941120e-01
    2166,   4.5000000000e-02,   4.7602941120e-01
    2167,   6.7500000000e-02,   4.7602941120e-01
    2168,   9.2500000000e-02,   4.7602941120e-01
    2169,   1.1647058820e-01,   4.7602941120e-01
    2170,   1.4044117640e-01,   4.7602941120e-01
    2171,   1.6441176460e-01,   4.7602941120e-01
    2172,   1.8838235280e-01,   4.7602941120e-01
    2173,   2.1235294100e-01,   4.7602941120e-01
    2174,   2.3632352920e-01,   4.7602941120e-01
    2175,   2.6029411740e-01,   4.7602941120e-01
    2176,   2.8426470560e-01,   4.7602941120e-01
    2177,   3.0823529380e-01,   4.7602941120e-01
    2178,   3.3220588200e-01,   4.7602941120e-01
    2179,   3.5617647020e-01,   4.7602941120e-01
    2180,   3.8014705840e-01,   4.7602941120e-01
    2181,   4.0411764660e-01,   4.7602941120e-01
    2182,   4.2808823480e-01,   4.7602941120e-01
    2183,   4.5205882300e-01,   4.7602941120e-01
    2184,   4.7602941120e-01,   4.7602941120e-01
    2185,   5.0000000000e-01,   4.7602941120e-01
    2186,  -5.0000000000e-01,   5.0000000000e-01
    2187,  -4.7602941180e-01,   5.0000000000e-01
    2188,  -4.5205882360e-01,   5.0000000000e-01
    2189,  -4.2808823540e-01,   5.0000000000e-01
    2190,  -4.0411764720e-01,   5.0000000000e-01
    2191,  -3.8014705900e-01,   5.0000000000e-01
    2192,  -3.5617647080e-01,   5.0000000000e-01
    2193,  -3.3220588260e-01,   5.0000000000e-01
    2194,  -3.0823529440e-01,   5.0000000000e-01
    2195,  -2.8426470620e-01,   5.0000000000e-01
    2196,  -2.6029411800e-01,   5.0000000000e-01
    2197,  -2.3632352980e-01,   5.0000000000e-01
    2198,  -2.1235294160e-01,   5.0000000000e-01
    2199,  -1.8838235340e-01,   5.0000000000e-01
    2200,  -1.6441176520e-01,   5.0000000000e-01
    2201,  -1.4044117700e-01,   5.0000000000e-01
    2202,  -1.1647058880e-01,   5.0000000000e-01
    2203,  -9.2500000600e-02,   5.0000000000e-01
    2204,  -6.7500000600e-02,   5.0000000000e-01
    2205,  -4.5000000600e-02,   5.0000000000e-01
    2206,  -3.0000000600e-02,   5.0000000000e-01
    2207,  -2.0000000600e-02,   5.0000000000e-01
    2208,  -1.0000000600e-02,   5.0000000000e-01
    2209,   0.0000000000e+00,   5.0000000000e-01
    2210,   1.0000000000e-02,   5.0000000000e-01
    2211,   2.0000000000e-02,   5.0000000000e-01
    2212,   3.0000000000e-02,   5.0000000000e-01
    2213,   4.5000000000e-02,   5.0000000000e-01
    2214,   6.7500000000e-02,   5.0000000000e-01
    2215,   9.2500000000e-02,   5.0000000000e-01
    2216,   1.1647058820e-01,   5.0000000000e-01
    2217,   1.4044117640e-01,   5.0000000000e-01
    2218,   1.6441176460e-01,   5.0000000000e-01
    2219,   1.8838235280e-01,   5.0000000000e-01
    2220,   2.1235294100e-01,   5.0000000000e-01
    2221,   2.3632352920e-01,   5.0000000000e-01
    2222,   2.6029411740e-01,   5.0000000000e-01
    2223,   2.8426470560e-01,   5.0000000000e-01
    2224,   3.0823529380e-01,   5.0000000000e-01
    2225,   3.3220588200e-01,   5.0000000000e-01
    2226,   3.5617647020e-01,   5.0000000000e-01
    2227,   3.8014705840e-01,   5.0000000000e-01
    2228,   4.0411764660e-01,   5.0000000000e-01
    2229,   4.2808823480e-01,   5.0000000000e-01
    2230,   4.5205882300e-01,   5.0000000000e-01
    2231,   4.7602941120e-01,   5.0000000000e-01
    2232,   5.0000000000e-01,   5.0000000000e-01
** Layer 1: Phase Elements (1 .. 2116)
*Element, type=U1, elset=PHASE_QUAD
       1,       1,       2,      49,      48
       2,       2,       3,      50,      49
       3,       3,       4,      51,      50
       4,       4,       5,      52,      51
       5,       5,       6,      53,      52
       6,       6,       7,      54,      53
       7,       7,       8,      55,      54
       8,       8,       9,      56,      55
       9,       9,      10,      57,      56
      10,      10,      11,      58,      57
      11,      11,      12,      59,      58
      12,      12,      13,      60,      59
      13,      13,      14,      61,      60
      14,      14,      15,      62,      61
      15,      15,      16,      63,      62
      16,      16,      17,      64,      63
      17,      17,      18,      65,      64
      18,      18,      19,      66,      65
      19,      19,      20,      67,      66
      20,      20,      21,      68,      67
      21,      21,      22,      69,      68
      22,      22,      23,      70,      69
      23,      23,      24,      71,      70
      24,      24,      25,      72,      71
      25,      25,      26,      73,      72
      26,      26,      27,      74,      73
      27,      27,      28,      75,      74
      28,      28,      29,      76,      75
      29,      29,      30,      77,      76
      30,      30,      31,      78,      77
      31,      31,      32,      79,      78
      32,      32,      33,      80,      79
      33,      33,      34,      81,      80
      34,      34,      35,      82,      81
      35,      35,      36,      83,      82
      36,      36,      37,      84,      83
      37,      37,      38,      85,      84
      38,      38,      39,      86,      85
      39,      39,      40,      87,      86
      40,      40,      41,      88,      87
      41,      41,      42,      89,      88
      42,      42,      43,      90,      89
      43,      43,      44,      91,      90
      44,      44,      45,      92,      91
      45,      45,      46,      93,      92
      46,      46,      47,      94,      93
      47,      48,      49,      96,      95
      48,      49,      50,      97,      96
      49,      50,      51,      98,      97
      50,      51,      52,      99,      98
      51,      52,      53,     100,      99
      52,      53,      54,     101,     100
      53,      54,      55,     102,     101
      54,      55,      56,     103,     102
      55,      56,      57,     104,     103
      56,      57,      58,     105,     104
      57,      58,      59,     106,     105
      58,      59,      60,     107,     106
      59,      60,      61,     108,     107
      60,      61,      62,     109,     108
      61,      62,      63,     110,     109
      62,      63,      64,     111,     110
      63,      64,      65,     112,     111
      64,      65,      66,     113,     112
      65,      66,      67,     114,     113
      66,      67,      68,     115,     114
      67,      68,      69,     116,     115
      68,      69,      70,     117,     116
      69,      70,      71,     118,     117
      70,      71,      72,     119,     118
      71,      72,      73,     120,     119
      72,      73,      74,     121,     120
      73,      74,      75,     122,     121
      74,      75,      76,     123,     122
      75,      76,      77,     124,     123
      76,      77,      78,     125,     124
      77,      78,      79,     126,     125
      78,      79,      80,     127,     126
      79,      80,      81,     128,     127
      80,      81,      82,     129,     128
      81,      82,      83,     130,     129
      82,      83,      84,     131,     130
      83,      84,      85,     132,     131
      84,      85,      86,     133,     132
      85,      86,      87,     134,     133
      86,      87,      88,     135,     134
      87,      88,      89,     136,     135
      88,      89,      90,     137,     136
      89,      90,      91,     138,     137
      90,      91,      92,     139,     138
      91,      92,      93,     140,     139
      92,      93,      94,     141,     140
      93,      95,      96,     143,     142
      94,      96,      97,     144,     143
      95,      97,      98,     145,     144
      96,      98,      99,     146,     145
      97,      99,     100,     147,     146
      98,     100,     101,     148,     147
      99,     101,     102,     149,     148
     100,     102,     103,     150,     149
     101,     103,     104,     151,     150
     102,     104,     105,     152,     151
     103,     105,     106,     153,     152
     104,     106,     107,     154,     153
     105,     107,     108,     155,     154
     106,     108,     109,     156,     155
     107,     109,     110,     157,     156
     108,     110,     111,     158,     157
     109,     111,     112,     159,     158
     110,     112,     113,     160,     159
     111,     113,     114,     161,     160
     112,     114,     115,     162,     161
     113,     115,     116,     163,     162
     114,     116,     117,     164,     163
     115,     117,     118,     165,     164
     116,     118,     119,     166,     165
     117,     119,     120,     167,     166
     118,     120,     121,     168,     167
     119,     121,     122,     169,     168
     120,     122,     123,     170,     169
     121,     123,     124,     171,     170
     122,     124,     125,     172,     171
     123,     125,     126,     173,     172
     124,     126,     127,     174,     173
     125,     127,     128,     175,     174
     126,     128,     129,     176,     175
     127,     129,     130,     177,     176
     128,     130,     131,     178,     177
     129,     131,     132,     179,     178
     130,     132,     133,     180,     179
     131,     133,     134,     181,     180
     132,     134,     135,     182,     181
     133,     135,     136,     183,     182
     134,     136,     137,     184,     183
     135,     137,     138,     185,     184
     136,     138,     139,     186,     185
     137,     139,     140,     187,     186
     138,     140,     141,     188,     187
     139,     142,     143,     190,     189
     140,     143,     144,     191,     190
     141,     144,     145,     192,     191
     142,     145,     146,     193,     192
     143,     146,     147,     194,     193
     144,     147,     148,     195,     194
     145,     148,     149,     196,     195
     146,     149,     150,     197,     196
     147,     150,     151,     198,     197
     148,     151,     152,     199,     198
     149,     152,     153,     200,     199
     150,     153,     154,     201,     200
     151,     154,     155,     202,     201
     152,     155,     156,     203,     202
     153,     156,     157,     204,     203
     154,     157,     158,     205,     204
     155,     158,     159,     206,     205
     156,     159,     160,     207,     206
     157,     160,     161,     208,     207
     158,     161,     162,     209,     208
     159,     162,     163,     210,     209
     160,     163,     164,     211,     210
     161,     164,     165,     212,     211
     162,     165,     166,     213,     212
     163,     166,     167,     214,     213
     164,     167,     168,     215,     214
     165,     168,     169,     216,     215
     166,     169,     170,     217,     216
     167,     170,     171,     218,     217
     168,     171,     172,     219,     218
     169,     172,     173,     220,     219
     170,     173,     174,     221,     220
     171,     174,     175,     222,     221
     172,     175,     176,     223,     222
     173,     176,     177,     224,     223
     174,     177,     178,     225,     224
     175,     178,     179,     226,     225
     176,     179,     180,     227,     226
     177,     180,     181,     228,     227
     178,     181,     182,     229,     228
     179,     182,     183,     230,     229
     180,     183,     184,     231,     230
     181,     184,     185,     232,     231
     182,     185,     186,     233,     232
     183,     186,     187,     234,     233
     184,     187,     188,     235,     234
     185,     189,     190,     237,     236
     186,     190,     191,     238,     237
     187,     191,     192,     239,     238
     188,     192,     193,     240,     239
     189,     193,     194,     241,     240
     190,     194,     195,     242,     241
     191,     195,     196,     243,     242
     192,     196,     197,     244,     243
     193,     197,     198,     245,     244
     194,     198,     199,     246,     245
     195,     199,     200,     247,     246
     196,     200,     201,     248,     247
     197,     201,     202,     249,     248
     198,     202,     203,     250,     249
     199,     203,     204,     251,     250
     200,     204,     205,     252,     251
     201,     205,     206,     253,     252
     202,     206,     207,     254,     253
     203,     207,     208,     255,     254
     204,     208,     209,     256,     255
     205,     209,     210,     257,     256
     206,     210,     211,     258,     257
     207,     211,     212,     259,     258
     208,     212,     213,     260,     259
     209,     213,     214,     261,     260
     210,     214,     215,     262,     261
     211,     215,     216,     263,     262
     212,     216,     217,     264,     263
     213,     217,     218,     265,     264
     214,     218,     219,     266,     265
     215,     219,     220,     267,     266
     216,     220,     221,     268,     267
     217,     221,     222,     269,     268
     218,     222,     223,     270,     269
     219,     223,     224,     271,     270
     220,     224,     225,     272,     271
     221,     225,     226,     273,     272
     222,     226,     227,     274,     273
     223,     227,     228,     275,     274
     224,     228,     229,     276,     275
     225,     229,     230,     277,     276
     226,     230,     231,     278,     277
     227,     231,     232,     279,     278
     228,     232,     233,     280,     279
     229,     233,     234,     281,     280
     230,     234,     235,     282,     281
     231,     236,     237,     284,     283
     232,     237,     238,     285,     284
     233,     238,     239,     286,     285
     234,     239,     240,     287,     286
     235,     240,     241,     288,     287
     236,     241,     242,     289,     288
     237,     242,     243,     290,     289
     238,     243,     244,     291,     290
     239,     244,     245,     292,     291
     240,     245,     246,     293,     292
     241,     246,     247,     294,     293
     242,     247,     248,     295,     294
     243,     248,     249,     296,     295
     244,     249,     250,     297,     296
     245,     250,     251,     298,     297
     246,     251,     252,     299,     298
     247,     252,     253,     300,     299
     248,     253,     254,     301,     300
     249,     254,     255,     302,     301
     250,     255,     256,     303,     302
     251,     256,     257,     304,     303
     252,     257,     258,     305,     304
     253,     258,     259,     306,     305
     254,     259,     260,     307,     306
     255,     260,     261,     308,     307
     256,     261,     262,     309,     308
     257,     262,     263,     310,     309
     258,     263,     264,     311,     310
     259,     264,     265,     312,     311
     260,     265,     266,     313,     312
     261,     266,     267,     314,     313
     262,     267,     268,     315,     314
     263,     268,     269,     316,     315
     264,     269,     270,     317,     316
     265,     270,     271,     318,     317
     266,     271,     272,     319,     318
     267,     272,     273,     320,     319
     268,     273,     274,     321,     320
     269,     274,     275,     322,     321
     270,     275,     276,     323,     322
     271,     276,     277,     324,     323
     272,     277,     278,     325,     324
     273,     278,     279,     326,     325
     274,     279,     280,     327,     326
     275,     280,     281,     328,     327
     276,     281,     282,     329,     328
     277,     283,     284,     331,     330
     278,     284,     285,     332,     331
     279,     285,     286,     333,     332
     280,     286,     287,     334,     333
     281,     287,     288,     335,     334
     282,     288,     289,     336,     335
     283,     289,     290,     337,     336
     284,     290,     291,     338,     337
     285,     291,     292,     339,     338
     286,     292,     293,     340,     339
     287,     293,     294,     341,     340
     288,     294,     295,     342,     341
     289,     295,     296,     343,     342
     290,     296,     297,     344,     343
     291,     297,     298,     345,     344
     292,     298,     299,     346,     345
     293,     299,     300,     347,     346
     294,     300,     301,     348,     347
     295,     301,     302,     349,     348
     296,     302,     303,     350,     349
     297,     303,     304,     351,     350
     298,     304,     305,     352,     351
     299,     305,     306,     353,     352
     300,     306,     307,     354,     353
     301,     307,     308,     355,     354
     302,     308,     309,     356,     355
     303,     309,     310,     357,     356
     304,     310,     311,     358,     357
     305,     311,     312,     359,     358
     306,     312,     313,     360,     359
     307,     313,     314,     361,     360
     308,     314,     315,     362,     361
     309,     315,     316,     363,     362
     310,     316,     317,     364,     363
     311,     317,     318,     365,     364
     312,     318,     319,     366,     365
     313,     319,     320,     367,     366
     314,     320,     321,     368,     367
     315,     321,     322,     369,     368
     316,     322,     323,     370,     369
     317,     323,     324,     371,     370
     318,     324,     325,     372,     371
     319,     325,     326,     373,     372
     320,     326,     327,     374,     373
     321,     327,     328,     375,     374
     322,     328,     329,     376,     375
     323,     330,     331,     378,     377
     324,     331,     332,     379,     378
     325,     332,     333,     380,     379
     326,     333,     334,     381,     380
     327,     334,     335,     382,     381
     328,     335,     336,     383,     382
     329,     336,     337,     384,     383
     330,     337,     338,     385,     384
     331,     338,     339,     386,     385
     332,     339,     340,     387,     386
     333,     340,     341,     388,     387
     334,     341,     342,     389,     388
     335,     342,     343,     390,     389
     336,     343,     344,     391,     390
     337,     344,     345,     392,     391
     338,     345,     346,     393,     392
     339,     346,     347,     394,     393
     340,     347,     348,     395,     394
     341,     348,     349,     396,     395
     342,     349,     350,     397,     396
     343,     350,     351,     398,     397
     344,     351,     352,     399,     398
     345,     352,     353,     400,     399
     346,     353,     354,     401,     400
     347,     354,     355,     402,     401
     348,     355,     356,     403,     402
     349,     356,     357,     404,     403
     350,     357,     358,     405,     404
     351,     358,     359,     406,     405
     352,     359,     360,     407,     406
     353,     360,     361,     408,     407
     354,     361,     362,     409,     408
     355,     362,     363,     410,     409
     356,     363,     364,     411,     410
     357,     364,     365,     412,     411
     358,     365,     366,     413,     412
     359,     366,     367,     414,     413
     360,     367,     368,     415,     414
     361,     368,     369,     416,     415
     362,     369,     370,     417,     416
     363,     370,     371,     418,     417
     364,     371,     372,     419,     418
     365,     372,     373,     420,     419
     366,     373,     374,     421,     420
     367,     374,     375,     422,     421
     368,     375,     376,     423,     422
     369,     377,     378,     425,     424
     370,     378,     379,     426,     425
     371,     379,     380,     427,     426
     372,     380,     381,     428,     427
     373,     381,     382,     429,     428
     374,     382,     383,     430,     429
     375,     383,     384,     431,     430
     376,     384,     385,     432,     431
     377,     385,     386,     433,     432
     378,     386,     387,     434,     433
     379,     387,     388,     435,     434
     380,     388,     389,     436,     435
     381,     389,     390,     437,     436
     382,     390,     391,     438,     437
     383,     391,     392,     439,     438
     384,     392,     393,     440,     439
     385,     393,     394,     441,     440
     386,     394,     395,     442,     441
     387,     395,     396,     443,     442
     388,     396,     397,     444,     443
     389,     397,     398,     445,     444
     390,     398,     399,     446,     445
     391,     399,     400,     447,     446
     392,     400,     401,     448,     447
     393,     401,     402,     449,     448
     394,     402,     403,     450,     449
     395,     403,     404,     451,     450
     396,     404,     405,     452,     451
     397,     405,     406,     453,     452
     398,     406,     407,     454,     453
     399,     407,     408,     455,     454
     400,     408,     409,     456,     455
     401,     409,     410,     457,     456
     402,     410,     411,     458,     457
     403,     411,     412,     459,     458
     404,     412,     413,     460,     459
     405,     413,     414,     461,     460
     406,     414,     415,     462,     461
     407,     415,     416,     463,     462
     408,     416,     417,     464,     463
     409,     417,     418,     465,     464
     410,     418,     419,     466,     465
     411,     419,     420,     467,     466
     412,     420,     421,     468,     467
     413,     421,     422,     469,     468
     414,     422,     423,     470,     469
     415,     424,     425,     472,     471
     416,     425,     426,     473,     472
     417,     426,     427,     474,     473
     418,     427,     428,     475,     474
     419,     428,     429,     476,     475
     420,     429,     430,     477,     476
     421,     430,     431,     478,     477
     422,     431,     432,     479,     478
     423,     432,     433,     480,     479
     424,     433,     434,     481,     480
     425,     434,     435,     482,     481
     426,     435,     436,     483,     482
     427,     436,     437,     484,     483
     428,     437,     438,     485,     484
     429,     438,     439,     486,     485
     430,     439,     440,     487,     486
     431,     440,     441,     488,     487
     432,     441,     442,     489,     488
     433,     442,     443,     490,     489
     434,     443,     444,     491,     490
     435,     444,     445,     492,     491
     436,     445,     446,     493,     492
     437,     446,     447,     494,     493
     438,     447,     448,     495,     494
     439,     448,     449,     496,     495
     440,     449,     450,     497,     496
     441,     450,     451,     498,     497
     442,     451,     452,     499,     498
     443,     452,     453,     500,     499
     444,     453,     454,     501,     500
     445,     454,     455,     502,     501
     446,     455,     456,     503,     502
     447,     456,     457,     504,     503
     448,     457,     458,     505,     504
     449,     458,     459,     506,     505
     450,     459,     460,     507,     506
     451,     460,     461,     508,     507
     452,     461,     462,     509,     508
     453,     462,     463,     510,     509
     454,     463,     464,     511,     510
     455,     464,     465,     512,     511
     456,     465,     466,     513,     512
     457,     466,     467,     514,     513
     458,     467,     468,     515,     514
     459,     468,     469,     516,     515
     460,     469,     470,     517,     516
     461,     471,     472,     519,     518
     462,     472,     473,     520,     519
     463,     473,     474,     521,     520
     464,     474,     475,     522,     521
     465,     475,     476,     523,     522
     466,     476,     477,     524,     523
     467,     477,     478,     525,     524
     468,     478,     479,     526,     525
     469,     479,     480,     527,     526
     470,     480,     481,     528,     527
     471,     481,     482,     529,     528
     472,     482,     483,     530,     529
     473,     483,     484,     531,     530
     474,     484,     485,     532,     531
     475,     485,     486,     533,     532
     476,     486,     487,     534,     533
     477,     487,     488,     535,     534
     478,     488,     489,     536,     535
     479,     489,     490,     537,     536
     480,     490,     491,     538,     537
     481,     491,     492,     539,     538
     482,     492,     493,     540,     539
     483,     493,     494,     541,     540
     484,     494,     495,     542,     541
     485,     495,     496,     543,     542
     486,     496,     497,     544,     543
     487,     497,     498,     545,     544
     488,     498,     499,     546,     545
     489,     499,     500,     547,     546
     490,     500,     501,     548,     547
     491,     501,     502,     549,     548
     492,     502,     503,     550,     549
     493,     503,     504,     551,     550
     494,     504,     505,     552,     551
     495,     505,     506,     553,     552
     496,     506,     507,     554,     553
     497,     507,     508,     555,     554
     498,     508,     509,     556,     555
     499,     509,     510,     557,     556
     500,     510,     511,     558,     557
     501,     511,     512,     559,     558
     502,     512,     513,     560,     559
     503,     513,     514,     561,     560
     504,     514,     515,     562,     561
     505,     515,     516,     563,     562
     506,     516,     517,     564,     563
     507,     518,     519,     566,     565
     508,     519,     520,     567,     566
     509,     520,     521,     568,     567
     510,     521,     522,     569,     568
     511,     522,     523,     570,     569
     512,     523,     524,     571,     570
     513,     524,     525,     572,     571
     514,     525,     526,     573,     572
     515,     526,     527,     574,     573
     516,     527,     528,     575,     574
     517,     528,     529,     576,     575
     518,     529,     530,     577,     576
     519,     530,     531,     578,     577
     520,     531,     532,     579,     578
     521,     532,     533,     580,     579
     522,     533,     534,     581,     580
     523,     534,     535,     582,     581
     524,     535,     536,     583,     582
     525,     536,     537,     584,     583
     526,     537,     538,     585,     584
     527,     538,     539,     586,     585
     528,     539,     540,     587,     586
     529,     540,     541,     588,     587
     530,     541,     542,     589,     588
     531,     542,     543,     590,     589
     532,     543,     544,     591,     590
     533,     544,     545,     592,     591
     534,     545,     546,     593,     592
     535,     546,     547,     594,     593
     536,     547,     548,     595,     594
     537,     548,     549,     596,     595
     538,     549,     550,     597,     596
     539,     550,     551,     598,     597
     540,     551,     552,     599,     598
     541,     552,     553,     600,     599
     542,     553,     554,     601,     600
     543,     554,     555,     602,     601
     544,     555,     556,     603,     602
     545,     556,     557,     604,     603
     546,     557,     558,     605,     604
     547,     558,     559,     606,     605
     548,     559,     560,     607,     606
     549,     560,     561,     608,     607
     550,     561,     562,     609,     608
     551,     562,     563,     610,     609
     552,     563,     564,     611,     610
     553,     565,     566,     613,     612
     554,     566,     567,     614,     613
     555,     567,     568,     615,     614
     556,     568,     569,     616,     615
     557,     569,     570,     617,     616
     558,     570,     571,     618,     617
     559,     571,     572,     619,     618
     560,     572,     573,     620,     619
     561,     573,     574,     621,     620
     562,     574,     575,     622,     621
     563,     575,     576,     623,     622
     564,     576,     577,     624,     623
     565,     577,     578,     625,     624
     566,     578,     579,     626,     625
     567,     579,     580,     627,     626
     568,     580,     581,     628,     627
     569,     581,     582,     629,     628
     570,     582,     583,     630,     629
     571,     583,     584,     631,     630
     572,     584,     585,     632,     631
     573,     585,     586,     633,     632
     574,     586,     587,     634,     633
     575,     587,     588,     635,     634
     576,     588,     589,     636,     635
     577,     589,     590,     637,     636
     578,     590,     591,     638,     637
     579,     591,     592,     639,     638
     580,     592,     593,     640,     639
     581,     593,     594,     641,     640
     582,     594,     595,     642,     641
     583,     595,     596,     643,     642
     584,     596,     597,     644,     643
     585,     597,     598,     645,     644
     586,     598,     599,     646,     645
     587,     599,     600,     647,     646
     588,     600,     601,     648,     647
     589,     601,     602,     649,     648
     590,     602,     603,     650,     649
     591,     603,     604,     651,     650
     592,     604,     605,     652,     651
     593,     605,     606,     653,     652
     594,     606,     607,     654,     653
     595,     607,     608,     655,     654
     596,     608,     609,     656,     655
     597,     609,     610,     657,     656
     598,     610,     611,     658,     657
     599,     612,     613,     660,     659
     600,     613,     614,     661,     660
     601,     614,     615,     662,     661
     602,     615,     616,     663,     662
     603,     616,     617,     664,     663
     604,     617,     618,     665,     664
     605,     618,     619,     666,     665
     606,     619,     620,     667,     666
     607,     620,     621,     668,     667
     608,     621,     622,     669,     668
     609,     622,     623,     670,     669
     610,     623,     624,     671,     670
     611,     624,     625,     672,     671
     612,     625,     626,     673,     672
     613,     626,     627,     674,     673
     614,     627,     628,     675,     674
     615,     628,     629,     676,     675
     616,     629,     630,     677,     676
     617,     630,     631,     678,     677
     618,     631,     632,     679,     678
     619,     632,     633,     680,     679
     620,     633,     634,     681,     680
     621,     634,     635,     682,     681
     622,     635,     636,     683,     682
     623,     636,     637,     684,     683
     624,     637,     638,     685,     684
     625,     638,     639,     686,     685
     626,     639,     640,     687,     686
     627,     640,     641,     688,     687
     628,     641,     642,     689,     688
     629,     642,     643,     690,     689
     630,     643,     644,     691,     690
     631,     644,     645,     692,     691
     632,     645,     646,     693,     692
     633,     646,     647,     694,     693
     634,     647,     648,     695,     694
     635,     648,     649,     696,     695
     636,     649,     650,     697,     696
     637,     650,     651,     698,     697
     638,     651,     652,     699,     698
     639,     652,     653,     700,     699
     640,     653,     654,     701,     700
     641,     654,     655,     702,     701
     642,     655,     656,     703,     702
     643,     656,     657,     704,     703
     644,     657,     658,     705,     704
     645,     659,     660,     707,     706
     646,     660,     661,     708,     707
     647,     661,     662,     709,     708
     648,     662,     663,     710,     709
     649,     663,     664,     711,     710
     650,     664,     665,     712,     711
     651,     665,     666,     713,     712
     652,     666,     667,     714,     713
     653,     667,     668,     715,     714
     654,     668,     669,     716,     715
     655,     669,     670,     717,     716
     656,     670,     671,     718,     717
     657,     671,     672,     719,     718
     658,     672,     673,     720,     719
     659,     673,     674,     721,     720
     660,     674,     675,     722,     721
     661,     675,     676,     723,     722
     662,     676,     677,     724,     723
     663,     677,     678,     725,     724
     664,     678,     679,     726,     725
     665,     679,     680,     727,     726
     666,     680,     681,     728,     727
     667,     681,     682,     729,     728
     668,     682,     683,     730,     729
     669,     683,     684,     731,     730
     670,     684,     685,     732,     731
     671,     685,     686,     733,     732
     672,     686,     687,     734,     733
     673,     687,     688,     735,     734
     674,     688,     689,     736,     735
     675,     689,     690,     737,     736
     676,     690,     691,     738,     737
     677,     691,     692,     739,     738
     678,     692,     693,     740,     739
     679,     693,     694,     741,     740
     680,     694,     695,     742,     741
     681,     695,     696,     743,     742
     682,     696,     697,     744,     743
     683,     697,     698,     745,     744
     684,     698,     699,     746,     745
     685,     699,     700,     747,     746
     686,     700,     701,     748,     747
     687,     701,     702,     749,     748
     688,     702,     703,     750,     749
     689,     703,     704,     751,     750
     690,     704,     705,     752,     751
     691,     706,     707,     754,     753
     692,     707,     708,     755,     754
     693,     708,     709,     756,     755
     694,     709,     710,     757,     756
     695,     710,     711,     758,     757
     696,     711,     712,     759,     758
     697,     712,     713,     760,     759
     698,     713,     714,     761,     760
     699,     714,     715,     762,     761
     700,     715,     716,     763,     762
     701,     716,     717,     764,     763
     702,     717,     718,     765,     764
     703,     718,     719,     766,     765
     704,     719,     720,     767,     766
     705,     720,     721,     768,     767
     706,     721,     722,     769,     768
     707,     722,     723,     770,     769
     708,     723,     724,     771,     770
     709,     724,     725,     772,     771
     710,     725,     726,     773,     772
     711,     726,     727,     774,     773
     712,     727,     728,     775,     774
     713,     728,     729,     776,     775
     714,     729,     730,     777,     776
     715,     730,     731,     778,     777
     716,     731,     732,     779,     778
     717,     732,     733,     780,     779
     718,     733,     734,     781,     780
     719,     734,     735,     782,     781
     720,     735,     736,     783,     782
     721,     736,     737,     784,     783
     722,     737,     738,     785,     784
     723,     738,     739,     786,     785
     724,     739,     740,     787,     786
     725,     740,     741,     788,     787
     726,     741,     742,     789,     788
     727,     742,     743,     790,     789
     728,     743,     744,     791,     790
     729,     744,     745,     792,     791
     730,     745,     746,     793,     792
     731,     746,     747,     794,     793
     732,     747,     748,     795,     794
     733,     748,     749,     796,     795
     734,     749,     750,     797,     796
     735,     750,     751,     798,     797
     736,     751,     752,     799,     798
     737,     753,     754,     801,     800
     738,     754,     755,     802,     801
     739,     755,     756,     803,     802
     740,     756,     757,     804,     803
     741,     757,     758,     805,     804
     742,     758,     759,     806,     805
     743,     759,     760,     807,     806
     744,     760,     761,     808,     807
     745,     761,     762,     809,     808
     746,     762,     763,     810,     809
     747,     763,     764,     811,     810
     748,     764,     765,     812,     811
     749,     765,     766,     813,     812
     750,     766,     767,     814,     813
     751,     767,     768,     815,     814
     752,     768,     769,     816,     815
     753,     769,     770,     817,     816
     754,     770,     771,     818,     817
     755,     771,     772,     819,     818
     756,     772,     773,     820,     819
     757,     773,     774,     821,     820
     758,     774,     775,     822,     821
     759,     775,     776,     823,     822
     760,     776,     777,     824,     823
     761,     777,     778,     825,     824
     762,     778,     779,     826,     825
     763,     779,     780,     827,     826
     764,     780,     781,     828,     827
     765,     781,     782,     829,     828
     766,     782,     783,     830,     829
     767,     783,     784,     831,     830
     768,     784,     785,     832,     831
     769,     785,     786,     833,     832
     770,     786,     787,     834,     833
     771,     787,     788,     835,     834
     772,     788,     789,     836,     835
     773,     789,     790,     837,     836
     774,     790,     791,     838,     837
     775,     791,     792,     839,     838
     776,     792,     793,     840,     839
     777,     793,     794,     841,     840
     778,     794,     795,     842,     841
     779,     795,     796,     843,     842
     780,     796,     797,     844,     843
     781,     797,     798,     845,     844
     782,     798,     799,     846,     845
     783,     800,     801,     848,     847
     784,     801,     802,     849,     848
     785,     802,     803,     850,     849
     786,     803,     804,     851,     850
     787,     804,     805,     852,     851
     788,     805,     806,     853,     852
     789,     806,     807,     854,     853
     790,     807,     808,     855,     854
     791,     808,     809,     856,     855
     792,     809,     810,     857,     856
     793,     810,     811,     858,     857
     794,     811,     812,     859,     858
     795,     812,     813,     860,     859
     796,     813,     814,     861,     860
     797,     814,     815,     862,     861
     798,     815,     816,     863,     862
     799,     816,     817,     864,     863
     800,     817,     818,     865,     864
     801,     818,     819,     866,     865
     802,     819,     820,     867,     866
     803,     820,     821,     868,     867
     804,     821,     822,     869,     868
     805,     822,     823,     870,     869
     806,     823,     824,     871,     870
     807,     824,     825,     872,     871
     808,     825,     826,     873,     872
     809,     826,     827,     874,     873
     810,     827,     828,     875,     874
     811,     828,     829,     876,     875
     812,     829,     830,     877,     876
     813,     830,     831,     878,     877
     814,     831,     832,     879,     878
     815,     832,     833,     880,     879
     816,     833,     834,     881,     880
     817,     834,     835,     882,     881
     818,     835,     836,     883,     882
     819,     836,     837,     884,     883
     820,     837,     838,     885,     884
     821,     838,     839,     886,     885
     822,     839,     840,     887,     886
     823,     840,     841,     888,     887
     824,     841,     842,     889,     888
     825,     842,     843,     890,     889
     826,     843,     844,     891,     890
     827,     844,     845,     892,     891
     828,     845,     846,     893,     892
     829,     847,     848,     895,     894
     830,     848,     849,     896,     895
     831,     849,     850,     897,     896
     832,     850,     851,     898,     897
     833,     851,     852,     899,     898
     834,     852,     853,     900,     899
     835,     853,     854,     901,     900
     836,     854,     855,     902,     901
     837,     855,     856,     903,     902
     838,     856,     857,     904,     903
     839,     857,     858,     905,     904
     840,     858,     859,     906,     905
     841,     859,     860,     907,     906
     842,     860,     861,     908,     907
     843,     861,     862,     909,     908
     844,     862,     863,     910,     909
     845,     863,     864,     911,     910
     846,     864,     865,     912,     911
     847,     865,     866,     913,     912
     848,     866,     867,     914,     913
     849,     867,     868,     915,     914
     850,     868,     869,     916,     915
     851,     869,     870,     917,     916
     852,     870,     871,     918,     917
     853,     871,     872,     919,     918
     854,     872,     873,     920,     919
     855,     873,     874,     921,     920
     856,     874,     875,     922,     921
     857,     875,     876,     923,     922
     858,     876,     877,     924,     923
     859,     877,     878,     925,     924
     860,     878,     879,     926,     925
     861,     879,     880,     927,     926
     862,     880,     881,     928,     927
     863,     881,     882,     929,     928
     864,     882,     883,     930,     929
     865,     883,     884,     931,     930
     866,     884,     885,     932,     931
     867,     885,     886,     933,     932
     868,     886,     887,     934,     933
     869,     887,     888,     935,     934
     870,     888,     889,     936,     935
     871,     889,     890,     937,     936
     872,     890,     891,     938,     937
     873,     891,     892,     939,     938
     874,     892,     893,     940,     939
     875,     894,     895,     942,     941
     876,     895,     896,     943,     942
     877,     896,     897,     944,     943
     878,     897,     898,     945,     944
     879,     898,     899,     946,     945
     880,     899,     900,     947,     946
     881,     900,     901,     948,     947
     882,     901,     902,     949,     948
     883,     902,     903,     950,     949
     884,     903,     904,     951,     950
     885,     904,     905,     952,     951
     886,     905,     906,     953,     952
     887,     906,     907,     954,     953
     888,     907,     908,     955,     954
     889,     908,     909,     956,     955
     890,     909,     910,     957,     956
     891,     910,     911,     958,     957
     892,     911,     912,     959,     958
     893,     912,     913,     960,     959
     894,     913,     914,     961,     960
     895,     914,     915,     962,     961
     896,     915,     916,     963,     962
     897,     916,     917,     964,     963
     898,     917,     918,     965,     964
     899,     918,     919,     966,     965
     900,     919,     920,     967,     966
     901,     920,     921,     968,     967
     902,     921,     922,     969,     968
     903,     922,     923,     970,     969
     904,     923,     924,     971,     970
     905,     924,     925,     972,     971
     906,     925,     926,     973,     972
     907,     926,     927,     974,     973
     908,     927,     928,     975,     974
     909,     928,     929,     976,     975
     910,     929,     930,     977,     976
     911,     930,     931,     978,     977
     912,     931,     932,     979,     978
     913,     932,     933,     980,     979
     914,     933,     934,     981,     980
     915,     934,     935,     982,     981
     916,     935,     936,     983,     982
     917,     936,     937,     984,     983
     918,     937,     938,     985,     984
     919,     938,     939,     986,     985
     920,     939,     940,     987,     986
     921,     941,     942,     989,     988
     922,     942,     943,     990,     989
     923,     943,     944,     991,     990
     924,     944,     945,     992,     991
     925,     945,     946,     993,     992
     926,     946,     947,     994,     993
     927,     947,     948,     995,     994
     928,     948,     949,     996,     995
     929,     949,     950,     997,     996
     930,     950,     951,     998,     997
     931,     951,     952,     999,     998
     932,     952,     953,    1000,     999
     933,     953,     954,    1001,    1000
     934,     954,     955,    1002,    1001
     935,     955,     956,    1003,    1002
     936,     956,     957,    1004,    1003
     937,     957,     958,    1005,    1004
     938,     958,     959,    1006,    1005
     939,     959,     960,    1007,    1006
     940,     960,     961,    1008,    1007
     941,     961,     962,    1009,    1008
     942,     962,     963,    1010,    1009
     943,     963,     964,    1011,    1010
     944,     964,     965,    1012,    1011
     945,     965,     966,    1013,    1012
     946,     966,     967,    1014,    1013
     947,     967,     968,    1015,    1014
     948,     968,     969,    1016,    1015
     949,     969,     970,    1017,    1016
     950,     970,     971,    1018,    1017
     951,     971,     972,    1019,    1018
     952,     972,     973,    1020,    1019
     953,     973,     974,    1021,    1020
     954,     974,     975,    1022,    1021
     955,     975,     976,    1023,    1022
     956,     976,     977,    1024,    1023
     957,     977,     978,    1025,    1024
     958,     978,     979,    1026,    1025
     959,     979,     980,    1027,    1026
     960,     980,     981,    1028,    1027
     961,     981,     982,    1029,    1028
     962,     982,     983,    1030,    1029
     963,     983,     984,    1031,    1030
     964,     984,     985,    1032,    1031
     965,     985,     986,    1033,    1032
     966,     986,     987,    1034,    1033
     967,     988,     989,    1036,    1035
     968,     989,     990,    1037,    1036
     969,     990,     991,    1038,    1037
     970,     991,     992,    1039,    1038
     971,     992,     993,    1040,    1039
     972,     993,     994,    1041,    1040
     973,     994,     995,    1042,    1041
     974,     995,     996,    1043,    1042
     975,     996,     997,    1044,    1043
     976,     997,     998,    1045,    1044
     977,     998,     999,    1046,    1045
     978,     999,    1000,    1047,    1046
     979,    1000,    1001,    1048,    1047
     980,    1001,    1002,    1049,    1048
     981,    1002,    1003,    1050,    1049
     982,    1003,    1004,    1051,    1050
     983,    1004,    1005,    1052,    1051
     984,    1005,    1006,    1053,    1052
     985,    1006,    1007,    1054,    1053
     986,    1007,    1008,    1055,    1054
     987,    1008,    1009,    1056,    1055
     988,    1009,    1010,    1057,    1056
     989,    1010,    1011,    1058,    1057
     990,    1011,    1012,    1059,    1058
     991,    1012,    1013,    1060,    1059
     992,    1013,    1014,    1061,    1060
     993,    1014,    1015,    1062,    1061
     994,    1015,    1016,    1063,    1062
     995,    1016,    1017,    1064,    1063
     996,    1017,    1018,    1065,    1064
     997,    1018,    1019,    1066,    1065
     998,    1019,    1020,    1067,    1066
     999,    1020,    1021,    1068,    1067
    1000,    1021,    1022,    1069,    1068
    1001,    1022,    1023,    1070,    1069
    1002,    1023,    1024,    1071,    1070
    1003,    1024,    1025,    1072,    1071
    1004,    1025,    1026,    1073,    1072
    1005,    1026,    1027,    1074,    1073
    1006,    1027,    1028,    1075,    1074
    1007,    1028,    1029,    1076,    1075
    1008,    1029,    1030,    1077,    1076
    1009,    1030,    1031,    1078,    1077
    1010,    1031,    1032,    1079,    1078
    1011,    1032,    1033,    1080,    1079
    1012,    1033,    1034,    1081,    1080
    1013,    1035,    1036,    1084,    1082
    1014,    1036,    1037,    1086,    1084
    1015,    1037,    1038,    1088,    1086
    1016,    1038,    1039,    1090,    1088
    1017,    1039,    1040,    1092,    1090
    1018,    1040,    1041,    1094,    1092
    1019,    1041,    1042,    1096,    1094
    1020,    1042,    1043,    1098,    1096
    1021,    1043,    1044,    1100,    1098
    1022,    1044,    1045,    1102,    1100
    1023,    1045,    1046,    1104,    1102
    1024,    1046,    1047,    1106,    1104
    1025,    1047,    1048,    1108,    1106
    1026,    1048,    1049,    1110,    1108
    1027,    1049,    1050,    1112,    1110
    1028,    1050,    1051,    1114,    1112
    1029,    1051,    1052,    1116,    1114
    1030,    1052,    1053,    1118,    1116
    1031,    1053,    1054,    1120,    1118
    1032,    1054,    1055,    1122,    1120
    1033,    1055,    1056,    1124,    1122
    1034,    1056,    1057,    1126,    1124
    1035,    1057,    1058,    1128,    1126
    1036,    1058,    1059,    1129,    1128
    1037,    1059,    1060,    1130,    1129
    1038,    1060,    1061,    1131,    1130
    1039,    1061,    1062,    1132,    1131
    1040,    1062,    1063,    1133,    1132
    1041,    1063,    1064,    1134,    1133
    1042,    1064,    1065,    1135,    1134
    1043,    1065,    1066,    1136,    1135
    1044,    1066,    1067,    1137,    1136
    1045,    1067,    1068,    1138,    1137
    1046,    1068,    1069,    1139,    1138
    1047,    1069,    1070,    1140,    1139
    1048,    1070,    1071,    1141,    1140
    1049,    1071,    1072,    1142,    1141
    1050,    1072,    1073,    1143,    1142
    1051,    1073,    1074,    1144,    1143
    1052,    1074,    1075,    1145,    1144
    1053,    1075,    1076,    1146,    1145
    1054,    1076,    1077,    1147,    1146
    1055,    1077,    1078,    1148,    1147
    1056,    1078,    1079,    1149,    1148
    1057,    1079,    1080,    1150,    1149
    1058,    1080,    1081,    1151,    1150
    1059,    1083,    1085,    1153,    1152
    1060,    1085,    1087,    1154,    1153
    1061,    1087,    1089,    1155,    1154
    1062,    1089,    1091,    1156,    1155
    1063,    1091,    1093,    1157,    1156
    1064,    1093,    1095,    1158,    1157
    1065,    1095,    1097,    1159,    1158
    1066,    1097,    1099,    1160,    1159
    1067,    1099,    1101,    1161,    1160
    1068,    1101,    1103,    1162,    1161
    1069,    1103,    1105,    1163,    1162
    1070,    1105,    1107,    1164,    1163
    1071,    1107,    1109,    1165,    1164
    1072,    1109,    1111,    1166,    1165
    1073,    1111,    1113,    1167,    1166
    1074,    1113,    1115,    1168,    1167
    1075,    1115,    1117,    1169,    1168
    1076,    1117,    1119,    1170,    1169
    1077,    1119,    1121,    1171,    1170
    1078,    1121,    1123,    1172,    1171
    1079,    1123,    1125,    1173,    1172
    1080,    1125,    1127,    1174,    1173
    1081,    1127,    1128,    1175,    1174
    1082,    1128,    1129,    1176,    1175
    1083,    1129,    1130,    1177,    1176
    1084,    1130,    1131,    1178,    1177
    1085,    1131,    1132,    1179,    1178
    1086,    1132,    1133,    1180,    1179
    1087,    1133,    1134,    1181,    1180
    1088,    1134,    1135,    1182,    1181
    1089,    1135,    1136,    1183,    1182
    1090,    1136,    1137,    1184,    1183
    1091,    1137,    1138,    1185,    1184
    1092,    1138,    1139,    1186,    1185
    1093,    1139,    1140,    1187,    1186
    1094,    1140,    1141,    1188,    1187
    1095,    1141,    1142,    1189,    1188
    1096,    1142,    1143,    1190,    1189
    1097,    1143,    1144,    1191,    1190
    1098,    1144,    1145,    1192,    1191
    1099,    1145,    1146,    1193,    1192
    1100,    1146,    1147,    1194,    1193
    1101,    1147,    1148,    1195,    1194
    1102,    1148,    1149,    1196,    1195
    1103,    1149,    1150,    1197,    1196
    1104,    1150,    1151,    1198,    1197
    1105,    1152,    1153,    1200,    1199
    1106,    1153,    1154,    1201,    1200
    1107,    1154,    1155,    1202,    1201
    1108,    1155,    1156,    1203,    1202
    1109,    1156,    1157,    1204,    1203
    1110,    1157,    1158,    1205,    1204
    1111,    1158,    1159,    1206,    1205
    1112,    1159,    1160,    1207,    1206
    1113,    1160,    1161,    1208,    1207
    1114,    1161,    1162,    1209,    1208
    1115,    1162,    1163,    1210,    1209
    1116,    1163,    1164,    1211,    1210
    1117,    1164,    1165,    1212,    1211
    1118,    1165,    1166,    1213,    1212
    1119,    1166,    1167,    1214,    1213
    1120,    1167,    1168,    1215,    1214
    1121,    1168,    1169,    1216,    1215
    1122,    1169,    1170,    1217,    1216
    1123,    1170,    1171,    1218,    1217
    1124,    1171,    1172,    1219,    1218
    1125,    1172,    1173,    1220,    1219
    1126,    1173,    1174,    1221,    1220
    1127,    1174,    1175,    1222,    1221
    1128,    1175,    1176,    1223,    1222
    1129,    1176,    1177,    1224,    1223
    1130,    1177,    1178,    1225,    1224
    1131,    1178,    1179,    1226,    1225
    1132,    1179,    1180,    1227,    1226
    1133,    1180,    1181,    1228,    1227
    1134,    1181,    1182,    1229,    1228
    1135,    1182,    1183,    1230,    1229
    1136,    1183,    1184,    1231,    1230
    1137,    1184,    1185,    1232,    1231
    1138,    1185,    1186,    1233,    1232
    1139,    1186,    1187,    1234,    1233
    1140,    1187,    1188,    1235,    1234
    1141,    1188,    1189,    1236,    1235
    1142,    1189,    1190,    1237,    1236
    1143,    1190,    1191,    1238,    1237
    1144,    1191,    1192,    1239,    1238
    1145,    1192,    1193,    1240,    1239
    1146,    1193,    1194,    1241,    1240
    1147,    1194,    1195,    1242,    1241
    1148,    1195,    1196,    1243,    1242
    1149,    1196,    1197,    1244,    1243
    1150,    1197,    1198,    1245,    1244
    1151,    1199,    1200,    1247,    1246
    1152,    1200,    1201,    1248,    1247
    1153,    1201,    1202,    1249,    1248
    1154,    1202,    1203,    1250,    1249
    1155,    1203,    1204,    1251,    1250
    1156,    1204,    1205,    1252,    1251
    1157,    1205,    1206,    1253,    1252
    1158,    1206,    1207,    1254,    1253
    1159,    1207,    1208,    1255,    1254
    1160,    1208,    1209,    1256,    1255
    1161,    1209,    1210,    1257,    1256
    1162,    1210,    1211,    1258,    1257
    1163,    1211,    1212,    1259,    1258
    1164,    1212,    1213,    1260,    1259
    1165,    1213,    1214,    1261,    1260
    1166,    1214,    1215,    1262,    1261
    1167,    1215,    1216,    1263,    1262
    1168,    1216,    1217,    1264,    1263
    1169,    1217,    1218,    1265,    1264
    1170,    1218,    1219,    1266,    1265
    1171,    1219,    1220,    1267,    1266
    1172,    1220,    1221,    1268,    1267
    1173,    1221,    1222,    1269,    1268
    1174,    1222,    1223,    1270,    1269
    1175,    1223,    1224,    1271,    1270
    1176,    1224,    1225,    1272,    1271
    1177,    1225,    1226,    1273,    1272
    1178,    1226,    1227,    1274,    1273
    1179,    1227,    1228,    1275,    1274
    1180,    1228,    1229,    1276,    1275
    1181,    1229,    1230,    1277,    1276
    1182,    1230,    1231,    1278,    1277
    1183,    1231,    1232,    1279,    1278
    1184,    1232,    1233,    1280,    1279
    1185,    1233,    1234,    1281,    1280
    1186,    1234,    1235,    1282,    1281
    1187,    1235,    1236,    1283,    1282
    1188,    1236,    1237,    1284,    1283
    1189,    1237,    1238,    1285,    1284
    1190,    1238,    1239,    1286,    1285
    1191,    1239,    1240,    1287,    1286
    1192,    1240,    1241,    1288,    1287
    1193,    1241,    1242,    1289,    1288
    1194,    1242,    1243,    1290,    1289
    1195,    1243,    1244,    1291,    1290
    1196,    1244,    1245,    1292,    1291
    1197,    1246,    1247,    1294,    1293
    1198,    1247,    1248,    1295,    1294
    1199,    1248,    1249,    1296,    1295
    1200,    1249,    1250,    1297,    1296
    1201,    1250,    1251,    1298,    1297
    1202,    1251,    1252,    1299,    1298
    1203,    1252,    1253,    1300,    1299
    1204,    1253,    1254,    1301,    1300
    1205,    1254,    1255,    1302,    1301
    1206,    1255,    1256,    1303,    1302
    1207,    1256,    1257,    1304,    1303
    1208,    1257,    1258,    1305,    1304
    1209,    1258,    1259,    1306,    1305
    1210,    1259,    1260,    1307,    1306
    1211,    1260,    1261,    1308,    1307
    1212,    1261,    1262,    1309,    1308
    1213,    1262,    1263,    1310,    1309
    1214,    1263,    1264,    1311,    1310
    1215,    1264,    1265,    1312,    1311
    1216,    1265,    1266,    1313,    1312
    1217,    1266,    1267,    1314,    1313
    1218,    1267,    1268,    1315,    1314
    1219,    1268,    1269,    1316,    1315
    1220,    1269,    1270,    1317,    1316
    1221,    1270,    1271,    1318,    1317
    1222,    1271,    1272,    1319,    1318
    1223,    1272,    1273,    1320,    1319
    1224,    1273,    1274,    1321,    1320
    1225,    1274,    1275,    1322,    1321
    1226,    1275,    1276,    1323,    1322
    1227,    1276,    1277,    1324,    1323
    1228,    1277,    1278,    1325,    1324
    1229,    1278,    1279,    1326,    1325
    1230,    1279,    1280,    1327,    1326
    1231,    1280,    1281,    1328,    1327
    1232,    1281,    1282,    1329,    1328
    1233,    1282,    1283,    1330,    1329
    1234,    1283,    1284,    1331,    1330
    1235,    1284,    1285,    1332,    1331
    1236,    1285,    1286,    1333,    1332
    1237,    1286,    1287,    1334,    1333
    1238,    1287,    1288,    1335,    1334
    1239,    1288,    1289,    1336,    1335
    1240,    1289,    1290,    1337,    1336
    1241,    1290,    1291,    1338,    1337
    1242,    1291,    1292,    1339,    1338
    1243,    1293,    1294,    1341,    1340
    1244,    1294,    1295,    1342,    1341
    1245,    1295,    1296,    1343,    1342
    1246,    1296,    1297,    1344,    1343
    1247,    1297,    1298,    1345,    1344
    1248,    1298,    1299,    1346,    1345
    1249,    1299,    1300,    1347,    1346
    1250,    1300,    1301,    1348,    1347
    1251,    1301,    1302,    1349,    1348
    1252,    1302,    1303,    1350,    1349
    1253,    1303,    1304,    1351,    1350
    1254,    1304,    1305,    1352,    1351
    1255,    1305,    1306,    1353,    1352
    1256,    1306,    1307,    1354,    1353
    1257,    1307,    1308,    1355,    1354
    1258,    1308,    1309,    1356,    1355
    1259,    1309,    1310,    1357,    1356
    1260,    1310,    1311,    1358,    1357
    1261,    1311,    1312,    1359,    1358
    1262,    1312,    1313,    1360,    1359
    1263,    1313,    1314,    1361,    1360
    1264,    1314,    1315,    1362,    1361
    1265,    1315,    1316,    1363,    1362
    1266,    1316,    1317,    1364,    1363
    1267,    1317,    1318,    1365,    1364
    1268,    1318,    1319,    1366,    1365
    1269,    1319,    1320,    1367,    1366
    1270,    1320,    1321,    1368,    1367
    1271,    1321,    1322,    1369,    1368
    1272,    1322,    1323,    1370,    1369
    1273,    1323,    1324,    1371,    1370
    1274,    1324,    1325,    1372,    1371
    1275,    1325,    1326,    1373,    1372
    1276,    1326,    1327,    1374,    1373
    1277,    1327,    1328,    1375,    1374
    1278,    1328,    1329,    1376,    1375
    1279,    1329,    1330,    1377,    1376
    1280,    1330,    1331,    1378,    1377
    1281,    1331,    1332,    1379,    1378
    1282,    1332,    1333,    1380,    1379
    1283,    1333,    1334,    1381,    1380
    1284,    1334,    1335,    1382,    1381
    1285,    1335,    1336,    1383,    1382
    1286,    1336,    1337,    1384,    1383
    1287,    1337,    1338,    1385,    1384
    1288,    1338,    1339,    1386,    1385
    1289,    1340,    1341,    1388,    1387
    1290,    1341,    1342,    1389,    1388
    1291,    1342,    1343,    1390,    1389
    1292,    1343,    1344,    1391,    1390
    1293,    1344,    1345,    1392,    1391
    1294,    1345,    1346,    1393,    1392
    1295,    1346,    1347,    1394,    1393
    1296,    1347,    1348,    1395,    1394
    1297,    1348,    1349,    1396,    1395
    1298,    1349,    1350,    1397,    1396
    1299,    1350,    1351,    1398,    1397
    1300,    1351,    1352,    1399,    1398
    1301,    1352,    1353,    1400,    1399
    1302,    1353,    1354,    1401,    1400
    1303,    1354,    1355,    1402,    1401
    1304,    1355,    1356,    1403,    1402
    1305,    1356,    1357,    1404,    1403
    1306,    1357,    1358,    1405,    1404
    1307,    1358,    1359,    1406,    1405
    1308,    1359,    1360,    1407,    1406
    1309,    1360,    1361,    1408,    1407
    1310,    1361,    1362,    1409,    1408
    1311,    1362,    1363,    1410,    1409
    1312,    1363,    1364,    1411,    1410
    1313,    1364,    1365,    1412,    1411
    1314,    1365,    1366,    1413,    1412
    1315,    1366,    1367,    1414,    1413
    1316,    1367,    1368,    1415,    1414
    1317,    1368,    1369,    1416,    1415
    1318,    1369,    1370,    1417,    1416
    1319,    1370,    1371,    1418,    1417
    1320,    1371,    1372,    1419,    1418
    1321,    1372,    1373,    1420,    1419
    1322,    1373,    1374,    1421,    1420
    1323,    1374,    1375,    1422,    1421
    1324,    1375,    1376,    1423,    1422
    1325,    1376,    1377,    1424,    1423
    1326,    1377,    1378,    1425,    1424
    1327,    1378,    1379,    1426,    1425
    1328,    1379,    1380,    1427,    1426
    1329,    1380,    1381,    1428,    1427
    1330,    1381,    1382,    1429,    1428
    1331,    1382,    1383,    1430,    1429
    1332,    1383,    1384,    1431,    1430
    1333,    1384,    1385,    1432,    1431
    1334,    1385,    1386,    1433,    1432
    1335,    1387,    1388,    1435,    1434
    1336,    1388,    1389,    1436,    1435
    1337,    1389,    1390,    1437,    1436
    1338,    1390,    1391,    1438,    1437
    1339,    1391,    1392,    1439,    1438
    1340,    1392,    1393,    1440,    1439
    1341,    1393,    1394,    1441,    1440
    1342,    1394,    1395,    1442,    1441
    1343,    1395,    1396,    1443,    1442
    1344,    1396,    1397,    1444,    1443
    1345,    1397,    1398,    1445,    1444
    1346,    1398,    1399,    1446,    1445
    1347,    1399,    1400,    1447,    1446
    1348,    1400,    1401,    1448,    1447
    1349,    1401,    1402,    1449,    1448
    1350,    1402,    1403,    1450,    1449
    1351,    1403,    1404,    1451,    1450
    1352,    1404,    1405,    1452,    1451
    1353,    1405,    1406,    1453,    1452
    1354,    1406,    1407,    1454,    1453
    1355,    1407,    1408,    1455,    1454
    1356,    1408,    1409,    1456,    1455
    1357,    1409,    1410,    1457,    1456
    1358,    1410,    1411,    1458,    1457
    1359,    1411,    1412,    1459,    1458
    1360,    1412,    1413,    1460,    1459
    1361,    1413,    1414,    1461,    1460
    1362,    1414,    1415,    1462,    1461
    1363,    1415,    1416,    1463,    1462
    1364,    1416,    1417,    1464,    1463
    1365,    1417,    1418,    1465,    1464
    1366,    1418,    1419,    1466,    1465
    1367,    1419,    1420,    1467,    1466
    1368,    1420,    1421,    1468,    1467
    1369,    1421,    1422,    1469,    1468
    1370,    1422,    1423,    1470,    1469
    1371,    1423,    1424,    1471,    1470
    1372,    1424,    1425,    1472,    1471
    1373,    1425,    1426,    1473,    1472
    1374,    1426,    1427,    1474,    1473
    1375,    1427,    1428,    1475,    1474
    1376,    1428,    1429,    1476,    1475
    1377,    1429,    1430,    1477,    1476
    1378,    1430,    1431,    1478,    1477
    1379,    1431,    1432,    1479,    1478
    1380,    1432,    1433,    1480,    1479
    1381,    1434,    1435,    1482,    1481
    1382,    1435,    1436,    1483,    1482
    1383,    1436,    1437,    1484,    1483
    1384,    1437,    1438,    1485,    1484
    1385,    1438,    1439,    1486,    1485
    1386,    1439,    1440,    1487,    1486
    1387,    1440,    1441,    1488,    1487
    1388,    1441,    1442,    1489,    1488
    1389,    1442,    1443,    1490,    1489
    1390,    1443,    1444,    1491,    1490
    1391,    1444,    1445,    1492,    1491
    1392,    1445,    1446,    1493,    1492
    1393,    1446,    1447,    1494,    1493
    1394,    1447,    1448,    1495,    1494
    1395,    1448,    1449,    1496,    1495
    1396,    1449,    1450,    1497,    1496
    1397,    1450,    1451,    1498,    1497
    1398,    1451,    1452,    1499,    1498
    1399,    1452,    1453,    1500,    1499
    1400,    1453,    1454,    1501,    1500
    1401,    1454,    1455,    1502,    1501
    1402,    1455,    1456,    1503,    1502
    1403,    1456,    1457,    1504,    1503
    1404,    1457,    1458,    1505,    1504
    1405,    1458,    1459,    1506,    1505
    1406,    1459,    1460,    1507,    1506
    1407,    1460,    1461,    1508,    1507
    1408,    1461,    1462,    1509,    1508
    1409,    1462,    1463,    1510,    1509
    1410,    1463,    1464,    1511,    1510
    1411,    1464,    1465,    1512,    1511
    1412,    1465,    1466,    1513,    1512
    1413,    1466,    1467,    1514,    1513
    1414,    1467,    1468,    1515,    1514
    1415,    1468,    1469,    1516,    1515
    1416,    1469,    1470,    1517,    1516
    1417,    1470,    1471,    1518,    1517
    1418,    1471,    1472,    1519,    1518
    1419,    1472,    1473,    1520,    1519
    1420,    1473,    1474,    1521,    1520
    1421,    1474,    1475,    1522,    1521
    1422,    1475,    1476,    1523,    1522
    1423,    1476,    1477,    1524,    1523
    1424,    1477,    1478,    1525,    1524
    1425,    1478,    1479,    1526,    1525
    1426,    1479,    1480,    1527,    1526
    1427,    1481,    1482,    1529,    1528
    1428,    1482,    1483,    1530,    1529
    1429,    1483,    1484,    1531,    1530
    1430,    1484,    1485,    1532,    1531
    1431,    1485,    1486,    1533,    1532
    1432,    1486,    1487,    1534,    1533
    1433,    1487,    1488,    1535,    1534
    1434,    1488,    1489,    1536,    1535
    1435,    1489,    1490,    1537,    1536
    1436,    1490,    1491,    1538,    1537
    1437,    1491,    1492,    1539,    1538
    1438,    1492,    1493,    1540,    1539
    1439,    1493,    1494,    1541,    1540
    1440,    1494,    1495,    1542,    1541
    1441,    1495,    1496,    1543,    1542
    1442,    1496,    1497,    1544,    1543
    1443,    1497,    1498,    1545,    1544
    1444,    1498,    1499,    1546,    1545
    1445,    1499,    1500,    1547,    1546
    1446,    1500,    1501,    1548,    1547
    1447,    1501,    1502,    1549,    1548
    1448,    1502,    1503,    1550,    1549
    1449,    1503,    1504,    1551,    1550
    1450,    1504,    1505,    1552,    1551
    1451,    1505,    1506,    1553,    1552
    1452,    1506,    1507,    1554,    1553
    1453,    1507,    1508,    1555,    1554
    1454,    1508,    1509,    1556,    1555
    1455,    1509,    1510,    1557,    1556
    1456,    1510,    1511,    1558,    1557
    1457,    1511,    1512,    1559,    1558
    1458,    1512,    1513,    1560,    1559
    1459,    1513,    1514,    1561,    1560
    1460,    1514,    1515,    1562,    1561
    1461,    1515,    1516,    1563,    1562
    1462,    1516,    1517,    1564,    1563
    1463,    1517,    1518,    1565,    1564
    1464,    1518,    1519,    1566,    1565
    1465,    1519,    1520,    1567,    1566
    1466,    1520,    1521,    1568,    1567
    1467,    1521,    1522,    1569,    1568
    1468,    1522,    1523,    1570,    1569
    1469,    1523,    1524,    1571,    1570
    1470,    1524,    1525,    1572,    1571
    1471,    1525,    1526,    1573,    1572
    1472,    1526,    1527,    1574,    1573
    1473,    1528,    1529,    1576,    1575
    1474,    1529,    1530,    1577,    1576
    1475,    1530,    1531,    1578,    1577
    1476,    1531,    1532,    1579,    1578
    1477,    1532,    1533,    1580,    1579
    1478,    1533,    1534,    1581,    1580
    1479,    1534,    1535,    1582,    1581
    1480,    1535,    1536,    1583,    1582
    1481,    1536,    1537,    1584,    1583
    1482,    1537,    1538,    1585,    1584
    1483,    1538,    1539,    1586,    1585
    1484,    1539,    1540,    1587,    1586
    1485,    1540,    1541,    1588,    1587
    1486,    1541,    1542,    1589,    1588
    1487,    1542,    1543,    1590,    1589
    1488,    1543,    1544,    1591,    1590
    1489,    1544,    1545,    1592,    1591
    1490,    1545,    1546,    1593,    1592
    1491,    1546,    1547,    1594,    1593
    1492,    1547,    1548,    1595,    1594
    1493,    1548,    1549,    1596,    1595
    1494,    1549,    1550,    1597,    1596
    1495,    1550,    1551,    1598,    1597
    1496,    1551,    1552,    1599,    1598
    1497,    1552,    1553,    1600,    1599
    1498,    1553,    1554,    1601,    1600
    1499,    1554,    1555,    1602,    1601
    1500,    1555,    1556,    1603,    1602
    1501,    1556,    1557,    1604,    1603
    1502,    1557,    1558,    1605,    1604
    1503,    1558,    1559,    1606,    1605
    1504,    1559,    1560,    1607,    1606
    1505,    1560,    1561,    1608,    1607
    1506,    1561,    1562,    1609,    1608
    1507,    1562,    1563,    1610,    1609
    1508,    1563,    1564,    1611,    1610
    1509,    1564,    1565,    1612,    1611
    1510,    1565,    1566,    1613,    1612
    1511,    1566,    1567,    1614,    1613
    1512,    1567,    1568,    1615,    1614
    1513,    1568,    1569,    1616,    1615
    1514,    1569,    1570,    1617,    1616
    1515,    1570,    1571,    1618,    1617
    1516,    1571,    1572,    1619,    1618
    1517,    1572,    1573,    1620,    1619
    1518,    1573,    1574,    1621,    1620
    1519,    1575,    1576,    1623,    1622
    1520,    1576,    1577,    1624,    1623
    1521,    1577,    1578,    1625,    1624
    1522,    1578,    1579,    1626,    1625
    1523,    1579,    1580,    1627,    1626
    1524,    1580,    1581,    1628,    1627
    1525,    1581,    1582,    1629,    1628
    1526,    1582,    1583,    1630,    1629
    1527,    1583,    1584,    1631,    1630
    1528,    1584,    1585,    1632,    1631
    1529,    1585,    1586,    1633,    1632
    1530,    1586,    1587,    1634,    1633
    1531,    1587,    1588,    1635,    1634
    1532,    1588,    1589,    1636,    1635
    1533,    1589,    1590,    1637,    1636
    1534,    1590,    1591,    1638,    1637
    1535,    1591,    1592,    1639,    1638
    1536,    1592,    1593,    1640,    1639
    1537,    1593,    1594,    1641,    1640
    1538,    1594,    1595,    1642,    1641
    1539,    1595,    1596,    1643,    1642
    1540,    1596,    1597,    1644,    1643
    1541,    1597,    1598,    1645,    1644
    1542,    1598,    1599,    1646,    1645
    1543,    1599,    1600,    1647,    1646
    1544,    1600,    1601,    1648,    1647
    1545,    1601,    1602,    1649,    1648
    1546,    1602,    1603,    1650,    1649
    1547,    1603,    1604,    1651,    1650
    1548,    1604,    1605,    1652,    1651
    1549,    1605,    1606,    1653,    1652
    1550,    1606,    1607,    1654,    1653
    1551,    1607,    1608,    1655,    1654
    1552,    1608,    1609,    1656,    1655
    1553,    1609,    1610,    1657,    1656
    1554,    1610,    1611,    1658,    1657
    1555,    1611,    1612,    1659,    1658
    1556,    1612,    1613,    1660,    1659
    1557,    1613,    1614,    1661,    1660
    1558,    1614,    1615,    1662,    1661
    1559,    1615,    1616,    1663,    1662
    1560,    1616,    1617,    1664,    1663
    1561,    1617,    1618,    1665,    1664
    1562,    1618,    1619,    1666,    1665
    1563,    1619,    1620,    1667,    1666
    1564,    1620,    1621,    1668,    1667
    1565,    1622,    1623,    1670,    1669
    1566,    1623,    1624,    1671,    1670
    1567,    1624,    1625,    1672,    1671
    1568,    1625,    1626,    1673,    1672
    1569,    1626,    1627,    1674,    1673
    1570,    1627,    1628,    1675,    1674
    1571,    1628,    1629,    1676,    1675
    1572,    1629,    1630,    1677,    1676
    1573,    1630,    1631,    1678,    1677
    1574,    1631,    1632,    1679,    1678
    1575,    1632,    1633,    1680,    1679
    1576,    1633,    1634,    1681,    1680
    1577,    1634,    1635,    1682,    1681
    1578,    1635,    1636,    1683,    1682
    1579,    1636,    1637,    1684,    1683
    1580,    1637,    1638,    1685,    1684
    1581,    1638,    1639,    1686,    1685
    1582,    1639,    1640,    1687,    1686
    1583,    1640,    1641,    1688,    1687
    1584,    1641,    1642,    1689,    1688
    1585,    1642,    1643,    1690,    1689
    1586,    1643,    1644,    1691,    1690
    1587,    1644,    1645,    1692,    1691
    1588,    1645,    1646,    1693,    1692
    1589,    1646,    1647,    1694,    1693
    1590,    1647,    1648,    1695,    1694
    1591,    1648,    1649,    1696,    1695
    1592,    1649,    1650,    1697,    1696
    1593,    1650,    1651,    1698,    1697
    1594,    1651,    1652,    1699,    1698
    1595,    1652,    1653,    1700,    1699
    1596,    1653,    1654,    1701,    1700
    1597,    1654,    1655,    1702,    1701
    1598,    1655,    1656,    1703,    1702
    1599,    1656,    1657,    1704,    1703
    1600,    1657,    1658,    1705,    1704
    1601,    1658,    1659,    1706,    1705
    1602,    1659,    1660,    1707,    1706
    1603,    1660,    1661,    1708,    1707
    1604,    1661,    1662,    1709,    1708
    1605,    1662,    1663,    1710,    1709
    1606,    1663,    1664,    1711,    1710
    1607,    1664,    1665,    1712,    1711
    1608,    1665,    1666,    1713,    1712
    1609,    1666,    1667,    1714,    1713
    1610,    1667,    1668,    1715,    1714
    1611,    1669,    1670,    1717,    1716
    1612,    1670,    1671,    1718,    1717
    1613,    1671,    1672,    1719,    1718
    1614,    1672,    1673,    1720,    1719
    1615,    1673,    1674,    1721,    1720
    1616,    1674,    1675,    1722,    1721
    1617,    1675,    1676,    1723,    1722
    1618,    1676,    1677,    1724,    1723
    1619,    1677,    1678,    1725,    1724
    1620,    1678,    1679,    1726,    1725
    1621,    1679,    1680,    1727,    1726
    1622,    1680,    1681,    1728,    1727
    1623,    1681,    1682,    1729,    1728
    1624,    1682,    1683,    1730,    1729
    1625,    1683,    1684,    1731,    1730
    1626,    1684,    1685,    1732,    1731
    1627,    1685,    1686,    1733,    1732
    1628,    1686,    1687,    1734,    1733
    1629,    1687,    1688,    1735,    1734
    1630,    1688,    1689,    1736,    1735
    1631,    1689,    1690,    1737,    1736
    1632,    1690,    1691,    1738,    1737
    1633,    1691,    1692,    1739,    1738
    1634,    1692,    1693,    1740,    1739
    1635,    1693,    1694,    1741,    1740
    1636,    1694,    1695,    1742,    1741
    1637,    1695,    1696,    1743,    1742
    1638,    1696,    1697,    1744,    1743
    1639,    1697,    1698,    1745,    1744
    1640,    1698,    1699,    1746,    1745
    1641,    1699,    1700,    1747,    1746
    1642,    1700,    1701,    1748,    1747
    1643,    1701,    1702,    1749,    1748
    1644,    1702,    1703,    1750,    1749
    1645,    1703,    1704,    1751,    1750
    1646,    1704,    1705,    1752,    1751
    1647,    1705,    1706,    1753,    1752
    1648,    1706,    1707,    1754,    1753
    1649,    1707,    1708,    1755,    1754
    1650,    1708,    1709,    1756,    1755
    1651,    1709,    1710,    1757,    1756
    1652,    1710,    1711,    1758,    1757
    1653,    1711,    1712,    1759,    1758
    1654,    1712,    1713,    1760,    1759
    1655,    1713,    1714,    1761,    1760
    1656,    1714,    1715,    1762,    1761
    1657,    1716,    1717,    1764,    1763
    1658,    1717,    1718,    1765,    1764
    1659,    1718,    1719,    1766,    1765
    1660,    1719,    1720,    1767,    1766
    1661,    1720,    1721,    1768,    1767
    1662,    1721,    1722,    1769,    1768
    1663,    1722,    1723,    1770,    1769
    1664,    1723,    1724,    1771,    1770
    1665,    1724,    1725,    1772,    1771
    1666,    1725,    1726,    1773,    1772
    1667,    1726,    1727,    1774,    1773
    1668,    1727,    1728,    1775,    1774
    1669,    1728,    1729,    1776,    1775
    1670,    1729,    1730,    1777,    1776
    1671,    1730,    1731,    1778,    1777
    1672,    1731,    1732,    1779,    1778
    1673,    1732,    1733,    1780,    1779
    1674,    1733,    1734,    1781,    1780
    1675,    1734,    1735,    1782,    1781
    1676,    1735,    1736,    1783,    1782
    1677,    1736,    1737,    1784,    1783
    1678,    1737,    1738,    1785,    1784
    1679,    1738,    1739,    1786,    1785
    1680,    1739,    1740,    1787,    1786
    1681,    1740,    1741,    1788,    1787
    1682,    1741,    1742,    1789,    1788
    1683,    1742,    1743,    1790,    1789
    1684,    1743,    1744,    1791,    1790
    1685,    1744,    1745,    1792,    1791
    1686,    1745,    1746,    1793,    1792
    1687,    1746,    1747,    1794,    1793
    1688,    1747,    1748,    1795,    1794
    1689,    1748,    1749,    1796,    1795
    1690,    1749,    1750,    1797,    1796
    1691,    1750,    1751,    1798,    1797
    1692,    1751,    1752,    1799,    1798
    1693,    1752,    1753,    1800,    1799
    1694,    1753,    1754,    1801,    1800
    1695,    1754,    1755,    1802,    1801
    1696,    1755,    1756,    1803,    1802
    1697,    1756,    1757,    1804,    1803
    1698,    1757,    1758,    1805,    1804
    1699,    1758,    1759,    1806,    1805
    1700,    1759,    1760,    1807,    1806
    1701,    1760,    1761,    1808,    1807
    1702,    1761,    1762,    1809,    1808
    1703,    1763,    1764,    1811,    1810
    1704,    1764,    1765,    1812,    1811
    1705,    1765,    1766,    1813,    1812
    1706,    1766,    1767,    1814,    1813
    1707,    1767,    1768,    1815,    1814
    1708,    1768,    1769,    1816,    1815
    1709,    1769,    1770,    1817,    1816
    1710,    1770,    1771,    1818,    1817
    1711,    1771,    1772,    1819,    1818
    1712,    1772,    1773,    1820,    1819
    1713,    1773,    1774,    1821,    1820
    1714,    1774,    1775,    1822,    1821
    1715,    1775,    1776,    1823,    1822
    1716,    1776,    1777,    1824,    1823
    1717,    1777,    1778,    1825,    1824
    1718,    1778,    1779,    1826,    1825
    1719,    1779,    1780,    1827,    1826
    1720,    1780,    1781,    1828,    1827
    1721,    1781,    1782,    1829,    1828
    1722,    1782,    1783,    1830,    1829
    1723,    1783,    1784,    1831,    1830
    1724,    1784,    1785,    1832,    1831
    1725,    1785,    1786,    1833,    1832
    1726,    1786,    1787,    1834,    1833
    1727,    1787,    1788,    1835,    1834
    1728,    1788,    1789,    1836,    1835
    1729,    1789,    1790,    1837,    1836
    1730,    1790,    1791,    1838,    1837
    1731,    1791,    1792,    1839,    1838
    1732,    1792,    1793,    1840,    1839
    1733,    1793,    1794,    1841,    1840
    1734,    1794,    1795,    1842,    1841
    1735,    1795,    1796,    1843,    1842
    1736,    1796,    1797,    1844,    1843
    1737,    1797,    1798,    1845,    1844
    1738,    1798,    1799,    1846,    1845
    1739,    1799,    1800,    1847,    1846
    1740,    1800,    1801,    1848,    1847
    1741,    1801,    1802,    1849,    1848
    1742,    1802,    1803,    1850,    1849
    1743,    1803,    1804,    1851,    1850
    1744,    1804,    1805,    1852,    1851
    1745,    1805,    1806,    1853,    1852
    1746,    1806,    1807,    1854,    1853
    1747,    1807,    1808,    1855,    1854
    1748,    1808,    1809,    1856,    1855
    1749,    1810,    1811,    1858,    1857
    1750,    1811,    1812,    1859,    1858
    1751,    1812,    1813,    1860,    1859
    1752,    1813,    1814,    1861,    1860
    1753,    1814,    1815,    1862,    1861
    1754,    1815,    1816,    1863,    1862
    1755,    1816,    1817,    1864,    1863
    1756,    1817,    1818,    1865,    1864
    1757,    1818,    1819,    1866,    1865
    1758,    1819,    1820,    1867,    1866
    1759,    1820,    1821,    1868,    1867
    1760,    1821,    1822,    1869,    1868
    1761,    1822,    1823,    1870,    1869
    1762,    1823,    1824,    1871,    1870
    1763,    1824,    1825,    1872,    1871
    1764,    1825,    1826,    1873,    1872
    1765,    1826,    1827,    1874,    1873
    1766,    1827,    1828,    1875,    1874
    1767,    1828,    1829,    1876,    1875
    1768,    1829,    1830,    1877,    1876
    1769,    1830,    1831,    1878,    1877
    1770,    1831,    1832,    1879,    1878
    1771,    1832,    1833,    1880,    1879
    1772,    1833,    1834,    1881,    1880
    1773,    1834,    1835,    1882,    1881
    1774,    1835,    1836,    1883,    1882
    1775,    1836,    1837,    1884,    1883
    1776,    1837,    1838,    1885,    1884
    1777,    1838,    1839,    1886,    1885
    1778,    1839,    1840,    1887,    1886
    1779,    1840,    1841,    1888,    1887
    1780,    1841,    1842,    1889,    1888
    1781,    1842,    1843,    1890,    1889
    1782,    1843,    1844,    1891,    1890
    1783,    1844,    1845,    1892,    1891
    1784,    1845,    1846,    1893,    1892
    1785,    1846,    1847,    1894,    1893
    1786,    1847,    1848,    1895,    1894
    1787,    1848,    1849,    1896,    1895
    1788,    1849,    1850,    1897,    1896
    1789,    1850,    1851,    1898,    1897
    1790,    1851,    1852,    1899,    1898
    1791,    1852,    1853,    1900,    1899
    1792,    1853,    1854,    1901,    1900
    1793,    1854,    1855,    1902,    1901
    1794,    1855,    1856,    1903,    1902
    1795,    1857,    1858,    1905,    1904
    1796,    1858,    1859,    1906,    1905
    1797,    1859,    1860,    1907,    1906
    1798,    1860,    1861,    1908,    1907
    1799,    1861,    1862,    1909,    1908
    1800,    1862,    1863,    1910,    1909
    1801,    1863,    1864,    1911,    1910
    1802,    1864,    1865,    1912,    1911
    1803,    1865,    1866,    1913,    1912
    1804,    1866,    1867,    1914,    1913
    1805,    1867,    1868,    1915,    1914
    1806,    1868,    1869,    1916,    1915
    1807,    1869,    1870,    1917,    1916
    1808,    1870,    1871,    1918,    1917
    1809,    1871,    1872,    1919,    1918
    1810,    1872,    1873,    1920,    1919
    1811,    1873,    1874,    1921,    1920
    1812,    1874,    1875,    1922,    1921
    1813,    1875,    1876,    1923,    1922
    1814,    1876,    1877,    1924,    1923
    1815,    1877,    1878,    1925,    1924
    1816,    1878,    1879,    1926,    1925
    1817,    1879,    1880,    1927,    1926
    1818,    1880,    1881,    1928,    1927
    1819,    1881,    1882,    1929,    1928
    1820,    1882,    1883,    1930,    1929
    1821,    1883,    1884,    1931,    1930
    1822,    1884,    1885,    1932,    1931
    1823,    1885,    1886,    1933,    1932
    1824,    1886,    1887,    1934,    1933
    1825,    1887,    1888,    1935,    1934
    1826,    1888,    1889,    1936,    1935
    1827,    1889,    1890,    1937,    1936
    1828,    1890,    1891,    1938,    1937
    1829,    1891,    1892,    1939,    1938
    1830,    1892,    1893,    1940,    1939
    1831,    1893,    1894,    1941,    1940
    1832,    1894,    1895,    1942,    1941
    1833,    1895,    1896,    1943,    1942
    1834,    1896,    1897,    1944,    1943
    1835,    1897,    1898,    1945,    1944
    1836,    1898,    1899,    1946,    1945
    1837,    1899,    1900,    1947,    1946
    1838,    1900,    1901,    1948,    1947
    1839,    1901,    1902,    1949,    1948
    1840,    1902,    1903,    1950,    1949
    1841,    1904,    1905,    1952,    1951
    1842,    1905,    1906,    1953,    1952
    1843,    1906,    1907,    1954,    1953
    1844,    1907,    1908,    1955,    1954
    1845,    1908,    1909,    1956,    1955
    1846,    1909,    1910,    1957,    1956
    1847,    1910,    1911,    1958,    1957
    1848,    1911,    1912,    1959,    1958
    1849,    1912,    1913,    1960,    1959
    1850,    1913,    1914,    1961,    1960
    1851,    1914,    1915,    1962,    1961
    1852,    1915,    1916,    1963,    1962
    1853,    1916,    1917,    1964,    1963
    1854,    1917,    1918,    1965,    1964
    1855,    1918,    1919,    1966,    1965
    1856,    1919,    1920,    1967,    1966
    1857,    1920,    1921,    1968,    1967
    1858,    1921,    1922,    1969,    1968
    1859,    1922,    1923,    1970,    1969
    1860,    1923,    1924,    1971,    1970
    1861,    1924,    1925,    1972,    1971
    1862,    1925,    1926,    1973,    1972
    1863,    1926,    1927,    1974,    1973
    1864,    1927,    1928,    1975,    1974
    1865,    1928,    1929,    1976,    1975
    1866,    1929,    1930,    1977,    1976
    1867,    1930,    1931,    1978,    1977
    1868,    1931,    1932,    1979,    1978
    1869,    1932,    1933,    1980,    1979
    1870,    1933,    1934,    1981,    1980
    1871,    1934,    1935,    1982,    1981
    1872,    1935,    1936,    1983,    1982
    1873,    1936,    1937,    1984,    1983
    1874,    1937,    1938,    1985,    1984
    1875,    1938,    1939,    1986,    1985
    1876,    1939,    1940,    1987,    1986
    1877,    1940,    1941,    1988,    1987
    1878,    1941,    1942,    1989,    1988
    1879,    1942,    1943,    1990,    1989
    1880,    1943,    1944,    1991,    1990
    1881,    1944,    1945,    1992,    1991
    1882,    1945,    1946,    1993,    1992
    1883,    1946,    1947,    1994,    1993
    1884,    1947,    1948,    1995,    1994
    1885,    1948,    1949,    1996,    1995
    1886,    1949,    1950,    1997,    1996
    1887,    1951,    1952,    1999,    1998
    1888,    1952,    1953,    2000,    1999
    1889,    1953,    1954,    2001,    2000
    1890,    1954,    1955,    2002,    2001
    1891,    1955,    1956,    2003,    2002
    1892,    1956,    1957,    2004,    2003
    1893,    1957,    1958,    2005,    2004
    1894,    1958,    1959,    2006,    2005
    1895,    1959,    1960,    2007,    2006
    1896,    1960,    1961,    2008,    2007
    1897,    1961,    1962,    2009,    2008
    1898,    1962,    1963,    2010,    2009
    1899,    1963,    1964,    2011,    2010
    1900,    1964,    1965,    2012,    2011
    1901,    1965,    1966,    2013,    2012
    1902,    1966,    1967,    2014,    2013
    1903,    1967,    1968,    2015,    2014
    1904,    1968,    1969,    2016,    2015
    1905,    1969,    1970,    2017,    2016
    1906,    1970,    1971,    2018,    2017
    1907,    1971,    1972,    2019,    2018
    1908,    1972,    1973,    2020,    2019
    1909,    1973,    1974,    2021,    2020
    1910,    1974,    1975,    2022,    2021
    1911,    1975,    1976,    2023,    2022
    1912,    1976,    1977,    2024,    2023
    1913,    1977,    1978,    2025,    2024
    1914,    1978,    1979,    2026,    2025
    1915,    1979,    1980,    2027,    2026
    1916,    1980,    1981,    2028,    2027
    1917,    1981,    1982,    2029,    2028
    1918,    1982,    1983,    2030,    2029
    1919,    1983,    1984,    2031,    2030
    1920,    1984,    1985,    2032,    2031
    1921,    1985,    1986,    2033,    2032
    1922,    1986,    1987,    2034,    2033
    1923,    1987,    1988,    2035,    2034
    1924,    1988,    1989,    2036,    2035
    1925,    1989,    1990,    2037,    2036
    1926,    1990,    1991,    2038,    2037
    1927,    1991,    1992,    2039,    2038
    1928,    1992,    1993,    2040,    2039
    1929,    1993,    1994,    2041,    2040
    1930,    1994,    1995,    2042,    2041
    1931,    1995,    1996,    2043,    2042
    1932,    1996,    1997,    2044,    2043
    1933,    1998,    1999,    2046,    2045
    1934,    1999,    2000,    2047,    2046
    1935,    2000,    2001,    2048,    2047
    1936,    2001,    2002,    2049,    2048
    1937,    2002,    2003,    2050,    2049
    1938,    2003,    2004,    2051,    2050
    1939,    2004,    2005,    2052,    2051
    1940,    2005,    2006,    2053,    2052
    1941,    2006,    2007,    2054,    2053
    1942,    2007,    2008,    2055,    2054
    1943,    2008,    2009,    2056,    2055
    1944,    2009,    2010,    2057,    2056
    1945,    2010,    2011,    2058,    2057
    1946,    2011,    2012,    2059,    2058
    1947,    2012,    2013,    2060,    2059
    1948,    2013,    2014,    2061,    2060
    1949,    2014,    2015,    2062,    2061
    1950,    2015,    2016,    2063,    2062
    1951,    2016,    2017,    2064,    2063
    1952,    2017,    2018,    2065,    2064
    1953,    2018,    2019,    2066,    2065
    1954,    2019,    2020,    2067,    2066
    1955,    2020,    2021,    2068,    2067
    1956,    2021,    2022,    2069,    2068
    1957,    2022,    2023,    2070,    2069
    1958,    2023,    2024,    2071,    2070
    1959,    2024,    2025,    2072,    2071
    1960,    2025,    2026,    2073,    2072
    1961,    2026,    2027,    2074,    2073
    1962,    2027,    2028,    2075,    2074
    1963,    2028,    2029,    2076,    2075
    1964,    2029,    2030,    2077,    2076
    1965,    2030,    2031,    2078,    2077
    1966,    2031,    2032,    2079,    2078
    1967,    2032,    2033,    2080,    2079
    1968,    2033,    2034,    2081,    2080
    1969,    2034,    2035,    2082,    2081
    1970,    2035,    2036,    2083,    2082
    1971,    2036,    2037,    2084,    2083
    1972,    2037,    2038,    2085,    2084
    1973,    2038,    2039,    2086,    2085
    1974,    2039,    2040,    2087,    2086
    1975,    2040,    2041,    2088,    2087
    1976,    2041,    2042,    2089,    2088
    1977,    2042,    2043,    2090,    2089
    1978,    2043,    2044,    2091,    2090
    1979,    2045,    2046,    2093,    2092
    1980,    2046,    2047,    2094,    2093
    1981,    2047,    2048,    2095,    2094
    1982,    2048,    2049,    2096,    2095
    1983,    2049,    2050,    2097,    2096
    1984,    2050,    2051,    2098,    2097
    1985,    2051,    2052,    2099,    2098
    1986,    2052,    2053,    2100,    2099
    1987,    2053,    2054,    2101,    2100
    1988,    2054,    2055,    2102,    2101
    1989,    2055,    2056,    2103,    2102
    1990,    2056,    2057,    2104,    2103
    1991,    2057,    2058,    2105,    2104
    1992,    2058,    2059,    2106,    2105
    1993,    2059,    2060,    2107,    2106
    1994,    2060,    2061,    2108,    2107
    1995,    2061,    2062,    2109,    2108
    1996,    2062,    2063,    2110,    2109
    1997,    2063,    2064,    2111,    2110
    1998,    2064,    2065,    2112,    2111
    1999,    2065,    2066,    2113,    2112
    2000,    2066,    2067,    2114,    2113
    2001,    2067,    2068,    2115,    2114
    2002,    2068,    2069,    2116,    2115
    2003,    2069,    2070,    2117,    2116
    2004,    2070,    2071,    2118,    2117
    2005,    2071,    2072,    2119,    2118
    2006,    2072,    2073,    2120,    2119
    2007,    2073,    2074,    2121,    2120
    2008,    2074,    2075,    2122,    2121
    2009,    2075,    2076,    2123,    2122
    2010,    2076,    2077,    2124,    2123
    2011,    2077,    2078,    2125,    2124
    2012,    2078,    2079,    2126,    2125
    2013,    2079,    2080,    2127,    2126
    2014,    2080,    2081,    2128,    2127
    2015,    2081,    2082,    2129,    2128
    2016,    2082,    2083,    2130,    2129
    2017,    2083,    2084,    2131,    2130
    2018,    2084,    2085,    2132,    2131
    2019,    2085,    2086,    2133,    2132
    2020,    2086,    2087,    2134,    2133
    2021,    2087,    2088,    2135,    2134
    2022,    2088,    2089,    2136,    2135
    2023,    2089,    2090,    2137,    2136
    2024,    2090,    2091,    2138,    2137
    2025,    2092,    2093,    2140,    2139
    2026,    2093,    2094,    2141,    2140
    2027,    2094,    2095,    2142,    2141
    2028,    2095,    2096,    2143,    2142
    2029,    2096,    2097,    2144,    2143
    2030,    2097,    2098,    2145,    2144
    2031,    2098,    2099,    2146,    2145
    2032,    2099,    2100,    2147,    2146
    2033,    2100,    2101,    2148,    2147
    2034,    2101,    2102,    2149,    2148
    2035,    2102,    2103,    2150,    2149
    2036,    2103,    2104,    2151,    2150
    2037,    2104,    2105,    2152,    2151
    2038,    2105,    2106,    2153,    2152
    2039,    2106,    2107,    2154,    2153
    2040,    2107,    2108,    2155,    2154
    2041,    2108,    2109,    2156,    2155
    2042,    2109,    2110,    2157,    2156
    2043,    2110,    2111,    2158,    2157
    2044,    2111,    2112,    2159,    2158
    2045,    2112,    2113,    2160,    2159
    2046,    2113,    2114,    2161,    2160
    2047,    2114,    2115,    2162,    2161
    2048,    2115,    2116,    2163,    2162
    2049,    2116,    2117,    2164,    2163
    2050,    2117,    2118,    2165,    2164
    2051,    2118,    2119,    2166,    2165
    2052,    2119,    2120,    2167,    2166
    2053,    2120,    2121,    2168,    2167
    2054,    2121,    2122,    2169,    2168
    2055,    2122,    2123,    2170,    2169
    2056,    2123,    2124,    2171,    2170
    2057,    2124,    2125,    2172,    2171
    2058,    2125,    2126,    2173,    2172
    2059,    2126,    2127,    2174,    2173
    2060,    2127,    2128,    2175,    2174
    2061,    2128,    2129,    2176,    2175
    2062,    2129,    2130,    2177,    2176
    2063,    2130,    2131,    2178,    2177
    2064,    2131,    2132,    2179,    2178
    2065,    2132,    2133,    2180,    2179
    2066,    2133,    2134,    2181,    2180
    2067,    2134,    2135,    2182,    2181
    2068,    2135,    2136,    2183,    2182
    2069,    2136,    2137,    2184,    2183
    2070,    2137,    2138,    2185,    2184
    2071,    2139,    2140,    2187,    2186
    2072,    2140,    2141,    2188,    2187
    2073,    2141,    2142,    2189,    2188
    2074,    2142,    2143,    2190,    2189
    2075,    2143,    2144,    2191,    2190
    2076,    2144,    2145,    2192,    2191
    2077,    2145,    2146,    2193,    2192
    2078,    2146,    2147,    2194,    2193
    2079,    2147,    2148,    2195,    2194
    2080,    2148,    2149,    2196,    2195
    2081,    2149,    2150,    2197,    2196
    2082,    2150,    2151,    2198,    2197
    2083,    2151,    2152,    2199,    2198
    2084,    2152,    2153,    2200,    2199
    2085,    2153,    2154,    2201,    2200
    2086,    2154,    2155,    2202,    2201
    2087,    2155,    2156,    2203,    2202
    2088,    2156,    2157,    2204,    2203
    2089,    2157,    2158,    2205,    2204
    2090,    2158,    2159,    2206,    2205
    2091,    2159,    2160,    2207,    2206
    2092,    2160,    2161,    2208,    2207
    2093,    2161,    2162,    2209,    2208
    2094,    2162,    2163,    2210,    2209
    2095,    2163,    2164,    2211,    2210
    2096,    2164,    2165,    2212,    2211
    2097,    2165,    2166,    2213,    2212
    2098,    2166,    2167,    2214,    2213
    2099,    2167,    2168,    2215,    2214
    2100,    2168,    2169,    2216,    2215
    2101,    2169,    2170,    2217,    2216
    2102,    2170,    2171,    2218,    2217
    2103,    2171,    2172,    2219,    2218
    2104,    2172,    2173,    2220,    2219
    2105,    2173,    2174,    2221,    2220
    2106,    2174,    2175,    2222,    2221
    2107,    2175,    2176,    2223,    2222
    2108,    2176,    2177,    2224,    2223
    2109,    2177,    2178,    2225,    2224
    2110,    2178,    2179,    2226,    2225
    2111,    2179,    2180,    2227,    2226
    2112,    2180,    2181,    2228,    2227
    2113,    2181,    2182,    2229,    2228
    2114,    2182,    2183,    2230,    2229
    2115,    2183,    2184,    2231,    2230
    2116,    2184,    2185,    2232,    2231
** Layer 2: Displacement Elements (2117 .. 4232)
*Element, type=U2, elset=DISP_QUAD
    2117,       1,       2,      49,      48
    2118,       2,       3,      50,      49
    2119,       3,       4,      51,      50
    2120,       4,       5,      52,      51
    2121,       5,       6,      53,      52
    2122,       6,       7,      54,      53
    2123,       7,       8,      55,      54
    2124,       8,       9,      56,      55
    2125,       9,      10,      57,      56
    2126,      10,      11,      58,      57
    2127,      11,      12,      59,      58
    2128,      12,      13,      60,      59
    2129,      13,      14,      61,      60
    2130,      14,      15,      62,      61
    2131,      15,      16,      63,      62
    2132,      16,      17,      64,      63
    2133,      17,      18,      65,      64
    2134,      18,      19,      66,      65
    2135,      19,      20,      67,      66
    2136,      20,      21,      68,      67
    2137,      21,      22,      69,      68
    2138,      22,      23,      70,      69
    2139,      23,      24,      71,      70
    2140,      24,      25,      72,      71
    2141,      25,      26,      73,      72
    2142,      26,      27,      74,      73
    2143,      27,      28,      75,      74
    2144,      28,      29,      76,      75
    2145,      29,      30,      77,      76
    2146,      30,      31,      78,      77
    2147,      31,      32,      79,      78
    2148,      32,      33,      80,      79
    2149,      33,      34,      81,      80
    2150,      34,      35,      82,      81
    2151,      35,      36,      83,      82
    2152,      36,      37,      84,      83
    2153,      37,      38,      85,      84
    2154,      38,      39,      86,      85
    2155,      39,      40,      87,      86
    2156,      40,      41,      88,      87
    2157,      41,      42,      89,      88
    2158,      42,      43,      90,      89
    2159,      43,      44,      91,      90
    2160,      44,      45,      92,      91
    2161,      45,      46,      93,      92
    2162,      46,      47,      94,      93
    2163,      48,      49,      96,      95
    2164,      49,      50,      97,      96
    2165,      50,      51,      98,      97
    2166,      51,      52,      99,      98
    2167,      52,      53,     100,      99
    2168,      53,      54,     101,     100
    2169,      54,      55,     102,     101
    2170,      55,      56,     103,     102
    2171,      56,      57,     104,     103
    2172,      57,      58,     105,     104
    2173,      58,      59,     106,     105
    2174,      59,      60,     107,     106
    2175,      60,      61,     108,     107
    2176,      61,      62,     109,     108
    2177,      62,      63,     110,     109
    2178,      63,      64,     111,     110
    2179,      64,      65,     112,     111
    2180,      65,      66,     113,     112
    2181,      66,      67,     114,     113
    2182,      67,      68,     115,     114
    2183,      68,      69,     116,     115
    2184,      69,      70,     117,     116
    2185,      70,      71,     118,     117
    2186,      71,      72,     119,     118
    2187,      72,      73,     120,     119
    2188,      73,      74,     121,     120
    2189,      74,      75,     122,     121
    2190,      75,      76,     123,     122
    2191,      76,      77,     124,     123
    2192,      77,      78,     125,     124
    2193,      78,      79,     126,     125
    2194,      79,      80,     127,     126
    2195,      80,      81,     128,     127
    2196,      81,      82,     129,     128
    2197,      82,      83,     130,     129
    2198,      83,      84,     131,     130
    2199,      84,      85,     132,     131
    2200,      85,      86,     133,     132
    2201,      86,      87,     134,     133
    2202,      87,      88,     135,     134
    2203,      88,      89,     136,     135
    2204,      89,      90,     137,     136
    2205,      90,      91,     138,     137
    2206,      91,      92,     139,     138
    2207,      92,      93,     140,     139
    2208,      93,      94,     141,     140
    2209,      95,      96,     143,     142
    2210,      96,      97,     144,     143
    2211,      97,      98,     145,     144
    2212,      98,      99,     146,     145
    2213,      99,     100,     147,     146
    2214,     100,     101,     148,     147
    2215,     101,     102,     149,     148
    2216,     102,     103,     150,     149
    2217,     103,     104,     151,     150
    2218,     104,     105,     152,     151
    2219,     105,     106,     153,     152
    2220,     106,     107,     154,     153
    2221,     107,     108,     155,     154
    2222,     108,     109,     156,     155
    2223,     109,     110,     157,     156
    2224,     110,     111,     158,     157
    2225,     111,     112,     159,     158
    2226,     112,     113,     160,     159
    2227,     113,     114,     161,     160
    2228,     114,     115,     162,     161
    2229,     115,     116,     163,     162
    2230,     116,     117,     164,     163
    2231,     117,     118,     165,     164
    2232,     118,     119,     166,     165
    2233,     119,     120,     167,     166
    2234,     120,     121,     168,     167
    2235,     121,     122,     169,     168
    2236,     122,     123,     170,     169
    2237,     123,     124,     171,     170
    2238,     124,     125,     172,     171
    2239,     125,     126,     173,     172
    2240,     126,     127,     174,     173
    2241,     127,     128,     175,     174
    2242,     128,     129,     176,     175
    2243,     129,     130,     177,     176
    2244,     130,     131,     178,     177
    2245,     131,     132,     179,     178
    2246,     132,     133,     180,     179
    2247,     133,     134,     181,     180
    2248,     134,     135,     182,     181
    2249,     135,     136,     183,     182
    2250,     136,     137,     184,     183
    2251,     137,     138,     185,     184
    2252,     138,     139,     186,     185
    2253,     139,     140,     187,     186
    2254,     140,     141,     188,     187
    2255,     142,     143,     190,     189
    2256,     143,     144,     191,     190
    2257,     144,     145,     192,     191
    2258,     145,     146,     193,     192
    2259,     146,     147,     194,     193
    2260,     147,     148,     195,     194
    2261,     148,     149,     196,     195
    2262,     149,     150,     197,     196
    2263,     150,     151,     198,     197
    2264,     151,     152,     199,     198
    2265,     152,     153,     200,     199
    2266,     153,     154,     201,     200
    2267,     154,     155,     202,     201
    2268,     155,     156,     203,     202
    2269,     156,     157,     204,     203
    2270,     157,     158,     205,     204
    2271,     158,     159,     206,     205
    2272,     159,     160,     207,     206
    2273,     160,     161,     208,     207
    2274,     161,     162,     209,     208
    2275,     162,     163,     210,     209
    2276,     163,     164,     211,     210
    2277,     164,     165,     212,     211
    2278,     165,     166,     213,     212
    2279,     166,     167,     214,     213
    2280,     167,     168,     215,     214
    2281,     168,     169,     216,     215
    2282,     169,     170,     217,     216
    2283,     170,     171,     218,     217
    2284,     171,     172,     219,     218
    2285,     172,     173,     220,     219
    2286,     173,     174,     221,     220
    2287,     174,     175,     222,     221
    2288,     175,     176,     223,     222
    2289,     176,     177,     224,     223
    2290,     177,     178,     225,     224
    2291,     178,     179,     226,     225
    2292,     179,     180,     227,     226
    2293,     180,     181,     228,     227
    2294,     181,     182,     229,     228
    2295,     182,     183,     230,     229
    2296,     183,     184,     231,     230
    2297,     184,     185,     232,     231
    2298,     185,     186,     233,     232
    2299,     186,     187,     234,     233
    2300,     187,     188,     235,     234
    2301,     189,     190,     237,     236
    2302,     190,     191,     238,     237
    2303,     191,     192,     239,     238
    2304,     192,     193,     240,     239
    2305,     193,     194,     241,     240
    2306,     194,     195,     242,     241
    2307,     195,     196,     243,     242
    2308,     196,     197,     244,     243
    2309,     197,     198,     245,     244
    2310,     198,     199,     246,     245
    2311,     199,     200,     247,     246
    2312,     200,     201,     248,     247
    2313,     201,     202,     249,     248
    2314,     202,     203,     250,     249
    2315,     203,     204,     251,     250
    2316,     204,     205,     252,     251
    2317,     205,     206,     253,     252
    2318,     206,     207,     254,     253
    2319,     207,     208,     255,     254
    2320,     208,     209,     256,     255
    2321,     209,     210,     257,     256
    2322,     210,     211,     258,     257
    2323,     211,     212,     259,     258
    2324,     212,     213,     260,     259
    2325,     213,     214,     261,     260
    2326,     214,     215,     262,     261
    2327,     215,     216,     263,     262
    2328,     216,     217,     264,     263
    2329,     217,     218,     265,     264
    2330,     218,     219,     266,     265
    2331,     219,     220,     267,     266
    2332,     220,     221,     268,     267
    2333,     221,     222,     269,     268
    2334,     222,     223,     270,     269
    2335,     223,     224,     271,     270
    2336,     224,     225,     272,     271
    2337,     225,     226,     273,     272
    2338,     226,     227,     274,     273
    2339,     227,     228,     275,     274
    2340,     228,     229,     276,     275
    2341,     229,     230,     277,     276
    2342,     230,     231,     278,     277
    2343,     231,     232,     279,     278
    2344,     232,     233,     280,     279
    2345,     233,     234,     281,     280
    2346,     234,     235,     282,     281
    2347,     236,     237,     284,     283
    2348,     237,     238,     285,     284
    2349,     238,     239,     286,     285
    2350,     239,     240,     287,     286
    2351,     240,     241,     288,     287
    2352,     241,     242,     289,     288
    2353,     242,     243,     290,     289
    2354,     243,     244,     291,     290
    2355,     244,     245,     292,     291
    2356,     245,     246,     293,     292
    2357,     246,     247,     294,     293
    2358,     247,     248,     295,     294
    2359,     248,     249,     296,     295
    2360,     249,     250,     297,     296
    2361,     250,     251,     298,     297
    2362,     251,     252,     299,     298
    2363,     252,     253,     300,     299
    2364,     253,     254,     301,     300
    2365,     254,     255,     302,     301
    2366,     255,     256,     303,     302
    2367,     256,     257,     304,     303
    2368,     257,     258,     305,     304
    2369,     258,     259,     306,     305
    2370,     259,     260,     307,     306
    2371,     260,     261,     308,     307
    2372,     261,     262,     309,     308
    2373,     262,     263,     310,     309
    2374,     263,     264,     311,     310
    2375,     264,     265,     312,     311
    2376,     265,     266,     313,     312
    2377,     266,     267,     314,     313
    2378,     267,     268,     315,     314
    2379,     268,     269,     316,     315
    2380,     269,     270,     317,     316
    2381,     270,     271,     318,     317
    2382,     271,     272,     319,     318
    2383,     272,     273,     320,     319
    2384,     273,     274,     321,     320
    2385,     274,     275,     322,     321
    2386,     275,     276,     323,     322
    2387,     276,     277,     324,     323
    2388,     277,     278,     325,     324
    2389,     278,     279,     326,     325
    2390,     279,     280,     327,     326
    2391,     280,     281,     328,     327
    2392,     281,     282,     329,     328
    2393,     283,     284,     331,     330
    2394,     284,     285,     332,     331
    2395,     285,     286,     333,     332
    2396,     286,     287,     334,     333
    2397,     287,     288,     335,     334
    2398,     288,     289,     336,     335
    2399,     289,     290,     337,     336
    2400,     290,     291,     338,     337
    2401,     291,     292,     339,     338
    2402,     292,     293,     340,     339
    2403,     293,     294,     341,     340
    2404,     294,     295,     342,     341
    2405,     295,     296,     343,     342
    2406,     296,     297,     344,     343
    2407,     297,     298,     345,     344
    2408,     298,     299,     346,     345
    2409,     299,     300,     347,     346
    2410,     300,     301,     348,     347
    2411,     301,     302,     349,     348
    2412,     302,     303,     350,     349
    2413,     303,     304,     351,     350
    2414,     304,     305,     352,     351
    2415,     305,     306,     353,     352
    2416,     306,     307,     354,     353
    2417,     307,     308,     355,     354
    2418,     308,     309,     356,     355
    2419,     309,     310,     357,     356
    2420,     310,     311,     358,     357
    2421,     311,     312,     359,     358
    2422,     312,     313,     360,     359
    2423,     313,     314,     361,     360
    2424,     314,     315,     362,     361
    2425,     315,     316,     363,     362
    2426,     316,     317,     364,     363
    2427,     317,     318,     365,     364
    2428,     318,     319,     366,     365
    2429,     319,     320,     367,     366
    2430,     320,     321,     368,     367
    2431,     321,     322,     369,     368
    2432,     322,     323,     370,     369
    2433,     323,     324,     371,     370
    2434,     324,     325,     372,     371
    2435,     325,     326,     373,     372
    2436,     326,     327,     374,     373
    2437,     327,     328,     375,     374
    2438,     328,     329,     376,     375
    2439,     330,     331,     378,     377
    2440,     331,     332,     379,     378
    2441,     332,     333,     380,     379
    2442,     333,     334,     381,     380
    2443,     334,     335,     382,     381
    2444,     335,     336,     383,     382
    2445,     336,     337,     384,     383
    2446,     337,     338,     385,     384
    2447,     338,     339,     386,     385
    2448,     339,     340,     387,     386
    2449,     340,     341,     388,     387
    2450,     341,     342,     389,     388
    2451,     342,     343,     390,     389
    2452,     343,     344,     391,     390
    2453,     344,     345,     392,     391
    2454,     345,     346,     393,     392
    2455,     346,     347,     394,     393
    2456,     347,     348,     395,     394
    2457,     348,     349,     396,     395
    2458,     349,     350,     397,     396
    2459,     350,     351,     398,     397
    2460,     351,     352,     399,     398
    2461,     352,     353,     400,     399
    2462,     353,     354,     401,     400
    2463,     354,     355,     402,     401
    2464,     355,     356,     403,     402
    2465,     356,     357,     404,     403
    2466,     357,     358,     405,     404
    2467,     358,     359,     406,     405
    2468,     359,     360,     407,     406
    2469,     360,     361,     408,     407
    2470,     361,     362,     409,     408
    2471,     362,     363,     410,     409
    2472,     363,     364,     411,     410
    2473,     364,     365,     412,     411
    2474,     365,     366,     413,     412
    2475,     366,     367,     414,     413
    2476,     367,     368,     415,     414
    2477,     368,     369,     416,     415
    2478,     369,     370,     417,     416
    2479,     370,     371,     418,     417
    2480,     371,     372,     419,     418
    2481,     372,     373,     420,     419
    2482,     373,     374,     421,     420
    2483,     374,     375,     422,     421
    2484,     375,     376,     423,     422
    2485,     377,     378,     425,     424
    2486,     378,     379,     426,     425
    2487,     379,     380,     427,     426
    2488,     380,     381,     428,     427
    2489,     381,     382,     429,     428
    2490,     382,     383,     430,     429
    2491,     383,     384,     431,     430
    2492,     384,     385,     432,     431
    2493,     385,     386,     433,     432
    2494,     386,     387,     434,     433
    2495,     387,     388,     435,     434
    2496,     388,     389,     436,     435
    2497,     389,     390,     437,     436
    2498,     390,     391,     438,     437
    2499,     391,     392,     439,     438
    2500,     392,     393,     440,     439
    2501,     393,     394,     441,     440
    2502,     394,     395,     442,     441
    2503,     395,     396,     443,     442
    2504,     396,     397,     444,     443
    2505,     397,     398,     445,     444
    2506,     398,     399,     446,     445
    2507,     399,     400,     447,     446
    2508,     400,     401,     448,     447
    2509,     401,     402,     449,     448
    2510,     402,     403,     450,     449
    2511,     403,     404,     451,     450
    2512,     404,     405,     452,     451
    2513,     405,     406,     453,     452
    2514,     406,     407,     454,     453
    2515,     407,     408,     455,     454
    2516,     408,     409,     456,     455
    2517,     409,     410,     457,     456
    2518,     410,     411,     458,     457
    2519,     411,     412,     459,     458
    2520,     412,     413,     460,     459
    2521,     413,     414,     461,     460
    2522,     414,     415,     462,     461
    2523,     415,     416,     463,     462
    2524,     416,     417,     464,     463
    2525,     417,     418,     465,     464
    2526,     418,     419,     466,     465
    2527,     419,     420,     467,     466
    2528,     420,     421,     468,     467
    2529,     421,     422,     469,     468
    2530,     422,     423,     470,     469
    2531,     424,     425,     472,     471
    2532,     425,     426,     473,     472
    2533,     426,     427,     474,     473
    2534,     427,     428,     475,     474
    2535,     428,     429,     476,     475
    2536,     429,     430,     477,     476
    2537,     430,     431,     478,     477
    2538,     431,     432,     479,     478
    2539,     432,     433,     480,     479
    2540,     433,     434,     481,     480
    2541,     434,     435,     482,     481
    2542,     435,     436,     483,     482
    2543,     436,     437,     484,     483
    2544,     437,     438,     485,     484
    2545,     438,     439,     486,     485
    2546,     439,     440,     487,     486
    2547,     440,     441,     488,     487
    2548,     441,     442,     489,     488
    2549,     442,     443,     490,     489
    2550,     443,     444,     491,     490
    2551,     444,     445,     492,     491
    2552,     445,     446,     493,     492
    2553,     446,     447,     494,     493
    2554,     447,     448,     495,     494
    2555,     448,     449,     496,     495
    2556,     449,     450,     497,     496
    2557,     450,     451,     498,     497
    2558,     451,     452,     499,     498
    2559,     452,     453,     500,     499
    2560,     453,     454,     501,     500
    2561,     454,     455,     502,     501
    2562,     455,     456,     503,     502
    2563,     456,     457,     504,     503
    2564,     457,     458,     505,     504
    2565,     458,     459,     506,     505
    2566,     459,     460,     507,     506
    2567,     460,     461,     508,     507
    2568,     461,     462,     509,     508
    2569,     462,     463,     510,     509
    2570,     463,     464,     511,     510
    2571,     464,     465,     512,     511
    2572,     465,     466,     513,     512
    2573,     466,     467,     514,     513
    2574,     467,     468,     515,     514
    2575,     468,     469,     516,     515
    2576,     469,     470,     517,     516
    2577,     471,     472,     519,     518
    2578,     472,     473,     520,     519
    2579,     473,     474,     521,     520
    2580,     474,     475,     522,     521
    2581,     475,     476,     523,     522
    2582,     476,     477,     524,     523
    2583,     477,     478,     525,     524
    2584,     478,     479,     526,     525
    2585,     479,     480,     527,     526
    2586,     480,     481,     528,     527
    2587,     481,     482,     529,     528
    2588,     482,     483,     530,     529
    2589,     483,     484,     531,     530
    2590,     484,     485,     532,     531
    2591,     485,     486,     533,     532
    2592,     486,     487,     534,     533
    2593,     487,     488,     535,     534
    2594,     488,     489,     536,     535
    2595,     489,     490,     537,     536
    2596,     490,     491,     538,     537
    2597,     491,     492,     539,     538
    2598,     492,     493,     540,     539
    2599,     493,     494,     541,     540
    2600,     494,     495,     542,     541
    2601,     495,     496,     543,     542
    2602,     496,     497,     544,     543
    2603,     497,     498,     545,     544
    2604,     498,     499,     546,     545
    2605,     499,     500,     547,     546
    2606,     500,     501,     548,     547
    2607,     501,     502,     549,     548
    2608,     502,     503,     550,     549
    2609,     503,     504,     551,     550
    2610,     504,     505,     552,     551
    2611,     505,     506,     553,     552
    2612,     506,     507,     554,     553
    2613,     507,     508,     555,     554
    2614,     508,     509,     556,     555
    2615,     509,     510,     557,     556
    2616,     510,     511,     558,     557
    2617,     511,     512,     559,     558
    2618,     512,     513,     560,     559
    2619,     513,     514,     561,     560
    2620,     514,     515,     562,     561
    2621,     515,     516,     563,     562
    2622,     516,     517,     564,     563
    2623,     518,     519,     566,     565
    2624,     519,     520,     567,     566
    2625,     520,     521,     568,     567
    2626,     521,     522,     569,     568
    2627,     522,     523,     570,     569
    2628,     523,     524,     571,     570
    2629,     524,     525,     572,     571
    2630,     525,     526,     573,     572
    2631,     526,     527,     574,     573
    2632,     527,     528,     575,     574
    2633,     528,     529,     576,     575
    2634,     529,     530,     577,     576
    2635,     530,     531,     578,     577
    2636,     531,     532,     579,     578
    2637,     532,     533,     580,     579
    2638,     533,     534,     581,     580
    2639,     534,     535,     582,     581
    2640,     535,     536,     583,     582
    2641,     536,     537,     584,     583
    2642,     537,     538,     585,     584
    2643,     538,     539,     586,     585
    2644,     539,     540,     587,     586
    2645,     540,     541,     588,     587
    2646,     541,     542,     589,     588
    2647,     542,     543,     590,     589
    2648,     543,     544,     591,     590
    2649,     544,     545,     592,     591
    2650,     545,     546,     593,     592
    2651,     546,     547,     594,     593
    2652,     547,     548,     595,     594
    2653,     548,     549,     596,     595
    2654,     549,     550,     597,     596
    2655,     550,     551,     598,     597
    2656,     551,     552,     599,     598
    2657,     552,     553,     600,     599
    2658,     553,     554,     601,     600
    2659,     554,     555,     602,     601
    2660,     555,     556,     603,     602
    2661,     556,     557,     604,     603
    2662,     557,     558,     605,     604
    2663,     558,     559,     606,     605
    2664,     559,     560,     607,     606
    2665,     560,     561,     608,     607
    2666,     561,     562,     609,     608
    2667,     562,     563,     610,     609
    2668,     563,     564,     611,     610
    2669,     565,     566,     613,     612
    2670,     566,     567,     614,     613
    2671,     567,     568,     615,     614
    2672,     568,     569,     616,     615
    2673,     569,     570,     617,     616
    2674,     570,     571,     618,     617
    2675,     571,     572,     619,     618
    2676,     572,     573,     620,     619
    2677,     573,     574,     621,     620
    2678,     574,     575,     622,     621
    2679,     575,     576,     623,     622
    2680,     576,     577,     624,     623
    2681,     577,     578,     625,     624
    2682,     578,     579,     626,     625
    2683,     579,     580,     627,     626
    2684,     580,     581,     628,     627
    2685,     581,     582,     629,     628
    2686,     582,     583,     630,     629
    2687,     583,     584,     631,     630
    2688,     584,     585,     632,     631
    2689,     585,     586,     633,     632
    2690,     586,     587,     634,     633
    2691,     587,     588,     635,     634
    2692,     588,     589,     636,     635
    2693,     589,     590,     637,     636
    2694,     590,     591,     638,     637
    2695,     591,     592,     639,     638
    2696,     592,     593,     640,     639
    2697,     593,     594,     641,     640
    2698,     594,     595,     642,     641
    2699,     595,     596,     643,     642
    2700,     596,     597,     644,     643
    2701,     597,     598,     645,     644
    2702,     598,     599,     646,     645
    2703,     599,     600,     647,     646
    2704,     600,     601,     648,     647
    2705,     601,     602,     649,     648
    2706,     602,     603,     650,     649
    2707,     603,     604,     651,     650
    2708,     604,     605,     652,     651
    2709,     605,     606,     653,     652
    2710,     606,     607,     654,     653
    2711,     607,     608,     655,     654
    2712,     608,     609,     656,     655
    2713,     609,     610,     657,     656
    2714,     610,     611,     658,     657
    2715,     612,     613,     660,     659
    2716,     613,     614,     661,     660
    2717,     614,     615,     662,     661
    2718,     615,     616,     663,     662
    2719,     616,     617,     664,     663
    2720,     617,     618,     665,     664
    2721,     618,     619,     666,     665
    2722,     619,     620,     667,     666
    2723,     620,     621,     668,     667
    2724,     621,     622,     669,     668
    2725,     622,     623,     670,     669
    2726,     623,     624,     671,     670
    2727,     624,     625,     672,     671
    2728,     625,     626,     673,     672
    2729,     626,     627,     674,     673
    2730,     627,     628,     675,     674
    2731,     628,     629,     676,     675
    2732,     629,     630,     677,     676
    2733,     630,     631,     678,     677
    2734,     631,     632,     679,     678
    2735,     632,     633,     680,     679
    2736,     633,     634,     681,     680
    2737,     634,     635,     682,     681
    2738,     635,     636,     683,     682
    2739,     636,     637,     684,     683
    2740,     637,     638,     685,     684
    2741,     638,     639,     686,     685
    2742,     639,     640,     687,     686
    2743,     640,     641,     688,     687
    2744,     641,     642,     689,     688
    2745,     642,     643,     690,     689
    2746,     643,     644,     691,     690
    2747,     644,     645,     692,     691
    2748,     645,     646,     693,     692
    2749,     646,     647,     694,     693
    2750,     647,     648,     695,     694
    2751,     648,     649,     696,     695
    2752,     649,     650,     697,     696
    2753,     650,     651,     698,     697
    2754,     651,     652,     699,     698
    2755,     652,     653,     700,     699
    2756,     653,     654,     701,     700
    2757,     654,     655,     702,     701
    2758,     655,     656,     703,     702
    2759,     656,     657,     704,     703
    2760,     657,     658,     705,     704
    2761,     659,     660,     707,     706
    2762,     660,     661,     708,     707
    2763,     661,     662,     709,     708
    2764,     662,     663,     710,     709
    2765,     663,     664,     711,     710
    2766,     664,     665,     712,     711
    2767,     665,     666,     713,     712
    2768,     666,     667,     714,     713
    2769,     667,     668,     715,     714
    2770,     668,     669,     716,     715
    2771,     669,     670,     717,     716
    2772,     670,     671,     718,     717
    2773,     671,     672,     719,     718
    2774,     672,     673,     720,     719
    2775,     673,     674,     721,     720
    2776,     674,     675,     722,     721
    2777,     675,     676,     723,     722
    2778,     676,     677,     724,     723
    2779,     677,     678,     725,     724
    2780,     678,     679,     726,     725
    2781,     679,     680,     727,     726
    2782,     680,     681,     728,     727
    2783,     681,     682,     729,     728
    2784,     682,     683,     730,     729
    2785,     683,     684,     731,     730
    2786,     684,     685,     732,     731
    2787,     685,     686,     733,     732
    2788,     686,     687,     734,     733
    2789,     687,     688,     735,     734
    2790,     688,     689,     736,     735
    2791,     689,     690,     737,     736
    2792,     690,     691,     738,     737
    2793,     691,     692,     739,     738
    2794,     692,     693,     740,     739
    2795,     693,     694,     741,     740
    2796,     694,     695,     742,     741
    2797,     695,     696,     743,     742
    2798,     696,     697,     744,     743
    2799,     697,     698,     745,     744
    2800,     698,     699,     746,     745
    2801,     699,     700,     747,     746
    2802,     700,     701,     748,     747
    2803,     701,     702,     749,     748
    2804,     702,     703,     750,     749
    2805,     703,     704,     751,     750
    2806,     704,     705,     752,     751
    2807,     706,     707,     754,     753
    2808,     707,     708,     755,     754
    2809,     708,     709,     756,     755
    2810,     709,     710,     757,     756
    2811,     710,     711,     758,     757
    2812,     711,     712,     759,     758
    2813,     712,     713,     760,     759
    2814,     713,     714,     761,     760
    2815,     714,     715,     762,     761
    2816,     715,     716,     763,     762
    2817,     716,     717,     764,     763
    2818,     717,     718,     765,     764
    2819,     718,     719,     766,     765
    2820,     719,     720,     767,     766
    2821,     720,     721,     768,     767
    2822,     721,     722,     769,     768
    2823,     722,     723,     770,     769
    2824,     723,     724,     771,     770
    2825,     724,     725,     772,     771
    2826,     725,     726,     773,     772
    2827,     726,     727,     774,     773
    2828,     727,     728,     775,     774
    2829,     728,     729,     776,     775
    2830,     729,     730,     777,     776
    2831,     730,     731,     778,     777
    2832,     731,     732,     779,     778
    2833,     732,     733,     780,     779
    2834,     733,     734,     781,     780
    2835,     734,     735,     782,     781
    2836,     735,     736,     783,     782
    2837,     736,     737,     784,     783
    2838,     737,     738,     785,     784
    2839,     738,     739,     786,     785
    2840,     739,     740,     787,     786
    2841,     740,     741,     788,     787
    2842,     741,     742,     789,     788
    2843,     742,     743,     790,     789
    2844,     743,     744,     791,     790
    2845,     744,     745,     792,     791
    2846,     745,     746,     793,     792
    2847,     746,     747,     794,     793
    2848,     747,     748,     795,     794
    2849,     748,     749,     796,     795
    2850,     749,     750,     797,     796
    2851,     750,     751,     798,     797
    2852,     751,     752,     799,     798
    2853,     753,     754,     801,     800
    2854,     754,     755,     802,     801
    2855,     755,     756,     803,     802
    2856,     756,     757,     804,     803
    2857,     757,     758,     805,     804
    2858,     758,     759,     806,     805
    2859,     759,     760,     807,     806
    2860,     760,     761,     808,     807
    2861,     761,     762,     809,     808
    2862,     762,     763,     810,     809
    2863,     763,     764,     811,     810
    2864,     764,     765,     812,     811
    2865,     765,     766,     813,     812
    2866,     766,     767,     814,     813
    2867,     767,     768,     815,     814
    2868,     768,     769,     816,     815
    2869,     769,     770,     817,     816
    2870,     770,     771,     818,     817
    2871,     771,     772,     819,     818
    2872,     772,     773,     820,     819
    2873,     773,     774,     821,     820
    2874,     774,     775,     822,     821
    2875,     775,     776,     823,     822
    2876,     776,     777,     824,     823
    2877,     777,     778,     825,     824
    2878,     778,     779,     826,     825
    2879,     779,     780,     827,     826
    2880,     780,     781,     828,     827
    2881,     781,     782,     829,     828
    2882,     782,     783,     830,     829
    2883,     783,     784,     831,     830
    2884,     784,     785,     832,     831
    2885,     785,     786,     833,     832
    2886,     786,     787,     834,     833
    2887,     787,     788,     835,     834
    2888,     788,     789,     836,     835
    2889,     789,     790,     837,     836
    2890,     790,     791,     838,     837
    2891,     791,     792,     839,     838
    2892,     792,     793,     840,     839
    2893,     793,     794,     841,     840
    2894,     794,     795,     842,     841
    2895,     795,     796,     843,     842
    2896,     796,     797,     844,     843
    2897,     797,     798,     845,     844
    2898,     798,     799,     846,     845
    2899,     800,     801,     848,     847
    2900,     801,     802,     849,     848
    2901,     802,     803,     850,     849
    2902,     803,     804,     851,     850
    2903,     804,     805,     852,     851
    2904,     805,     806,     853,     852
    2905,     806,     807,     854,     853
    2906,     807,     808,     855,     854
    2907,     808,     809,     856,     855
    2908,     809,     810,     857,     856
    2909,     810,     811,     858,     857
    2910,     811,     812,     859,     858
    2911,     812,     813,     860,     859
    2912,     813,     814,     861,     860
    2913,     814,     815,     862,     861
    2914,     815,     816,     863,     862
    2915,     816,     817,     864,     863
    2916,     817,     818,     865,     864
    2917,     818,     819,     866,     865
    2918,     819,     820,     867,     866
    2919,     820,     821,     868,     867
    2920,     821,     822,     869,     868
    2921,     822,     823,     870,     869
    2922,     823,     824,     871,     870
    2923,     824,     825,     872,     871
    2924,     825,     826,     873,     872
    2925,     826,     827,     874,     873
    2926,     827,     828,     875,     874
    2927,     828,     829,     876,     875
    2928,     829,     830,     877,     876
    2929,     830,     831,     878,     877
    2930,     831,     832,     879,     878
    2931,     832,     833,     880,     879
    2932,     833,     834,     881,     880
    2933,     834,     835,     882,     881
    2934,     835,     836,     883,     882
    2935,     836,     837,     884,     883
    2936,     837,     838,     885,     884
    2937,     838,     839,     886,     885
    2938,     839,     840,     887,     886
    2939,     840,     841,     888,     887
    2940,     841,     842,     889,     888
    2941,     842,     843,     890,     889
    2942,     843,     844,     891,     890
    2943,     844,     845,     892,     891
    2944,     845,     846,     893,     892
    2945,     847,     848,     895,     894
    2946,     848,     849,     896,     895
    2947,     849,     850,     897,     896
    2948,     850,     851,     898,     897
    2949,     851,     852,     899,     898
    2950,     852,     853,     900,     899
    2951,     853,     854,     901,     900
    2952,     854,     855,     902,     901
    2953,     855,     856,     903,     902
    2954,     856,     857,     904,     903
    2955,     857,     858,     905,     904
    2956,     858,     859,     906,     905
    2957,     859,     860,     907,     906
    2958,     860,     861,     908,     907
    2959,     861,     862,     909,     908
    2960,     862,     863,     910,     909
    2961,     863,     864,     911,     910
    2962,     864,     865,     912,     911
    2963,     865,     866,     913,     912
    2964,     866,     867,     914,     913
    2965,     867,     868,     915,     914
    2966,     868,     869,     916,     915
    2967,     869,     870,     917,     916
    2968,     870,     871,     918,     917
    2969,     871,     872,     919,     918
    2970,     872,     873,     920,     919
    2971,     873,     874,     921,     920
    2972,     874,     875,     922,     921
    2973,     875,     876,     923,     922
    2974,     876,     877,     924,     923
    2975,     877,     878,     925,     924
    2976,     878,     879,     926,     925
    2977,     879,     880,     927,     926
    2978,     880,     881,     928,     927
    2979,     881,     882,     929,     928
    2980,     882,     883,     930,     929
    2981,     883,     884,     931,     930
    2982,     884,     885,     932,     931
    2983,     885,     886,     933,     932
    2984,     886,     887,     934,     933
    2985,     887,     888,     935,     934
    2986,     888,     889,     936,     935
    2987,     889,     890,     937,     936
    2988,     890,     891,     938,     937
    2989,     891,     892,     939,     938
    2990,     892,     893,     940,     939
    2991,     894,     895,     942,     941
    2992,     895,     896,     943,     942
    2993,     896,     897,     944,     943
    2994,     897,     898,     945,     944
    2995,     898,     899,     946,     945
    2996,     899,     900,     947,     946
    2997,     900,     901,     948,     947
    2998,     901,     902,     949,     948
    2999,     902,     903,     950,     949
    3000,     903,     904,     951,     950
    3001,     904,     905,     952,     951
    3002,     905,     906,     953,     952
    3003,     906,     907,     954,     953
    3004,     907,     908,     955,     954
    3005,     908,     909,     956,     955
    3006,     909,     910,     957,     956
    3007,     910,     911,     958,     957
    3008,     911,     912,     959,     958
    3009,     912,     913,     960,     959
    3010,     913,     914,     961,     960
    3011,     914,     915,     962,     961
    3012,     915,     916,     963,     962
    3013,     916,     917,     964,     963
    3014,     917,     918,     965,     964
    3015,     918,     919,     966,     965
    3016,     919,     920,     967,     966
    3017,     920,     921,     968,     967
    3018,     921,     922,     969,     968
    3019,     922,     923,     970,     969
    3020,     923,     924,     971,     970
    3021,     924,     925,     972,     971
    3022,     925,     926,     973,     972
    3023,     926,     927,     974,     973
    3024,     927,     928,     975,     974
    3025,     928,     929,     976,     975
    3026,     929,     930,     977,     976
    3027,     930,     931,     978,     977
    3028,     931,     932,     979,     978
    3029,     932,     933,     980,     979
    3030,     933,     934,     981,     980
    3031,     934,     935,     982,     981
    3032,     935,     936,     983,     982
    3033,     936,     937,     984,     983
    3034,     937,     938,     985,     984
    3035,     938,     939,     986,     985
    3036,     939,     940,     987,     986
    3037,     941,     942,     989,     988
    3038,     942,     943,     990,     989
    3039,     943,     944,     991,     990
    3040,     944,     945,     992,     991
    3041,     945,     946,     993,     992
    3042,     946,     947,     994,     993
    3043,     947,     948,     995,     994
    3044,     948,     949,     996,     995
    3045,     949,     950,     997,     996
    3046,     950,     951,     998,     997
    3047,     951,     952,     999,     998
    3048,     952,     953,    1000,     999
    3049,     953,     954,    1001,    1000
    3050,     954,     955,    1002,    1001
    3051,     955,     956,    1003,    1002
    3052,     956,     957,    1004,    1003
    3053,     957,     958,    1005,    1004
    3054,     958,     959,    1006,    1005
    3055,     959,     960,    1007,    1006
    3056,     960,     961,    1008,    1007
    3057,     961,     962,    1009,    1008
    3058,     962,     963,    1010,    1009
    3059,     963,     964,    1011,    1010
    3060,     964,     965,    1012,    1011
    3061,     965,     966,    1013,    1012
    3062,     966,     967,    1014,    1013
    3063,     967,     968,    1015,    1014
    3064,     968,     969,    1016,    1015
    3065,     969,     970,    1017,    1016
    3066,     970,     971,    1018,    1017
    3067,     971,     972,    1019,    1018
    3068,     972,     973,    1020,    1019
    3069,     973,     974,    1021,    1020
    3070,     974,     975,    1022,    1021
    3071,     975,     976,    1023,    1022
    3072,     976,     977,    1024,    1023
    3073,     977,     978,    1025,    1024
    3074,     978,     979,    1026,    1025
    3075,     979,     980,    1027,    1026
    3076,     980,     981,    1028,    1027
    3077,     981,     982,    1029,    1028
    3078,     982,     983,    1030,    1029
    3079,     983,     984,    1031,    1030
    3080,     984,     985,    1032,    1031
    3081,     985,     986,    1033,    1032
    3082,     986,     987,    1034,    1033
    3083,     988,     989,    1036,    1035
    3084,     989,     990,    1037,    1036
    3085,     990,     991,    1038,    1037
    3086,     991,     992,    1039,    1038
    3087,     992,     993,    1040,    1039
    3088,     993,     994,    1041,    1040
    3089,     994,     995,    1042,    1041
    3090,     995,     996,    1043,    1042
    3091,     996,     997,    1044,    1043
    3092,     997,     998,    1045,    1044
    3093,     998,     999,    1046,    1045
    3094,     999,    1000,    1047,    1046
    3095,    1000,    1001,    1048,    1047
    3096,    1001,    1002,    1049,    1048
    3097,    1002,    1003,    1050,    1049
    3098,    1003,    1004,    1051,    1050
    3099,    1004,    1005,    1052,    1051
    3100,    1005,    1006,    1053,    1052
    3101,    1006,    1007,    1054,    1053
    3102,    1007,    1008,    1055,    1054
    3103,    1008,    1009,    1056,    1055
    3104,    1009,    1010,    1057,    1056
    3105,    1010,    1011,    1058,    1057
    3106,    1011,    1012,    1059,    1058
    3107,    1012,    1013,    1060,    1059
    3108,    1013,    1014,    1061,    1060
    3109,    1014,    1015,    1062,    1061
    3110,    1015,    1016,    1063,    1062
    3111,    1016,    1017,    1064,    1063
    3112,    1017,    1018,    1065,    1064
    3113,    1018,    1019,    1066,    1065
    3114,    1019,    1020,    1067,    1066
    3115,    1020,    1021,    1068,    1067
    3116,    1021,    1022,    1069,    1068
    3117,    1022,    1023,    1070,    1069
    3118,    1023,    1024,    1071,    1070
    3119,    1024,    1025,    1072,    1071
    3120,    1025,    1026,    1073,    1072
    3121,    1026,    1027,    1074,    1073
    3122,    1027,    1028,    1075,    1074
    3123,    1028,    1029,    1076,    1075
    3124,    1029,    1030,    1077,    1076
    3125,    1030,    1031,    1078,    1077
    3126,    1031,    1032,    1079,    1078
    3127,    1032,    1033,    1080,    1079
    3128,    1033,    1034,    1081,    1080
    3129,    1035,    1036,    1084,    1082
    3130,    1036,    1037,    1086,    1084
    3131,    1037,    1038,    1088,    1086
    3132,    1038,    1039,    1090,    1088
    3133,    1039,    1040,    1092,    1090
    3134,    1040,    1041,    1094,    1092
    3135,    1041,    1042,    1096,    1094
    3136,    1042,    1043,    1098,    1096
    3137,    1043,    1044,    1100,    1098
    3138,    1044,    1045,    1102,    1100
    3139,    1045,    1046,    1104,    1102
    3140,    1046,    1047,    1106,    1104
    3141,    1047,    1048,    1108,    1106
    3142,    1048,    1049,    1110,    1108
    3143,    1049,    1050,    1112,    1110
    3144,    1050,    1051,    1114,    1112
    3145,    1051,    1052,    1116,    1114
    3146,    1052,    1053,    1118,    1116
    3147,    1053,    1054,    1120,    1118
    3148,    1054,    1055,    1122,    1120
    3149,    1055,    1056,    1124,    1122
    3150,    1056,    1057,    1126,    1124
    3151,    1057,    1058,    1128,    1126
    3152,    1058,    1059,    1129,    1128
    3153,    1059,    1060,    1130,    1129
    3154,    1060,    1061,    1131,    1130
    3155,    1061,    1062,    1132,    1131
    3156,    1062,    1063,    1133,    1132
    3157,    1063,    1064,    1134,    1133
    3158,    1064,    1065,    1135,    1134
    3159,    1065,    1066,    1136,    1135
    3160,    1066,    1067,    1137,    1136
    3161,    1067,    1068,    1138,    1137
    3162,    1068,    1069,    1139,    1138
    3163,    1069,    1070,    1140,    1139
    3164,    1070,    1071,    1141,    1140
    3165,    1071,    1072,    1142,    1141
    3166,    1072,    1073,    1143,    1142
    3167,    1073,    1074,    1144,    1143
    3168,    1074,    1075,    1145,    1144
    3169,    1075,    1076,    1146,    1145
    3170,    1076,    1077,    1147,    1146
    3171,    1077,    1078,    1148,    1147
    3172,    1078,    1079,    1149,    1148
    3173,    1079,    1080,    1150,    1149
    3174,    1080,    1081,    1151,    1150
    3175,    1083,    1085,    1153,    1152
    3176,    1085,    1087,    1154,    1153
    3177,    1087,    1089,    1155,    1154
    3178,    1089,    1091,    1156,    1155
    3179,    1091,    1093,    1157,    1156
    3180,    1093,    1095,    1158,    1157
    3181,    1095,    1097,    1159,    1158
    3182,    1097,    1099,    1160,    1159
    3183,    1099,    1101,    1161,    1160
    3184,    1101,    1103,    1162,    1161
    3185,    1103,    1105,    1163,    1162
    3186,    1105,    1107,    1164,    1163
    3187,    1107,    1109,    1165,    1164
    3188,    1109,    1111,    1166,    1165
    3189,    1111,    1113,    1167,    1166
    3190,    1113,    1115,    1168,    1167
    3191,    1115,    1117,    1169,    1168
    3192,    1117,    1119,    1170,    1169
    3193,    1119,    1121,    1171,    1170
    3194,    1121,    1123,    1172,    1171
    3195,    1123,    1125,    1173,    1172
    3196,    1125,    1127,    1174,    1173
    3197,    1127,    1128,    1175,    1174
    3198,    1128,    1129,    1176,    1175
    3199,    1129,    1130,    1177,    1176
    3200,    1130,    1131,    1178,    1177
    3201,    1131,    1132,    1179,    1178
    3202,    1132,    1133,    1180,    1179
    3203,    1133,    1134,    1181,    1180
    3204,    1134,    1135,    1182,    1181
    3205,    1135,    1136,    1183,    1182
    3206,    1136,    1137,    1184,    1183
    3207,    1137,    1138,    1185,    1184
    3208,    1138,    1139,    1186,    1185
    3209,    1139,    1140,    1187,    1186
    3210,    1140,    1141,    1188,    1187
    3211,    1141,    1142,    1189,    1188
    3212,    1142,    1143,    1190,    1189
    3213,    1143,    1144,    1191,    1190
    3214,    1144,    1145,    1192,    1191
    3215,    1145,    1146,    1193,    1192
    3216,    1146,    1147,    1194,    1193
    3217,    1147,    1148,    1195,    1194
    3218,    1148,    1149,    1196,    1195
    3219,    1149,    1150,    1197,    1196
    3220,    1150,    1151,    1198,    1197
    3221,    1152,    1153,    1200,    1199
    3222,    1153,    1154,    1201,    1200
    3223,    1154,    1155,    1202,    1201
    3224,    1155,    1156,    1203,    1202
    3225,    1156,    1157,    1204,    1203
    3226,    1157,    1158,    1205,    1204
    3227,    1158,    1159,    1206,    1205
    3228,    1159,    1160,    1207,    1206
    3229,    1160,    1161,    1208,    1207
    3230,    1161,    1162,    1209,    1208
    3231,    1162,    1163,    1210,    1209
    3232,    1163,    1164,    1211,    1210
    3233,    1164,    1165,    1212,    1211
    3234,    1165,    1166,    1213,    1212
    3235,    1166,    1167,    1214,    1213
    3236,    1167,    1168,    1215,    1214
    3237,    1168,    1169,    1216,    1215
    3238,    1169,    1170,    1217,    1216
    3239,    1170,    1171,    1218,    1217
    3240,    1171,    1172,    1219,    1218
    3241,    1172,    1173,    1220,    1219
    3242,    1173,    1174,    1221,    1220
    3243,    1174,    1175,    1222,    1221
    3244,    1175,    1176,    1223,    1222
    3245,    1176,    1177,    1224,    1223
    3246,    1177,    1178,    1225,    1224
    3247,    1178,    1179,    1226,    1225
    3248,    1179,    1180,    1227,    1226
    3249,    1180,    1181,    1228,    1227
    3250,    1181,    1182,    1229,    1228
    3251,    1182,    1183,    1230,    1229
    3252,    1183,    1184,    1231,    1230
    3253,    1184,    1185,    1232,    1231
    3254,    1185,    1186,    1233,    1232
    3255,    1186,    1187,    1234,    1233
    3256,    1187,    1188,    1235,    1234
    3257,    1188,    1189,    1236,    1235
    3258,    1189,    1190,    1237,    1236
    3259,    1190,    1191,    1238,    1237
    3260,    1191,    1192,    1239,    1238
    3261,    1192,    1193,    1240,    1239
    3262,    1193,    1194,    1241,    1240
    3263,    1194,    1195,    1242,    1241
    3264,    1195,    1196,    1243,    1242
    3265,    1196,    1197,    1244,    1243
    3266,    1197,    1198,    1245,    1244
    3267,    1199,    1200,    1247,    1246
    3268,    1200,    1201,    1248,    1247
    3269,    1201,    1202,    1249,    1248
    3270,    1202,    1203,    1250,    1249
    3271,    1203,    1204,    1251,    1250
    3272,    1204,    1205,    1252,    1251
    3273,    1205,    1206,    1253,    1252
    3274,    1206,    1207,    1254,    1253
    3275,    1207,    1208,    1255,    1254
    3276,    1208,    1209,    1256,    1255
    3277,    1209,    1210,    1257,    1256
    3278,    1210,    1211,    1258,    1257
    3279,    1211,    1212,    1259,    1258
    3280,    1212,    1213,    1260,    1259
    3281,    1213,    1214,    1261,    1260
    3282,    1214,    1215,    1262,    1261
    3283,    1215,    1216,    1263,    1262
    3284,    1216,    1217,    1264,    1263
    3285,    1217,    1218,    1265,    1264
    3286,    1218,    1219,    1266,    1265
    3287,    1219,    1220,    1267,    1266
    3288,    1220,    1221,    1268,    1267
    3289,    1221,    1222,    1269,    1268
    3290,    1222,    1223,    1270,    1269
    3291,    1223,    1224,    1271,    1270
    3292,    1224,    1225,    1272,    1271
    3293,    1225,    1226,    1273,    1272
    3294,    1226,    1227,    1274,    1273
    3295,    1227,    1228,    1275,    1274
    3296,    1228,    1229,    1276,    1275
    3297,    1229,    1230,    1277,    1276
    3298,    1230,    1231,    1278,    1277
    3299,    1231,    1232,    1279,    1278
    3300,    1232,    1233,    1280,    1279
    3301,    1233,    1234,    1281,    1280
    3302,    1234,    1235,    1282,    1281
    3303,    1235,    1236,    1283,    1282
    3304,    1236,    1237,    1284,    1283
    3305,    1237,    1238,    1285,    1284
    3306,    1238,    1239,    1286,    1285
    3307,    1239,    1240,    1287,    1286
    3308,    1240,    1241,    1288,    1287
    3309,    1241,    1242,    1289,    1288
    3310,    1242,    1243,    1290,    1289
    3311,    1243,    1244,    1291,    1290
    3312,    1244,    1245,    1292,    1291
    3313,    1246,    1247,    1294,    1293
    3314,    1247,    1248,    1295,    1294
    3315,    1248,    1249,    1296,    1295
    3316,    1249,    1250,    1297,    1296
    3317,    1250,    1251,    1298,    1297
    3318,    1251,    1252,    1299,    1298
    3319,    1252,    1253,    1300,    1299
    3320,    1253,    1254,    1301,    1300
    3321,    1254,    1255,    1302,    1301
    3322,    1255,    1256,    1303,    1302
    3323,    1256,    1257,    1304,    1303
    3324,    1257,    1258,    1305,    1304
    3325,    1258,    1259,    1306,    1305
    3326,    1259,    1260,    1307,    1306
    3327,    1260,    1261,    1308,    1307
    3328,    1261,    1262,    1309,    1308
    3329,    1262,    1263,    1310,    1309
    3330,    1263,    1264,    1311,    1310
    3331,    1264,    1265,    1312,    1311
    3332,    1265,    1266,    1313,    1312
    3333,    1266,    1267,    1314,    1313
    3334,    1267,    1268,    1315,    1314
    3335,    1268,    1269,    1316,    1315
    3336,    1269,    1270,    1317,    1316
    3337,    1270,    1271,    1318,    1317
    3338,    1271,    1272,    1319,    1318
    3339,    1272,    1273,    1320,    1319
    3340,    1273,    1274,    1321,    1320
    3341,    1274,    1275,    1322,    1321
    3342,    1275,    1276,    1323,    1322
    3343,    1276,    1277,    1324,    1323
    3344,    1277,    1278,    1325,    1324
    3345,    1278,    1279,    1326,    1325
    3346,    1279,    1280,    1327,    1326
    3347,    1280,    1281,    1328,    1327
    3348,    1281,    1282,    1329,    1328
    3349,    1282,    1283,    1330,    1329
    3350,    1283,    1284,    1331,    1330
    3351,    1284,    1285,    1332,    1331
    3352,    1285,    1286,    1333,    1332
    3353,    1286,    1287,    1334,    1333
    3354,    1287,    1288,    1335,    1334
    3355,    1288,    1289,    1336,    1335
    3356,    1289,    1290,    1337,    1336
    3357,    1290,    1291,    1338,    1337
    3358,    1291,    1292,    1339,    1338
    3359,    1293,    1294,    1341,    1340
    3360,    1294,    1295,    1342,    1341
    3361,    1295,    1296,    1343,    1342
    3362,    1296,    1297,    1344,    1343
    3363,    1297,    1298,    1345,    1344
    3364,    1298,    1299,    1346,    1345
    3365,    1299,    1300,    1347,    1346
    3366,    1300,    1301,    1348,    1347
    3367,    1301,    1302,    1349,    1348
    3368,    1302,    1303,    1350,    1349
    3369,    1303,    1304,    1351,    1350
    3370,    1304,    1305,    1352,    1351
    3371,    1305,    1306,    1353,    1352
    3372,    1306,    1307,    1354,    1353
    3373,    1307,    1308,    1355,    1354
    3374,    1308,    1309,    1356,    1355
    3375,    1309,    1310,    1357,    1356
    3376,    1310,    1311,    1358,    1357
    3377,    1311,    1312,    1359,    1358
    3378,    1312,    1313,    1360,    1359
    3379,    1313,    1314,    1361,    1360
    3380,    1314,    1315,    1362,    1361
    3381,    1315,    1316,    1363,    1362
    3382,    1316,    1317,    1364,    1363
    3383,    1317,    1318,    1365,    1364
    3384,    1318,    1319,    1366,    1365
    3385,    1319,    1320,    1367,    1366
    3386,    1320,    1321,    1368,    1367
    3387,    1321,    1322,    1369,    1368
    3388,    1322,    1323,    1370,    1369
    3389,    1323,    1324,    1371,    1370
    3390,    1324,    1325,    1372,    1371
    3391,    1325,    1326,    1373,    1372
    3392,    1326,    1327,    1374,    1373
    3393,    1327,    1328,    1375,    1374
    3394,    1328,    1329,    1376,    1375
    3395,    1329,    1330,    1377,    1376
    3396,    1330,    1331,    1378,    1377
    3397,    1331,    1332,    1379,    1378
    3398,    1332,    1333,    1380,    1379
    3399,    1333,    1334,    1381,    1380
    3400,    1334,    1335,    1382,    1381
    3401,    1335,    1336,    1383,    1382
    3402,    1336,    1337,    1384,    1383
    3403,    1337,    1338,    1385,    1384
    3404,    1338,    1339,    1386,    1385
    3405,    1340,    1341,    1388,    1387
    3406,    1341,    1342,    1389,    1388
    3407,    1342,    1343,    1390,    1389
    3408,    1343,    1344,    1391,    1390
    3409,    1344,    1345,    1392,    1391
    3410,    1345,    1346,    1393,    1392
    3411,    1346,    1347,    1394,    1393
    3412,    1347,    1348,    1395,    1394
    3413,    1348,    1349,    1396,    1395
    3414,    1349,    1350,    1397,    1396
    3415,    1350,    1351,    1398,    1397
    3416,    1351,    1352,    1399,    1398
    3417,    1352,    1353,    1400,    1399
    3418,    1353,    1354,    1401,    1400
    3419,    1354,    1355,    1402,    1401
    3420,    1355,    1356,    1403,    1402
    3421,    1356,    1357,    1404,    1403
    3422,    1357,    1358,    1405,    1404
    3423,    1358,    1359,    1406,    1405
    3424,    1359,    1360,    1407,    1406
    3425,    1360,    1361,    1408,    1407
    3426,    1361,    1362,    1409,    1408
    3427,    1362,    1363,    1410,    1409
    3428,    1363,    1364,    1411,    1410
    3429,    1364,    1365,    1412,    1411
    3430,    1365,    1366,    1413,    1412
    3431,    1366,    1367,    1414,    1413
    3432,    1367,    1368,    1415,    1414
    3433,    1368,    1369,    1416,    1415
    3434,    1369,    1370,    1417,    1416
    3435,    1370,    1371,    1418,    1417
    3436,    1371,    1372,    1419,    1418
    3437,    1372,    1373,    1420,    1419
    3438,    1373,    1374,    1421,    1420
    3439,    1374,    1375,    1422,    1421
    3440,    1375,    1376,    1423,    1422
    3441,    1376,    1377,    1424,    1423
    3442,    1377,    1378,    1425,    1424
    3443,    1378,    1379,    1426,    1425
    3444,    1379,    1380,    1427,    1426
    3445,    1380,    1381,    1428,    1427
    3446,    1381,    1382,    1429,    1428
    3447,    1382,    1383,    1430,    1429
    3448,    1383,    1384,    1431,    1430
    3449,    1384,    1385,    1432,    1431
    3450,    1385,    1386,    1433,    1432
    3451,    1387,    1388,    1435,    1434
    3452,    1388,    1389,    1436,    1435
    3453,    1389,    1390,    1437,    1436
    3454,    1390,    1391,    1438,    1437
    3455,    1391,    1392,    1439,    1438
    3456,    1392,    1393,    1440,    1439
    3457,    1393,    1394,    1441,    1440
    3458,    1394,    1395,    1442,    1441
    3459,    1395,    1396,    1443,    1442
    3460,    1396,    1397,    1444,    1443
    3461,    1397,    1398,    1445,    1444
    3462,    1398,    1399,    1446,    1445
    3463,    1399,    1400,    1447,    1446
    3464,    1400,    1401,    1448,    1447
    3465,    1401,    1402,    1449,    1448
    3466,    1402,    1403,    1450,    1449
    3467,    1403,    1404,    1451,    1450
    3468,    1404,    1405,    1452,    1451
    3469,    1405,    1406,    1453,    1452
    3470,    1406,    1407,    1454,    1453
    3471,    1407,    1408,    1455,    1454
    3472,    1408,    1409,    1456,    1455
    3473,    1409,    1410,    1457,    1456
    3474,    1410,    1411,    1458,    1457
    3475,    1411,    1412,    1459,    1458
    3476,    1412,    1413,    1460,    1459
    3477,    1413,    1414,    1461,    1460
    3478,    1414,    1415,    1462,    1461
    3479,    1415,    1416,    1463,    1462
    3480,    1416,    1417,    1464,    1463
    3481,    1417,    1418,    1465,    1464
    3482,    1418,    1419,    1466,    1465
    3483,    1419,    1420,    1467,    1466
    3484,    1420,    1421,    1468,    1467
    3485,    1421,    1422,    1469,    1468
    3486,    1422,    1423,    1470,    1469
    3487,    1423,    1424,    1471,    1470
    3488,    1424,    1425,    1472,    1471
    3489,    1425,    1426,    1473,    1472
    3490,    1426,    1427,    1474,    1473
    3491,    1427,    1428,    1475,    1474
    3492,    1428,    1429,    1476,    1475
    3493,    1429,    1430,    1477,    1476
    3494,    1430,    1431,    1478,    1477
    3495,    1431,    1432,    1479,    1478
    3496,    1432,    1433,    1480,    1479
    3497,    1434,    1435,    1482,    1481
    3498,    1435,    1436,    1483,    1482
    3499,    1436,    1437,    1484,    1483
    3500,    1437,    1438,    1485,    1484
    3501,    1438,    1439,    1486,    1485
    3502,    1439,    1440,    1487,    1486
    3503,    1440,    1441,    1488,    1487
    3504,    1441,    1442,    1489,    1488
    3505,    1442,    1443,    1490,    1489
    3506,    1443,    1444,    1491,    1490
    3507,    1444,    1445,    1492,    1491
    3508,    1445,    1446,    1493,    1492
    3509,    1446,    1447,    1494,    1493
    3510,    1447,    1448,    1495,    1494
    3511,    1448,    1449,    1496,    1495
    3512,    1449,    1450,    1497,    1496
    3513,    1450,    1451,    1498,    1497
    3514,    1451,    1452,    1499,    1498
    3515,    1452,    1453,    1500,    1499
    3516,    1453,    1454,    1501,    1500
    3517,    1454,    1455,    1502,    1501
    3518,    1455,    1456,    1503,    1502
    3519,    1456,    1457,    1504,    1503
    3520,    1457,    1458,    1505,    1504
    3521,    1458,    1459,    1506,    1505
    3522,    1459,    1460,    1507,    1506
    3523,    1460,    1461,    1508,    1507
    3524,    1461,    1462,    1509,    1508
    3525,    1462,    1463,    1510,    1509
    3526,    1463,    1464,    1511,    1510
    3527,    1464,    1465,    1512,    1511
    3528,    1465,    1466,    1513,    1512
    3529,    1466,    1467,    1514,    1513
    3530,    1467,    1468,    1515,    1514
    3531,    1468,    1469,    1516,    1515
    3532,    1469,    1470,    1517,    1516
    3533,    1470,    1471,    1518,    1517
    3534,    1471,    1472,    1519,    1518
    3535,    1472,    1473,    1520,    1519
    3536,    1473,    1474,    1521,    1520
    3537,    1474,    1475,    1522,    1521
    3538,    1475,    1476,    1523,    1522
    3539,    1476,    1477,    1524,    1523
    3540,    1477,    1478,    1525,    1524
    3541,    1478,    1479,    1526,    1525
    3542,    1479,    1480,    1527,    1526
    3543,    1481,    1482,    1529,    1528
    3544,    1482,    1483,    1530,    1529
    3545,    1483,    1484,    1531,    1530
    3546,    1484,    1485,    1532,    1531
    3547,    1485,    1486,    1533,    1532
    3548,    1486,    1487,    1534,    1533
    3549,    1487,    1488,    1535,    1534
    3550,    1488,    1489,    1536,    1535
    3551,    1489,    1490,    1537,    1536
    3552,    1490,    1491,    1538,    1537
    3553,    1491,    1492,    1539,    1538
    3554,    1492,    1493,    1540,    1539
    3555,    1493,    1494,    1541,    1540
    3556,    1494,    1495,    1542,    1541
    3557,    1495,    1496,    1543,    1542
    3558,    1496,    1497,    1544,    1543
    3559,    1497,    1498,    1545,    1544
    3560,    1498,    1499,    1546,    1545
    3561,    1499,    1500,    1547,    1546
    3562,    1500,    1501,    1548,    1547
    3563,    1501,    1502,    1549,    1548
    3564,    1502,    1503,    1550,    1549
    3565,    1503,    1504,    1551,    1550
    3566,    1504,    1505,    1552,    1551
    3567,    1505,    1506,    1553,    1552
    3568,    1506,    1507,    1554,    1553
    3569,    1507,    1508,    1555,    1554
    3570,    1508,    1509,    1556,    1555
    3571,    1509,    1510,    1557,    1556
    3572,    1510,    1511,    1558,    1557
    3573,    1511,    1512,    1559,    1558
    3574,    1512,    1513,    1560,    1559
    3575,    1513,    1514,    1561,    1560
    3576,    1514,    1515,    1562,    1561
    3577,    1515,    1516,    1563,    1562
    3578,    1516,    1517,    1564,    1563
    3579,    1517,    1518,    1565,    1564
    3580,    1518,    1519,    1566,    1565
    3581,    1519,    1520,    1567,    1566
    3582,    1520,    1521,    1568,    1567
    3583,    1521,    1522,    1569,    1568
    3584,    1522,    1523,    1570,    1569
    3585,    1523,    1524,    1571,    1570
    3586,    1524,    1525,    1572,    1571
    3587,    1525,    1526,    1573,    1572
    3588,    1526,    1527,    1574,    1573
    3589,    1528,    1529,    1576,    1575
    3590,    1529,    1530,    1577,    1576
    3591,    1530,    1531,    1578,    1577
    3592,    1531,    1532,    1579,    1578
    3593,    1532,    1533,    1580,    1579
    3594,    1533,    1534,    1581,    1580
    3595,    1534,    1535,    1582,    1581
    3596,    1535,    1536,    1583,    1582
    3597,    1536,    1537,    1584,    1583
    3598,    1537,    1538,    1585,    1584
    3599,    1538,    1539,    1586,    1585
    3600,    1539,    1540,    1587,    1586
    3601,    1540,    1541,    1588,    1587
    3602,    1541,    1542,    1589,    1588
    3603,    1542,    1543,    1590,    1589
    3604,    1543,    1544,    1591,    1590
    3605,    1544,    1545,    1592,    1591
    3606,    1545,    1546,    1593,    1592
    3607,    1546,    1547,    1594,    1593
    3608,    1547,    1548,    1595,    1594
    3609,    1548,    1549,    1596,    1595
    3610,    1549,    1550,    1597,    1596
    3611,    1550,    1551,    1598,    1597
    3612,    1551,    1552,    1599,    1598
    3613,    1552,    1553,    1600,    1599
    3614,    1553,    1554,    1601,    1600
    3615,    1554,    1555,    1602,    1601
    3616,    1555,    1556,    1603,    1602
    3617,    1556,    1557,    1604,    1603
    3618,    1557,    1558,    1605,    1604
    3619,    1558,    1559,    1606,    1605
    3620,    1559,    1560,    1607,    1606
    3621,    1560,    1561,    1608,    1607
    3622,    1561,    1562,    1609,    1608
    3623,    1562,    1563,    1610,    1609
    3624,    1563,    1564,    1611,    1610
    3625,    1564,    1565,    1612,    1611
    3626,    1565,    1566,    1613,    1612
    3627,    1566,    1567,    1614,    1613
    3628,    1567,    1568,    1615,    1614
    3629,    1568,    1569,    1616,    1615
    3630,    1569,    1570,    1617,    1616
    3631,    1570,    1571,    1618,    1617
    3632,    1571,    1572,    1619,    1618
    3633,    1572,    1573,    1620,    1619
    3634,    1573,    1574,    1621,    1620
    3635,    1575,    1576,    1623,    1622
    3636,    1576,    1577,    1624,    1623
    3637,    1577,    1578,    1625,    1624
    3638,    1578,    1579,    1626,    1625
    3639,    1579,    1580,    1627,    1626
    3640,    1580,    1581,    1628,    1627
    3641,    1581,    1582,    1629,    1628
    3642,    1582,    1583,    1630,    1629
    3643,    1583,    1584,    1631,    1630
    3644,    1584,    1585,    1632,    1631
    3645,    1585,    1586,    1633,    1632
    3646,    1586,    1587,    1634,    1633
    3647,    1587,    1588,    1635,    1634
    3648,    1588,    1589,    1636,    1635
    3649,    1589,    1590,    1637,    1636
    3650,    1590,    1591,    1638,    1637
    3651,    1591,    1592,    1639,    1638
    3652,    1592,    1593,    1640,    1639
    3653,    1593,    1594,    1641,    1640
    3654,    1594,    1595,    1642,    1641
    3655,    1595,    1596,    1643,    1642
    3656,    1596,    1597,    1644,    1643
    3657,    1597,    1598,    1645,    1644
    3658,    1598,    1599,    1646,    1645
    3659,    1599,    1600,    1647,    1646
    3660,    1600,    1601,    1648,    1647
    3661,    1601,    1602,    1649,    1648
    3662,    1602,    1603,    1650,    1649
    3663,    1603,    1604,    1651,    1650
    3664,    1604,    1605,    1652,    1651
    3665,    1605,    1606,    1653,    1652
    3666,    1606,    1607,    1654,    1653
    3667,    1607,    1608,    1655,    1654
    3668,    1608,    1609,    1656,    1655
    3669,    1609,    1610,    1657,    1656
    3670,    1610,    1611,    1658,    1657
    3671,    1611,    1612,    1659,    1658
    3672,    1612,    1613,    1660,    1659
    3673,    1613,    1614,    1661,    1660
    3674,    1614,    1615,    1662,    1661
    3675,    1615,    1616,    1663,    1662
    3676,    1616,    1617,    1664,    1663
    3677,    1617,    1618,    1665,    1664
    3678,    1618,    1619,    1666,    1665
    3679,    1619,    1620,    1667,    1666
    3680,    1620,    1621,    1668,    1667
    3681,    1622,    1623,    1670,    1669
    3682,    1623,    1624,    1671,    1670
    3683,    1624,    1625,    1672,    1671
    3684,    1625,    1626,    1673,    1672
    3685,    1626,    1627,    1674,    1673
    3686,    1627,    1628,    1675,    1674
    3687,    1628,    1629,    1676,    1675
    3688,    1629,    1630,    1677,    1676
    3689,    1630,    1631,    1678,    1677
    3690,    1631,    1632,    1679,    1678
    3691,    1632,    1633,    1680,    1679
    3692,    1633,    1634,    1681,    1680
    3693,    1634,    1635,    1682,    1681
    3694,    1635,    1636,    1683,    1682
    3695,    1636,    1637,    1684,    1683
    3696,    1637,    1638,    1685,    1684
    3697,    1638,    1639,    1686,    1685
    3698,    1639,    1640,    1687,    1686
    3699,    1640,    1641,    1688,    1687
    3700,    1641,    1642,    1689,    1688
    3701,    1642,    1643,    1690,    1689
    3702,    1643,    1644,    1691,    1690
    3703,    1644,    1645,    1692,    1691
    3704,    1645,    1646,    1693,    1692
    3705,    1646,    1647,    1694,    1693
    3706,    1647,    1648,    1695,    1694
    3707,    1648,    1649,    1696,    1695
    3708,    1649,    1650,    1697,    1696
    3709,    1650,    1651,    1698,    1697
    3710,    1651,    1652,    1699,    1698
    3711,    1652,    1653,    1700,    1699
    3712,    1653,    1654,    1701,    1700
    3713,    1654,    1655,    1702,    1701
    3714,    1655,    1656,    1703,    1702
    3715,    1656,    1657,    1704,    1703
    3716,    1657,    1658,    1705,    1704
    3717,    1658,    1659,    1706,    1705
    3718,    1659,    1660,    1707,    1706
    3719,    1660,    1661,    1708,    1707
    3720,    1661,    1662,    1709,    1708
    3721,    1662,    1663,    1710,    1709
    3722,    1663,    1664,    1711,    1710
    3723,    1664,    1665,    1712,    1711
    3724,    1665,    1666,    1713,    1712
    3725,    1666,    1667,    1714,    1713
    3726,    1667,    1668,    1715,    1714
    3727,    1669,    1670,    1717,    1716
    3728,    1670,    1671,    1718,    1717
    3729,    1671,    1672,    1719,    1718
    3730,    1672,    1673,    1720,    1719
    3731,    1673,    1674,    1721,    1720
    3732,    1674,    1675,    1722,    1721
    3733,    1675,    1676,    1723,    1722
    3734,    1676,    1677,    1724,    1723
    3735,    1677,    1678,    1725,    1724
    3736,    1678,    1679,    1726,    1725
    3737,    1679,    1680,    1727,    1726
    3738,    1680,    1681,    1728,    1727
    3739,    1681,    1682,    1729,    1728
    3740,    1682,    1683,    1730,    1729
    3741,    1683,    1684,    1731,    1730
    3742,    1684,    1685,    1732,    1731
    3743,    1685,    1686,    1733,    1732
    3744,    1686,    1687,    1734,    1733
    3745,    1687,    1688,    1735,    1734
    3746,    1688,    1689,    1736,    1735
    3747,    1689,    1690,    1737,    1736
    3748,    1690,    1691,    1738,    1737
    3749,    1691,    1692,    1739,    1738
    3750,    1692,    1693,    1740,    1739
    3751,    1693,    1694,    1741,    1740
    3752,    1694,    1695,    1742,    1741
    3753,    1695,    1696,    1743,    1742
    3754,    1696,    1697,    1744,    1743
    3755,    1697,    1698,    1745,    1744
    3756,    1698,    1699,    1746,    1745
    3757,    1699,    1700,    1747,    1746
    3758,    1700,    1701,    1748,    1747
    3759,    1701,    1702,    1749,    1748
    3760,    1702,    1703,    1750,    1749
    3761,    1703,    1704,    1751,    1750
    3762,    1704,    1705,    1752,    1751
    3763,    1705,    1706,    1753,    1752
    3764,    1706,    1707,    1754,    1753
    3765,    1707,    1708,    1755,    1754
    3766,    1708,    1709,    1756,    1755
    3767,    1709,    1710,    1757,    1756
    3768,    1710,    1711,    1758,    1757
    3769,    1711,    1712,    1759,    1758
    3770,    1712,    1713,    1760,    1759
    3771,    1713,    1714,    1761,    1760
    3772,    1714,    1715,    1762,    1761
    3773,    1716,    1717,    1764,    1763
    3774,    1717,    1718,    1765,    1764
    3775,    1718,    1719,    1766,    1765
    3776,    1719,    1720,    1767,    1766
    3777,    1720,    1721,    1768,    1767
    3778,    1721,    1722,    1769,    1768
    3779,    1722,    1723,    1770,    1769
    3780,    1723,    1724,    1771,    1770
    3781,    1724,    1725,    1772,    1771
    3782,    1725,    1726,    1773,    1772
    3783,    1726,    1727,    1774,    1773
    3784,    1727,    1728,    1775,    1774
    3785,    1728,    1729,    1776,    1775
    3786,    1729,    1730,    1777,    1776
    3787,    1730,    1731,    1778,    1777
    3788,    1731,    1732,    1779,    1778
    3789,    1732,    1733,    1780,    1779
    3790,    1733,    1734,    1781,    1780
    3791,    1734,    1735,    1782,    1781
    3792,    1735,    1736,    1783,    1782
    3793,    1736,    1737,    1784,    1783
    3794,    1737,    1738,    1785,    1784
    3795,    1738,    1739,    1786,    1785
    3796,    1739,    1740,    1787,    1786
    3797,    1740,    1741,    1788,    1787
    3798,    1741,    1742,    1789,    1788
    3799,    1742,    1743,    1790,    1789
    3800,    1743,    1744,    1791,    1790
    3801,    1744,    1745,    1792,    1791
    3802,    1745,    1746,    1793,    1792
    3803,    1746,    1747,    1794,    1793
    3804,    1747,    1748,    1795,    1794
    3805,    1748,    1749,    1796,    1795
    3806,    1749,    1750,    1797,    1796
    3807,    1750,    1751,    1798,    1797
    3808,    1751,    1752,    1799,    1798
    3809,    1752,    1753,    1800,    1799
    3810,    1753,    1754,    1801,    1800
    3811,    1754,    1755,    1802,    1801
    3812,    1755,    1756,    1803,    1802
    3813,    1756,    1757,    1804,    1803
    3814,    1757,    1758,    1805,    1804
    3815,    1758,    1759,    1806,    1805
    3816,    1759,    1760,    1807,    1806
    3817,    1760,    1761,    1808,    1807
    3818,    1761,    1762,    1809,    1808
    3819,    1763,    1764,    1811,    1810
    3820,    1764,    1765,    1812,    1811
    3821,    1765,    1766,    1813,    1812
    3822,    1766,    1767,    1814,    1813
    3823,    1767,    1768,    1815,    1814
    3824,    1768,    1769,    1816,    1815
    3825,    1769,    1770,    1817,    1816
    3826,    1770,    1771,    1818,    1817
    3827,    1771,    1772,    1819,    1818
    3828,    1772,    1773,    1820,    1819
    3829,    1773,    1774,    1821,    1820
    3830,    1774,    1775,    1822,    1821
    3831,    1775,    1776,    1823,    1822
    3832,    1776,    1777,    1824,    1823
    3833,    1777,    1778,    1825,    1824
    3834,    1778,    1779,    1826,    1825
    3835,    1779,    1780,    1827,    1826
    3836,    1780,    1781,    1828,    1827
    3837,    1781,    1782,    1829,    1828
    3838,    1782,    1783,    1830,    1829
    3839,    1783,    1784,    1831,    1830
    3840,    1784,    1785,    1832,    1831
    3841,    1785,    1786,    1833,    1832
    3842,    1786,    1787,    1834,    1833
    3843,    1787,    1788,    1835,    1834
    3844,    1788,    1789,    1836,    1835
    3845,    1789,    1790,    1837,    1836
    3846,    1790,    1791,    1838,    1837
    3847,    1791,    1792,    1839,    1838
    3848,    1792,    1793,    1840,    1839
    3849,    1793,    1794,    1841,    1840
    3850,    1794,    1795,    1842,    1841
    3851,    1795,    1796,    1843,    1842
    3852,    1796,    1797,    1844,    1843
    3853,    1797,    1798,    1845,    1844
    3854,    1798,    1799,    1846,    1845
    3855,    1799,    1800,    1847,    1846
    3856,    1800,    1801,    1848,    1847
    3857,    1801,    1802,    1849,    1848
    3858,    1802,    1803,    1850,    1849
    3859,    1803,    1804,    1851,    1850
    3860,    1804,    1805,    1852,    1851
    3861,    1805,    1806,    1853,    1852
    3862,    1806,    1807,    1854,    1853
    3863,    1807,    1808,    1855,    1854
    3864,    1808,    1809,    1856,    1855
    3865,    1810,    1811,    1858,    1857
    3866,    1811,    1812,    1859,    1858
    3867,    1812,    1813,    1860,    1859
    3868,    1813,    1814,    1861,    1860
    3869,    1814,    1815,    1862,    1861
    3870,    1815,    1816,    1863,    1862
    3871,    1816,    1817,    1864,    1863
    3872,    1817,    1818,    1865,    1864
    3873,    1818,    1819,    1866,    1865
    3874,    1819,    1820,    1867,    1866
    3875,    1820,    1821,    1868,    1867
    3876,    1821,    1822,    1869,    1868
    3877,    1822,    1823,    1870,    1869
    3878,    1823,    1824,    1871,    1870
    3879,    1824,    1825,    1872,    1871
    3880,    1825,    1826,    1873,    1872
    3881,    1826,    1827,    1874,    1873
    3882,    1827,    1828,    1875,    1874
    3883,    1828,    1829,    1876,    1875
    3884,    1829,    1830,    1877,    1876
    3885,    1830,    1831,    1878,    1877
    3886,    1831,    1832,    1879,    1878
    3887,    1832,    1833,    1880,    1879
    3888,    1833,    1834,    1881,    1880
    3889,    1834,    1835,    1882,    1881
    3890,    1835,    1836,    1883,    1882
    3891,    1836,    1837,    1884,    1883
    3892,    1837,    1838,    1885,    1884
    3893,    1838,    1839,    1886,    1885
    3894,    1839,    1840,    1887,    1886
    3895,    1840,    1841,    1888,    1887
    3896,    1841,    1842,    1889,    1888
    3897,    1842,    1843,    1890,    1889
    3898,    1843,    1844,    1891,    1890
    3899,    1844,    1845,    1892,    1891
    3900,    1845,    1846,    1893,    1892
    3901,    1846,    1847,    1894,    1893
    3902,    1847,    1848,    1895,    1894
    3903,    1848,    1849,    1896,    1895
    3904,    1849,    1850,    1897,    1896
    3905,    1850,    1851,    1898,    1897
    3906,    1851,    1852,    1899,    1898
    3907,    1852,    1853,    1900,    1899
    3908,    1853,    1854,    1901,    1900
    3909,    1854,    1855,    1902,    1901
    3910,    1855,    1856,    1903,    1902
    3911,    1857,    1858,    1905,    1904
    3912,    1858,    1859,    1906,    1905
    3913,    1859,    1860,    1907,    1906
    3914,    1860,    1861,    1908,    1907
    3915,    1861,    1862,    1909,    1908
    3916,    1862,    1863,    1910,    1909
    3917,    1863,    1864,    1911,    1910
    3918,    1864,    1865,    1912,    1911
    3919,    1865,    1866,    1913,    1912
    3920,    1866,    1867,    1914,    1913
    3921,    1867,    1868,    1915,    1914
    3922,    1868,    1869,    1916,    1915
    3923,    1869,    1870,    1917,    1916
    3924,    1870,    1871,    1918,    1917
    3925,    1871,    1872,    1919,    1918
    3926,    1872,    1873,    1920,    1919
    3927,    1873,    1874,    1921,    1920
    3928,    1874,    1875,    1922,    1921
    3929,    1875,    1876,    1923,    1922
    3930,    1876,    1877,    1924,    1923
    3931,    1877,    1878,    1925,    1924
    3932,    1878,    1879,    1926,    1925
    3933,    1879,    1880,    1927,    1926
    3934,    1880,    1881,    1928,    1927
    3935,    1881,    1882,    1929,    1928
    3936,    1882,    1883,    1930,    1929
    3937,    1883,    1884,    1931,    1930
    3938,    1884,    1885,    1932,    1931
    3939,    1885,    1886,    1933,    1932
    3940,    1886,    1887,    1934,    1933
    3941,    1887,    1888,    1935,    1934
    3942,    1888,    1889,    1936,    1935
    3943,    1889,    1890,    1937,    1936
    3944,    1890,    1891,    1938,    1937
    3945,    1891,    1892,    1939,    1938
    3946,    1892,    1893,    1940,    1939
    3947,    1893,    1894,    1941,    1940
    3948,    1894,    1895,    1942,    1941
    3949,    1895,    1896,    1943,    1942
    3950,    1896,    1897,    1944,    1943
    3951,    1897,    1898,    1945,    1944
    3952,    1898,    1899,    1946,    1945
    3953,    1899,    1900,    1947,    1946
    3954,    1900,    1901,    1948,    1947
    3955,    1901,    1902,    1949,    1948
    3956,    1902,    1903,    1950,    1949
    3957,    1904,    1905,    1952,    1951
    3958,    1905,    1906,    1953,    1952
    3959,    1906,    1907,    1954,    1953
    3960,    1907,    1908,    1955,    1954
    3961,    1908,    1909,    1956,    1955
    3962,    1909,    1910,    1957,    1956
    3963,    1910,    1911,    1958,    1957
    3964,    1911,    1912,    1959,    1958
    3965,    1912,    1913,    1960,    1959
    3966,    1913,    1914,    1961,    1960
    3967,    1914,    1915,    1962,    1961
    3968,    1915,    1916,    1963,    1962
    3969,    1916,    1917,    1964,    1963
    3970,    1917,    1918,    1965,    1964
    3971,    1918,    1919,    1966,    1965
    3972,    1919,    1920,    1967,    1966
    3973,    1920,    1921,    1968,    1967
    3974,    1921,    1922,    1969,    1968
    3975,    1922,    1923,    1970,    1969
    3976,    1923,    1924,    1971,    1970
    3977,    1924,    1925,    1972,    1971
    3978,    1925,    1926,    1973,    1972
    3979,    1926,    1927,    1974,    1973
    3980,    1927,    1928,    1975,    1974
    3981,    1928,    1929,    1976,    1975
    3982,    1929,    1930,    1977,    1976
    3983,    1930,    1931,    1978,    1977
    3984,    1931,    1932,    1979,    1978
    3985,    1932,    1933,    1980,    1979
    3986,    1933,    1934,    1981,    1980
    3987,    1934,    1935,    1982,    1981
    3988,    1935,    1936,    1983,    1982
    3989,    1936,    1937,    1984,    1983
    3990,    1937,    1938,    1985,    1984
    3991,    1938,    1939,    1986,    1985
    3992,    1939,    1940,    1987,    1986
    3993,    1940,    1941,    1988,    1987
    3994,    1941,    1942,    1989,    1988
    3995,    1942,    1943,    1990,    1989
    3996,    1943,    1944,    1991,    1990
    3997,    1944,    1945,    1992,    1991
    3998,    1945,    1946,    1993,    1992
    3999,    1946,    1947,    1994,    1993
    4000,    1947,    1948,    1995,    1994
    4001,    1948,    1949,    1996,    1995
    4002,    1949,    1950,    1997,    1996
    4003,    1951,    1952,    1999,    1998
    4004,    1952,    1953,    2000,    1999
    4005,    1953,    1954,    2001,    2000
    4006,    1954,    1955,    2002,    2001
    4007,    1955,    1956,    2003,    2002
    4008,    1956,    1957,    2004,    2003
    4009,    1957,    1958,    2005,    2004
    4010,    1958,    1959,    2006,    2005
    4011,    1959,    1960,    2007,    2006
    4012,    1960,    1961,    2008,    2007
    4013,    1961,    1962,    2009,    2008
    4014,    1962,    1963,    2010,    2009
    4015,    1963,    1964,    2011,    2010
    4016,    1964,    1965,    2012,    2011
    4017,    1965,    1966,    2013,    2012
    4018,    1966,    1967,    2014,    2013
    4019,    1967,    1968,    2015,    2014
    4020,    1968,    1969,    2016,    2015
    4021,    1969,    1970,    2017,    2016
    4022,    1970,    1971,    2018,    2017
    4023,    1971,    1972,    2019,    2018
    4024,    1972,    1973,    2020,    2019
    4025,    1973,    1974,    2021,    2020
    4026,    1974,    1975,    2022,    2021
    4027,    1975,    1976,    2023,    2022
    4028,    1976,    1977,    2024,    2023
    4029,    1977,    1978,    2025,    2024
    4030,    1978,    1979,    2026,    2025
    4031,    1979,    1980,    2027,    2026
    4032,    1980,    1981,    2028,    2027
    4033,    1981,    1982,    2029,    2028
    4034,    1982,    1983,    2030,    2029
    4035,    1983,    1984,    2031,    2030
    4036,    1984,    1985,    2032,    2031
    4037,    1985,    1986,    2033,    2032
    4038,    1986,    1987,    2034,    2033
    4039,    1987,    1988,    2035,    2034
    4040,    1988,    1989,    2036,    2035
    4041,    1989,    1990,    2037,    2036
    4042,    1990,    1991,    2038,    2037
    4043,    1991,    1992,    2039,    2038
    4044,    1992,    1993,    2040,    2039
    4045,    1993,    1994,    2041,    2040
    4046,    1994,    1995,    2042,    2041
    4047,    1995,    1996,    2043,    2042
    4048,    1996,    1997,    2044,    2043
    4049,    1998,    1999,    2046,    2045
    4050,    1999,    2000,    2047,    2046
    4051,    2000,    2001,    2048,    2047
    4052,    2001,    2002,    2049,    2048
    4053,    2002,    2003,    2050,    2049
    4054,    2003,    2004,    2051,    2050
    4055,    2004,    2005,    2052,    2051
    4056,    2005,    2006,    2053,    2052
    4057,    2006,    2007,    2054,    2053
    4058,    2007,    2008,    2055,    2054
    4059,    2008,    2009,    2056,    2055
    4060,    2009,    2010,    2057,    2056
    4061,    2010,    2011,    2058,    2057
    4062,    2011,    2012,    2059,    2058
    4063,    2012,    2013,    2060,    2059
    4064,    2013,    2014,    2061,    2060
    4065,    2014,    2015,    2062,    2061
    4066,    2015,    2016,    2063,    2062
    4067,    2016,    2017,    2064,    2063
    4068,    2017,    2018,    2065,    2064
    4069,    2018,    2019,    2066,    2065
    4070,    2019,    2020,    2067,    2066
    4071,    2020,    2021,    2068,    2067
    4072,    2021,    2022,    2069,    2068
    4073,    2022,    2023,    2070,    2069
    4074,    2023,    2024,    2071,    2070
    4075,    2024,    2025,    2072,    2071
    4076,    2025,    2026,    2073,    2072
    4077,    2026,    2027,    2074,    2073
    4078,    2027,    2028,    2075,    2074
    4079,    2028,    2029,    2076,    2075
    4080,    2029,    2030,    2077,    2076
    4081,    2030,    2031,    2078,    2077
    4082,    2031,    2032,    2079,    2078
    4083,    2032,    2033,    2080,    2079
    4084,    2033,    2034,    2081,    2080
    4085,    2034,    2035,    2082,    2081
    4086,    2035,    2036,    2083,    2082
    4087,    2036,    2037,    2084,    2083
    4088,    2037,    2038,    2085,    2084
    4089,    2038,    2039,    2086,    2085
    4090,    2039,    2040,    2087,    2086
    4091,    2040,    2041,    2088,    2087
    4092,    2041,    2042,    2089,    2088
    4093,    2042,    2043,    2090,    2089
    4094,    2043,    2044,    2091,    2090
    4095,    2045,    2046,    2093,    2092
    4096,    2046,    2047,    2094,    2093
    4097,    2047,    2048,    2095,    2094
    4098,    2048,    2049,    2096,    2095
    4099,    2049,    2050,    2097,    2096
    4100,    2050,    2051,    2098,    2097
    4101,    2051,    2052,    2099,    2098
    4102,    2052,    2053,    2100,    2099
    4103,    2053,    2054,    2101,    2100
    4104,    2054,    2055,    2102,    2101
    4105,    2055,    2056,    2103,    2102
    4106,    2056,    2057,    2104,    2103
    4107,    2057,    2058,    2105,    2104
    4108,    2058,    2059,    2106,    2105
    4109,    2059,    2060,    2107,    2106
    4110,    2060,    2061,    2108,    2107
    4111,    2061,    2062,    2109,    2108
    4112,    2062,    2063,    2110,    2109
    4113,    2063,    2064,    2111,    2110
    4114,    2064,    2065,    2112,    2111
    4115,    2065,    2066,    2113,    2112
    4116,    2066,    2067,    2114,    2113
    4117,    2067,    2068,    2115,    2114
    4118,    2068,    2069,    2116,    2115
    4119,    2069,    2070,    2117,    2116
    4120,    2070,    2071,    2118,    2117
    4121,    2071,    2072,    2119,    2118
    4122,    2072,    2073,    2120,    2119
    4123,    2073,    2074,    2121,    2120
    4124,    2074,    2075,    2122,    2121
    4125,    2075,    2076,    2123,    2122
    4126,    2076,    2077,    2124,    2123
    4127,    2077,    2078,    2125,    2124
    4128,    2078,    2079,    2126,    2125
    4129,    2079,    2080,    2127,    2126
    4130,    2080,    2081,    2128,    2127
    4131,    2081,    2082,    2129,    2128
    4132,    2082,    2083,    2130,    2129
    4133,    2083,    2084,    2131,    2130
    4134,    2084,    2085,    2132,    2131
    4135,    2085,    2086,    2133,    2132
    4136,    2086,    2087,    2134,    2133
    4137,    2087,    2088,    2135,    2134
    4138,    2088,    2089,    2136,    2135
    4139,    2089,    2090,    2137,    2136
    4140,    2090,    2091,    2138,    2137
    4141,    2092,    2093,    2140,    2139
    4142,    2093,    2094,    2141,    2140
    4143,    2094,    2095,    2142,    2141
    4144,    2095,    2096,    2143,    2142
    4145,    2096,    2097,    2144,    2143
    4146,    2097,    2098,    2145,    2144
    4147,    2098,    2099,    2146,    2145
    4148,    2099,    2100,    2147,    2146
    4149,    2100,    2101,    2148,    2147
    4150,    2101,    2102,    2149,    2148
    4151,    2102,    2103,    2150,    2149
    4152,    2103,    2104,    2151,    2150
    4153,    2104,    2105,    2152,    2151
    4154,    2105,    2106,    2153,    2152
    4155,    2106,    2107,    2154,    2153
    4156,    2107,    2108,    2155,    2154
    4157,    2108,    2109,    2156,    2155
    4158,    2109,    2110,    2157,    2156
    4159,    2110,    2111,    2158,    2157
    4160,    2111,    2112,    2159,    2158
    4161,    2112,    2113,    2160,    2159
    4162,    2113,    2114,    2161,    2160
    4163,    2114,    2115,    2162,    2161
    4164,    2115,    2116,    2163,    2162
    4165,    2116,    2117,    2164,    2163
    4166,    2117,    2118,    2165,    2164
    4167,    2118,    2119,    2166,    2165
    4168,    2119,    2120,    2167,    2166
    4169,    2120,    2121,    2168,    2167
    4170,    2121,    2122,    2169,    2168
    4171,    2122,    2123,    2170,    2169
    4172,    2123,    2124,    2171,    2170
    4173,    2124,    2125,    2172,    2171
    4174,    2125,    2126,    2173,    2172
    4175,    2126,    2127,    2174,    2173
    4176,    2127,    2128,    2175,    2174
    4177,    2128,    2129,    2176,    2175
    4178,    2129,    2130,    2177,    2176
    4179,    2130,    2131,    2178,    2177
    4180,    2131,    2132,    2179,    2178
    4181,    2132,    2133,    2180,    2179
    4182,    2133,    2134,    2181,    2180
    4183,    2134,    2135,    2182,    2181
    4184,    2135,    2136,    2183,    2182
    4185,    2136,    2137,    2184,    2183
    4186,    2137,    2138,    2185,    2184
    4187,    2139,    2140,    2187,    2186
    4188,    2140,    2141,    2188,    2187
    4189,    2141,    2142,    2189,    2188
    4190,    2142,    2143,    2190,    2189
    4191,    2143,    2144,    2191,    2190
    4192,    2144,    2145,    2192,    2191
    4193,    2145,    2146,    2193,    2192
    4194,    2146,    2147,    2194,    2193
    4195,    2147,    2148,    2195,    2194
    4196,    2148,    2149,    2196,    2195
    4197,    2149,    2150,    2197,    2196
    4198,    2150,    2151,    2198,    2197
    4199,    2151,    2152,    2199,    2198
    4200,    2152,    2153,    2200,    2199
    4201,    2153,    2154,    2201,    2200
    4202,    2154,    2155,    2202,    2201
    4203,    2155,    2156,    2203,    2202
    4204,    2156,    2157,    2204,    2203
    4205,    2157,    2158,    2205,    2204
    4206,    2158,    2159,    2206,    2205
    4207,    2159,    2160,    2207,    2206
    4208,    2160,    2161,    2208,    2207
    4209,    2161,    2162,    2209,    2208
    4210,    2162,    2163,    2210,    2209
    4211,    2163,    2164,    2211,    2210
    4212,    2164,    2165,    2212,    2211
    4213,    2165,    2166,    2213,    2212
    4214,    2166,    2167,    2214,    2213
    4215,    2167,    2168,    2215,    2214
    4216,    2168,    2169,    2216,    2215
    4217,    2169,    2170,    2217,    2216
    4218,    2170,    2171,    2218,    2217
    4219,    2171,    2172,    2219,    2218
    4220,    2172,    2173,    2220,    2219
    4221,    2173,    2174,    2221,    2220
    4222,    2174,    2175,    2222,    2221
    4223,    2175,    2176,    2223,    2222
    4224,    2176,    2177,    2224,    2223
    4225,    2177,    2178,    2225,    2224
    4226,    2178,    2179,    2226,    2225
    4227,    2179,    2180,    2227,    2226
    4228,    2180,    2181,    2228,    2227
    4229,    2181,    2182,    2229,    2228
    4230,    2182,    2183,    2230,    2229
    4231,    2183,    2184,    2231,    2230
    4232,    2184,    2185,    2232,    2231
** Layer 3: Facsimile Output Elements (4233 .. 6348)
*Element, type=CPE4, elset=UMAT_QUAD
    4233,       1,       2,      49,      48
    4234,       2,       3,      50,      49
    4235,       3,       4,      51,      50
    4236,       4,       5,      52,      51
    4237,       5,       6,      53,      52
    4238,       6,       7,      54,      53
    4239,       7,       8,      55,      54
    4240,       8,       9,      56,      55
    4241,       9,      10,      57,      56
    4242,      10,      11,      58,      57
    4243,      11,      12,      59,      58
    4244,      12,      13,      60,      59
    4245,      13,      14,      61,      60
    4246,      14,      15,      62,      61
    4247,      15,      16,      63,      62
    4248,      16,      17,      64,      63
    4249,      17,      18,      65,      64
    4250,      18,      19,      66,      65
    4251,      19,      20,      67,      66
    4252,      20,      21,      68,      67
    4253,      21,      22,      69,      68
    4254,      22,      23,      70,      69
    4255,      23,      24,      71,      70
    4256,      24,      25,      72,      71
    4257,      25,      26,      73,      72
    4258,      26,      27,      74,      73
    4259,      27,      28,      75,      74
    4260,      28,      29,      76,      75
    4261,      29,      30,      77,      76
    4262,      30,      31,      78,      77
    4263,      31,      32,      79,      78
    4264,      32,      33,      80,      79
    4265,      33,      34,      81,      80
    4266,      34,      35,      82,      81
    4267,      35,      36,      83,      82
    4268,      36,      37,      84,      83
    4269,      37,      38,      85,      84
    4270,      38,      39,      86,      85
    4271,      39,      40,      87,      86
    4272,      40,      41,      88,      87
    4273,      41,      42,      89,      88
    4274,      42,      43,      90,      89
    4275,      43,      44,      91,      90
    4276,      44,      45,      92,      91
    4277,      45,      46,      93,      92
    4278,      46,      47,      94,      93
    4279,      48,      49,      96,      95
    4280,      49,      50,      97,      96
    4281,      50,      51,      98,      97
    4282,      51,      52,      99,      98
    4283,      52,      53,     100,      99
    4284,      53,      54,     101,     100
    4285,      54,      55,     102,     101
    4286,      55,      56,     103,     102
    4287,      56,      57,     104,     103
    4288,      57,      58,     105,     104
    4289,      58,      59,     106,     105
    4290,      59,      60,     107,     106
    4291,      60,      61,     108,     107
    4292,      61,      62,     109,     108
    4293,      62,      63,     110,     109
    4294,      63,      64,     111,     110
    4295,      64,      65,     112,     111
    4296,      65,      66,     113,     112
    4297,      66,      67,     114,     113
    4298,      67,      68,     115,     114
    4299,      68,      69,     116,     115
    4300,      69,      70,     117,     116
    4301,      70,      71,     118,     117
    4302,      71,      72,     119,     118
    4303,      72,      73,     120,     119
    4304,      73,      74,     121,     120
    4305,      74,      75,     122,     121
    4306,      75,      76,     123,     122
    4307,      76,      77,     124,     123
    4308,      77,      78,     125,     124
    4309,      78,      79,     126,     125
    4310,      79,      80,     127,     126
    4311,      80,      81,     128,     127
    4312,      81,      82,     129,     128
    4313,      82,      83,     130,     129
    4314,      83,      84,     131,     130
    4315,      84,      85,     132,     131
    4316,      85,      86,     133,     132
    4317,      86,      87,     134,     133
    4318,      87,      88,     135,     134
    4319,      88,      89,     136,     135
    4320,      89,      90,     137,     136
    4321,      90,      91,     138,     137
    4322,      91,      92,     139,     138
    4323,      92,      93,     140,     139
    4324,      93,      94,     141,     140
    4325,      95,      96,     143,     142
    4326,      96,      97,     144,     143
    4327,      97,      98,     145,     144
    4328,      98,      99,     146,     145
    4329,      99,     100,     147,     146
    4330,     100,     101,     148,     147
    4331,     101,     102,     149,     148
    4332,     102,     103,     150,     149
    4333,     103,     104,     151,     150
    4334,     104,     105,     152,     151
    4335,     105,     106,     153,     152
    4336,     106,     107,     154,     153
    4337,     107,     108,     155,     154
    4338,     108,     109,     156,     155
    4339,     109,     110,     157,     156
    4340,     110,     111,     158,     157
    4341,     111,     112,     159,     158
    4342,     112,     113,     160,     159
    4343,     113,     114,     161,     160
    4344,     114,     115,     162,     161
    4345,     115,     116,     163,     162
    4346,     116,     117,     164,     163
    4347,     117,     118,     165,     164
    4348,     118,     119,     166,     165
    4349,     119,     120,     167,     166
    4350,     120,     121,     168,     167
    4351,     121,     122,     169,     168
    4352,     122,     123,     170,     169
    4353,     123,     124,     171,     170
    4354,     124,     125,     172,     171
    4355,     125,     126,     173,     172
    4356,     126,     127,     174,     173
    4357,     127,     128,     175,     174
    4358,     128,     129,     176,     175
    4359,     129,     130,     177,     176
    4360,     130,     131,     178,     177
    4361,     131,     132,     179,     178
    4362,     132,     133,     180,     179
    4363,     133,     134,     181,     180
    4364,     134,     135,     182,     181
    4365,     135,     136,     183,     182
    4366,     136,     137,     184,     183
    4367,     137,     138,     185,     184
    4368,     138,     139,     186,     185
    4369,     139,     140,     187,     186
    4370,     140,     141,     188,     187
    4371,     142,     143,     190,     189
    4372,     143,     144,     191,     190
    4373,     144,     145,     192,     191
    4374,     145,     146,     193,     192
    4375,     146,     147,     194,     193
    4376,     147,     148,     195,     194
    4377,     148,     149,     196,     195
    4378,     149,     150,     197,     196
    4379,     150,     151,     198,     197
    4380,     151,     152,     199,     198
    4381,     152,     153,     200,     199
    4382,     153,     154,     201,     200
    4383,     154,     155,     202,     201
    4384,     155,     156,     203,     202
    4385,     156,     157,     204,     203
    4386,     157,     158,     205,     204
    4387,     158,     159,     206,     205
    4388,     159,     160,     207,     206
    4389,     160,     161,     208,     207
    4390,     161,     162,     209,     208
    4391,     162,     163,     210,     209
    4392,     163,     164,     211,     210
    4393,     164,     165,     212,     211
    4394,     165,     166,     213,     212
    4395,     166,     167,     214,     213
    4396,     167,     168,     215,     214
    4397,     168,     169,     216,     215
    4398,     169,     170,     217,     216
    4399,     170,     171,     218,     217
    4400,     171,     172,     219,     218
    4401,     172,     173,     220,     219
    4402,     173,     174,     221,     220
    4403,     174,     175,     222,     221
    4404,     175,     176,     223,     222
    4405,     176,     177,     224,     223
    4406,     177,     178,     225,     224
    4407,     178,     179,     226,     225
    4408,     179,     180,     227,     226
    4409,     180,     181,     228,     227
    4410,     181,     182,     229,     228
    4411,     182,     183,     230,     229
    4412,     183,     184,     231,     230
    4413,     184,     185,     232,     231
    4414,     185,     186,     233,     232
    4415,     186,     187,     234,     233
    4416,     187,     188,     235,     234
    4417,     189,     190,     237,     236
    4418,     190,     191,     238,     237
    4419,     191,     192,     239,     238
    4420,     192,     193,     240,     239
    4421,     193,     194,     241,     240
    4422,     194,     195,     242,     241
    4423,     195,     196,     243,     242
    4424,     196,     197,     244,     243
    4425,     197,     198,     245,     244
    4426,     198,     199,     246,     245
    4427,     199,     200,     247,     246
    4428,     200,     201,     248,     247
    4429,     201,     202,     249,     248
    4430,     202,     203,     250,     249
    4431,     203,     204,     251,     250
    4432,     204,     205,     252,     251
    4433,     205,     206,     253,     252
    4434,     206,     207,     254,     253
    4435,     207,     208,     255,     254
    4436,     208,     209,     256,     255
    4437,     209,     210,     257,     256
    4438,     210,     211,     258,     257
    4439,     211,     212,     259,     258
    4440,     212,     213,     260,     259
    4441,     213,     214,     261,     260
    4442,     214,     215,     262,     261
    4443,     215,     216,     263,     262
    4444,     216,     217,     264,     263
    4445,     217,     218,     265,     264
    4446,     218,     219,     266,     265
    4447,     219,     220,     267,     266
    4448,     220,     221,     268,     267
    4449,     221,     222,     269,     268
    4450,     222,     223,     270,     269
    4451,     223,     224,     271,     270
    4452,     224,     225,     272,     271
    4453,     225,     226,     273,     272
    4454,     226,     227,     274,     273
    4455,     227,     228,     275,     274
    4456,     228,     229,     276,     275
    4457,     229,     230,     277,     276
    4458,     230,     231,     278,     277
    4459,     231,     232,     279,     278
    4460,     232,     233,     280,     279
    4461,     233,     234,     281,     280
    4462,     234,     235,     282,     281
    4463,     236,     237,     284,     283
    4464,     237,     238,     285,     284
    4465,     238,     239,     286,     285
    4466,     239,     240,     287,     286
    4467,     240,     241,     288,     287
    4468,     241,     242,     289,     288
    4469,     242,     243,     290,     289
    4470,     243,     244,     291,     290
    4471,     244,     245,     292,     291
    4472,     245,     246,     293,     292
    4473,     246,     247,     294,     293
    4474,     247,     248,     295,     294
    4475,     248,     249,     296,     295
    4476,     249,     250,     297,     296
    4477,     250,     251,     298,     297
    4478,     251,     252,     299,     298
    4479,     252,     253,     300,     299
    4480,     253,     254,     301,     300
    4481,     254,     255,     302,     301
    4482,     255,     256,     303,     302
    4483,     256,     257,     304,     303
    4484,     257,     258,     305,     304
    4485,     258,     259,     306,     305
    4486,     259,     260,     307,     306
    4487,     260,     261,     308,     307
    4488,     261,     262,     309,     308
    4489,     262,     263,     310,     309
    4490,     263,     264,     311,     310
    4491,     264,     265,     312,     311
    4492,     265,     266,     313,     312
    4493,     266,     267,     314,     313
    4494,     267,     268,     315,     314
    4495,     268,     269,     316,     315
    4496,     269,     270,     317,     316
    4497,     270,     271,     318,     317
    4498,     271,     272,     319,     318
    4499,     272,     273,     320,     319
    4500,     273,     274,     321,     320
    4501,     274,     275,     322,     321
    4502,     275,     276,     323,     322
    4503,     276,     277,     324,     323
    4504,     277,     278,     325,     324
    4505,     278,     279,     326,     325
    4506,     279,     280,     327,     326
    4507,     280,     281,     328,     327
    4508,     281,     282,     329,     328
    4509,     283,     284,     331,     330
    4510,     284,     285,     332,     331
    4511,     285,     286,     333,     332
    4512,     286,     287,     334,     333
    4513,     287,     288,     335,     334
    4514,     288,     289,     336,     335
    4515,     289,     290,     337,     336
    4516,     290,     291,     338,     337
    4517,     291,     292,     339,     338
    4518,     292,     293,     340,     339
    4519,     293,     294,     341,     340
    4520,     294,     295,     342,     341
    4521,     295,     296,     343,     342
    4522,     296,     297,     344,     343
    4523,     297,     298,     345,     344
    4524,     298,     299,     346,     345
    4525,     299,     300,     347,     346
    4526,     300,     301,     348,     347
    4527,     301,     302,     349,     348
    4528,     302,     303,     350,     349
    4529,     303,     304,     351,     350
    4530,     304,     305,     352,     351
    4531,     305,     306,     353,     352
    4532,     306,     307,     354,     353
    4533,     307,     308,     355,     354
    4534,     308,     309,     356,     355
    4535,     309,     310,     357,     356
    4536,     310,     311,     358,     357
    4537,     311,     312,     359,     358
    4538,     312,     313,     360,     359
    4539,     313,     314,     361,     360
    4540,     314,     315,     362,     361
    4541,     315,     316,     363,     362
    4542,     316,     317,     364,     363
    4543,     317,     318,     365,     364
    4544,     318,     319,     366,     365
    4545,     319,     320,     367,     366
    4546,     320,     321,     368,     367
    4547,     321,     322,     369,     368
    4548,     322,     323,     370,     369
    4549,     323,     324,     371,     370
    4550,     324,     325,     372,     371
    4551,     325,     326,     373,     372
    4552,     326,     327,     374,     373
    4553,     327,     328,     375,     374
    4554,     328,     329,     376,     375
    4555,     330,     331,     378,     377
    4556,     331,     332,     379,     378
    4557,     332,     333,     380,     379
    4558,     333,     334,     381,     380
    4559,     334,     335,     382,     381
    4560,     335,     336,     383,     382
    4561,     336,     337,     384,     383
    4562,     337,     338,     385,     384
    4563,     338,     339,     386,     385
    4564,     339,     340,     387,     386
    4565,     340,     341,     388,     387
    4566,     341,     342,     389,     388
    4567,     342,     343,     390,     389
    4568,     343,     344,     391,     390
    4569,     344,     345,     392,     391
    4570,     345,     346,     393,     392
    4571,     346,     347,     394,     393
    4572,     347,     348,     395,     394
    4573,     348,     349,     396,     395
    4574,     349,     350,     397,     396
    4575,     350,     351,     398,     397
    4576,     351,     352,     399,     398
    4577,     352,     353,     400,     399
    4578,     353,     354,     401,     400
    4579,     354,     355,     402,     401
    4580,     355,     356,     403,     402
    4581,     356,     357,     404,     403
    4582,     357,     358,     405,     404
    4583,     358,     359,     406,     405
    4584,     359,     360,     407,     406
    4585,     360,     361,     408,     407
    4586,     361,     362,     409,     408
    4587,     362,     363,     410,     409
    4588,     363,     364,     411,     410
    4589,     364,     365,     412,     411
    4590,     365,     366,     413,     412
    4591,     366,     367,     414,     413
    4592,     367,     368,     415,     414
    4593,     368,     369,     416,     415
    4594,     369,     370,     417,     416
    4595,     370,     371,     418,     417
    4596,     371,     372,     419,     418
    4597,     372,     373,     420,     419
    4598,     373,     374,     421,     420
    4599,     374,     375,     422,     421
    4600,     375,     376,     423,     422
    4601,     377,     378,     425,     424
    4602,     378,     379,     426,     425
    4603,     379,     380,     427,     426
    4604,     380,     381,     428,     427
    4605,     381,     382,     429,     428
    4606,     382,     383,     430,     429
    4607,     383,     384,     431,     430
    4608,     384,     385,     432,     431
    4609,     385,     386,     433,     432
    4610,     386,     387,     434,     433
    4611,     387,     388,     435,     434
    4612,     388,     389,     436,     435
    4613,     389,     390,     437,     436
    4614,     390,     391,     438,     437
    4615,     391,     392,     439,     438
    4616,     392,     393,     440,     439
    4617,     393,     394,     441,     440
    4618,     394,     395,     442,     441
    4619,     395,     396,     443,     442
    4620,     396,     397,     444,     443
    4621,     397,     398,     445,     444
    4622,     398,     399,     446,     445
    4623,     399,     400,     447,     446
    4624,     400,     401,     448,     447
    4625,     401,     402,     449,     448
    4626,     402,     403,     450,     449
    4627,     403,     404,     451,     450
    4628,     404,     405,     452,     451
    4629,     405,     406,     453,     452
    4630,     406,     407,     454,     453
    4631,     407,     408,     455,     454
    4632,     408,     409,     456,     455
    4633,     409,     410,     457,     456
    4634,     410,     411,     458,     457
    4635,     411,     412,     459,     458
    4636,     412,     413,     460,     459
    4637,     413,     414,     461,     460
    4638,     414,     415,     462,     461
    4639,     415,     416,     463,     462
    4640,     416,     417,     464,     463
    4641,     417,     418,     465,     464
    4642,     418,     419,     466,     465
    4643,     419,     420,     467,     466
    4644,     420,     421,     468,     467
    4645,     421,     422,     469,     468
    4646,     422,     423,     470,     469
    4647,     424,     425,     472,     471
    4648,     425,     426,     473,     472
    4649,     426,     427,     474,     473
    4650,     427,     428,     475,     474
    4651,     428,     429,     476,     475
    4652,     429,     430,     477,     476
    4653,     430,     431,     478,     477
    4654,     431,     432,     479,     478
    4655,     432,     433,     480,     479
    4656,     433,     434,     481,     480
    4657,     434,     435,     482,     481
    4658,     435,     436,     483,     482
    4659,     436,     437,     484,     483
    4660,     437,     438,     485,     484
    4661,     438,     439,     486,     485
    4662,     439,     440,     487,     486
    4663,     440,     441,     488,     487
    4664,     441,     442,     489,     488
    4665,     442,     443,     490,     489
    4666,     443,     444,     491,     490
    4667,     444,     445,     492,     491
    4668,     445,     446,     493,     492
    4669,     446,     447,     494,     493
    4670,     447,     448,     495,     494
    4671,     448,     449,     496,     495
    4672,     449,     450,     497,     496
    4673,     450,     451,     498,     497
    4674,     451,     452,     499,     498
    4675,     452,     453,     500,     499
    4676,     453,     454,     501,     500
    4677,     454,     455,     502,     501
    4678,     455,     456,     503,     502
    4679,     456,     457,     504,     503
    4680,     457,     458,     505,     504
    4681,     458,     459,     506,     505
    4682,     459,     460,     507,     506
    4683,     460,     461,     508,     507
    4684,     461,     462,     509,     508
    4685,     462,     463,     510,     509
    4686,     463,     464,     511,     510
    4687,     464,     465,     512,     511
    4688,     465,     466,     513,     512
    4689,     466,     467,     514,     513
    4690,     467,     468,     515,     514
    4691,     468,     469,     516,     515
    4692,     469,     470,     517,     516
    4693,     471,     472,     519,     518
    4694,     472,     473,     520,     519
    4695,     473,     474,     521,     520
    4696,     474,     475,     522,     521
    4697,     475,     476,     523,     522
    4698,     476,     477,     524,     523
    4699,     477,     478,     525,     524
    4700,     478,     479,     526,     525
    4701,     479,     480,     527,     526
    4702,     480,     481,     528,     527
    4703,     481,     482,     529,     528
    4704,     482,     483,     530,     529
    4705,     483,     484,     531,     530
    4706,     484,     485,     532,     531
    4707,     485,     486,     533,     532
    4708,     486,     487,     534,     533
    4709,     487,     488,     535,     534
    4710,     488,     489,     536,     535
    4711,     489,     490,     537,     536
    4712,     490,     491,     538,     537
    4713,     491,     492,     539,     538
    4714,     492,     493,     540,     539
    4715,     493,     494,     541,     540
    4716,     494,     495,     542,     541
    4717,     495,     496,     543,     542
    4718,     496,     497,     544,     543
    4719,     497,     498,     545,     544
    4720,     498,     499,     546,     545
    4721,     499,     500,     547,     546
    4722,     500,     501,     548,     547
    4723,     501,     502,     549,     548
    4724,     502,     503,     550,     549
    4725,     503,     504,     551,     550
    4726,     504,     505,     552,     551
    4727,     505,     506,     553,     552
    4728,     506,     507,     554,     553
    4729,     507,     508,     555,     554
    4730,     508,     509,     556,     555
    4731,     509,     510,     557,     556
    4732,     510,     511,     558,     557
    4733,     511,     512,     559,     558
    4734,     512,     513,     560,     559
    4735,     513,     514,     561,     560
    4736,     514,     515,     562,     561
    4737,     515,     516,     563,     562
    4738,     516,     517,     564,     563
    4739,     518,     519,     566,     565
    4740,     519,     520,     567,     566
    4741,     520,     521,     568,     567
    4742,     521,     522,     569,     568
    4743,     522,     523,     570,     569
    4744,     523,     524,     571,     570
    4745,     524,     525,     572,     571
    4746,     525,     526,     573,     572
    4747,     526,     527,     574,     573
    4748,     527,     528,     575,     574
    4749,     528,     529,     576,     575
    4750,     529,     530,     577,     576
    4751,     530,     531,     578,     577
    4752,     531,     532,     579,     578
    4753,     532,     533,     580,     579
    4754,     533,     534,     581,     580
    4755,     534,     535,     582,     581
    4756,     535,     536,     583,     582
    4757,     536,     537,     584,     583
    4758,     537,     538,     585,     584
    4759,     538,     539,     586,     585
    4760,     539,     540,     587,     586
    4761,     540,     541,     588,     587
    4762,     541,     542,     589,     588
    4763,     542,     543,     590,     589
    4764,     543,     544,     591,     590
    4765,     544,     545,     592,     591
    4766,     545,     546,     593,     592
    4767,     546,     547,     594,     593
    4768,     547,     548,     595,     594
    4769,     548,     549,     596,     595
    4770,     549,     550,     597,     596
    4771,     550,     551,     598,     597
    4772,     551,     552,     599,     598
    4773,     552,     553,     600,     599
    4774,     553,     554,     601,     600
    4775,     554,     555,     602,     601
    4776,     555,     556,     603,     602
    4777,     556,     557,     604,     603
    4778,     557,     558,     605,     604
    4779,     558,     559,     606,     605
    4780,     559,     560,     607,     606
    4781,     560,     561,     608,     607
    4782,     561,     562,     609,     608
    4783,     562,     563,     610,     609
    4784,     563,     564,     611,     610
    4785,     565,     566,     613,     612
    4786,     566,     567,     614,     613
    4787,     567,     568,     615,     614
    4788,     568,     569,     616,     615
    4789,     569,     570,     617,     616
    4790,     570,     571,     618,     617
    4791,     571,     572,     619,     618
    4792,     572,     573,     620,     619
    4793,     573,     574,     621,     620
    4794,     574,     575,     622,     621
    4795,     575,     576,     623,     622
    4796,     576,     577,     624,     623
    4797,     577,     578,     625,     624
    4798,     578,     579,     626,     625
    4799,     579,     580,     627,     626
    4800,     580,     581,     628,     627
    4801,     581,     582,     629,     628
    4802,     582,     583,     630,     629
    4803,     583,     584,     631,     630
    4804,     584,     585,     632,     631
    4805,     585,     586,     633,     632
    4806,     586,     587,     634,     633
    4807,     587,     588,     635,     634
    4808,     588,     589,     636,     635
    4809,     589,     590,     637,     636
    4810,     590,     591,     638,     637
    4811,     591,     592,     639,     638
    4812,     592,     593,     640,     639
    4813,     593,     594,     641,     640
    4814,     594,     595,     642,     641
    4815,     595,     596,     643,     642
    4816,     596,     597,     644,     643
    4817,     597,     598,     645,     644
    4818,     598,     599,     646,     645
    4819,     599,     600,     647,     646
    4820,     600,     601,     648,     647
    4821,     601,     602,     649,     648
    4822,     602,     603,     650,     649
    4823,     603,     604,     651,     650
    4824,     604,     605,     652,     651
    4825,     605,     606,     653,     652
    4826,     606,     607,     654,     653
    4827,     607,     608,     655,     654
    4828,     608,     609,     656,     655
    4829,     609,     610,     657,     656
    4830,     610,     611,     658,     657
    4831,     612,     613,     660,     659
    4832,     613,     614,     661,     660
    4833,     614,     615,     662,     661
    4834,     615,     616,     663,     662
    4835,     616,     617,     664,     663
    4836,     617,     618,     665,     664
    4837,     618,     619,     666,     665
    4838,     619,     620,     667,     666
    4839,     620,     621,     668,     667
    4840,     621,     622,     669,     668
    4841,     622,     623,     670,     669
    4842,     623,     624,     671,     670
    4843,     624,     625,     672,     671
    4844,     625,     626,     673,     672
    4845,     626,     627,     674,     673
    4846,     627,     628,     675,     674
    4847,     628,     629,     676,     675
    4848,     629,     630,     677,     676
    4849,     630,     631,     678,     677
    4850,     631,     632,     679,     678
    4851,     632,     633,     680,     679
    4852,     633,     634,     681,     680
    4853,     634,     635,     682,     681
    4854,     635,     636,     683,     682
    4855,     636,     637,     684,     683
    4856,     637,     638,     685,     684
    4857,     638,     639,     686,     685
    4858,     639,     640,     687,     686
    4859,     640,     641,     688,     687
    4860,     641,     642,     689,     688
    4861,     642,     643,     690,     689
    4862,     643,     644,     691,     690
    4863,     644,     645,     692,     691
    4864,     645,     646,     693,     692
    4865,     646,     647,     694,     693
    4866,     647,     648,     695,     694
    4867,     648,     649,     696,     695
    4868,     649,     650,     697,     696
    4869,     650,     651,     698,     697
    4870,     651,     652,     699,     698
    4871,     652,     653,     700,     699
    4872,     653,     654,     701,     700
    4873,     654,     655,     702,     701
    4874,     655,     656,     703,     702
    4875,     656,     657,     704,     703
    4876,     657,     658,     705,     704
    4877,     659,     660,     707,     706
    4878,     660,     661,     708,     707
    4879,     661,     662,     709,     708
    4880,     662,     663,     710,     709
    4881,     663,     664,     711,     710
    4882,     664,     665,     712,     711
    4883,     665,     666,     713,     712
    4884,     666,     667,     714,     713
    4885,     667,     668,     715,     714
    4886,     668,     669,     716,     715
    4887,     669,     670,     717,     716
    4888,     670,     671,     718,     717
    4889,     671,     672,     719,     718
    4890,     672,     673,     720,     719
    4891,     673,     674,     721,     720
    4892,     674,     675,     722,     721
    4893,     675,     676,     723,     722
    4894,     676,     677,     724,     723
    4895,     677,     678,     725,     724
    4896,     678,     679,     726,     725
    4897,     679,     680,     727,     726
    4898,     680,     681,     728,     727
    4899,     681,     682,     729,     728
    4900,     682,     683,     730,     729
    4901,     683,     684,     731,     730
    4902,     684,     685,     732,     731
    4903,     685,     686,     733,     732
    4904,     686,     687,     734,     733
    4905,     687,     688,     735,     734
    4906,     688,     689,     736,     735
    4907,     689,     690,     737,     736
    4908,     690,     691,     738,     737
    4909,     691,     692,     739,     738
    4910,     692,     693,     740,     739
    4911,     693,     694,     741,     740
    4912,     694,     695,     742,     741
    4913,     695,     696,     743,     742
    4914,     696,     697,     744,     743
    4915,     697,     698,     745,     744
    4916,     698,     699,     746,     745
    4917,     699,     700,     747,     746
    4918,     700,     701,     748,     747
    4919,     701,     702,     749,     748
    4920,     702,     703,     750,     749
    4921,     703,     704,     751,     750
    4922,     704,     705,     752,     751
    4923,     706,     707,     754,     753
    4924,     707,     708,     755,     754
    4925,     708,     709,     756,     755
    4926,     709,     710,     757,     756
    4927,     710,     711,     758,     757
    4928,     711,     712,     759,     758
    4929,     712,     713,     760,     759
    4930,     713,     714,     761,     760
    4931,     714,     715,     762,     761
    4932,     715,     716,     763,     762
    4933,     716,     717,     764,     763
    4934,     717,     718,     765,     764
    4935,     718,     719,     766,     765
    4936,     719,     720,     767,     766
    4937,     720,     721,     768,     767
    4938,     721,     722,     769,     768
    4939,     722,     723,     770,     769
    4940,     723,     724,     771,     770
    4941,     724,     725,     772,     771
    4942,     725,     726,     773,     772
    4943,     726,     727,     774,     773
    4944,     727,     728,     775,     774
    4945,     728,     729,     776,     775
    4946,     729,     730,     777,     776
    4947,     730,     731,     778,     777
    4948,     731,     732,     779,     778
    4949,     732,     733,     780,     779
    4950,     733,     734,     781,     780
    4951,     734,     735,     782,     781
    4952,     735,     736,     783,     782
    4953,     736,     737,     784,     783
    4954,     737,     738,     785,     784
    4955,     738,     739,     786,     785
    4956,     739,     740,     787,     786
    4957,     740,     741,     788,     787
    4958,     741,     742,     789,     788
    4959,     742,     743,     790,     789
    4960,     743,     744,     791,     790
    4961,     744,     745,     792,     791
    4962,     745,     746,     793,     792
    4963,     746,     747,     794,     793
    4964,     747,     748,     795,     794
    4965,     748,     749,     796,     795
    4966,     749,     750,     797,     796
    4967,     750,     751,     798,     797
    4968,     751,     752,     799,     798
    4969,     753,     754,     801,     800
    4970,     754,     755,     802,     801
    4971,     755,     756,     803,     802
    4972,     756,     757,     804,     803
    4973,     757,     758,     805,     804
    4974,     758,     759,     806,     805
    4975,     759,     760,     807,     806
    4976,     760,     761,     808,     807
    4977,     761,     762,     809,     808
    4978,     762,     763,     810,     809
    4979,     763,     764,     811,     810
    4980,     764,     765,     812,     811
    4981,     765,     766,     813,     812
    4982,     766,     767,     814,     813
    4983,     767,     768,     815,     814
    4984,     768,     769,     816,     815
    4985,     769,     770,     817,     816
    4986,     770,     771,     818,     817
    4987,     771,     772,     819,     818
    4988,     772,     773,     820,     819
    4989,     773,     774,     821,     820
    4990,     774,     775,     822,     821
    4991,     775,     776,     823,     822
    4992,     776,     777,     824,     823
    4993,     777,     778,     825,     824
    4994,     778,     779,     826,     825
    4995,     779,     780,     827,     826
    4996,     780,     781,     828,     827
    4997,     781,     782,     829,     828
    4998,     782,     783,     830,     829
    4999,     783,     784,     831,     830
    5000,     784,     785,     832,     831
    5001,     785,     786,     833,     832
    5002,     786,     787,     834,     833
    5003,     787,     788,     835,     834
    5004,     788,     789,     836,     835
    5005,     789,     790,     837,     836
    5006,     790,     791,     838,     837
    5007,     791,     792,     839,     838
    5008,     792,     793,     840,     839
    5009,     793,     794,     841,     840
    5010,     794,     795,     842,     841
    5011,     795,     796,     843,     842
    5012,     796,     797,     844,     843
    5013,     797,     798,     845,     844
    5014,     798,     799,     846,     845
    5015,     800,     801,     848,     847
    5016,     801,     802,     849,     848
    5017,     802,     803,     850,     849
    5018,     803,     804,     851,     850
    5019,     804,     805,     852,     851
    5020,     805,     806,     853,     852
    5021,     806,     807,     854,     853
    5022,     807,     808,     855,     854
    5023,     808,     809,     856,     855
    5024,     809,     810,     857,     856
    5025,     810,     811,     858,     857
    5026,     811,     812,     859,     858
    5027,     812,     813,     860,     859
    5028,     813,     814,     861,     860
    5029,     814,     815,     862,     861
    5030,     815,     816,     863,     862
    5031,     816,     817,     864,     863
    5032,     817,     818,     865,     864
    5033,     818,     819,     866,     865
    5034,     819,     820,     867,     866
    5035,     820,     821,     868,     867
    5036,     821,     822,     869,     868
    5037,     822,     823,     870,     869
    5038,     823,     824,     871,     870
    5039,     824,     825,     872,     871
    5040,     825,     826,     873,     872
    5041,     826,     827,     874,     873
    5042,     827,     828,     875,     874
    5043,     828,     829,     876,     875
    5044,     829,     830,     877,     876
    5045,     830,     831,     878,     877
    5046,     831,     832,     879,     878
    5047,     832,     833,     880,     879
    5048,     833,     834,     881,     880
    5049,     834,     835,     882,     881
    5050,     835,     836,     883,     882
    5051,     836,     837,     884,     883
    5052,     837,     838,     885,     884
    5053,     838,     839,     886,     885
    5054,     839,     840,     887,     886
    5055,     840,     841,     888,     887
    5056,     841,     842,     889,     888
    5057,     842,     843,     890,     889
    5058,     843,     844,     891,     890
    5059,     844,     845,     892,     891
    5060,     845,     846,     893,     892
    5061,     847,     848,     895,     894
    5062,     848,     849,     896,     895
    5063,     849,     850,     897,     896
    5064,     850,     851,     898,     897
    5065,     851,     852,     899,     898
    5066,     852,     853,     900,     899
    5067,     853,     854,     901,     900
    5068,     854,     855,     902,     901
    5069,     855,     856,     903,     902
    5070,     856,     857,     904,     903
    5071,     857,     858,     905,     904
    5072,     858,     859,     906,     905
    5073,     859,     860,     907,     906
    5074,     860,     861,     908,     907
    5075,     861,     862,     909,     908
    5076,     862,     863,     910,     909
    5077,     863,     864,     911,     910
    5078,     864,     865,     912,     911
    5079,     865,     866,     913,     912
    5080,     866,     867,     914,     913
    5081,     867,     868,     915,     914
    5082,     868,     869,     916,     915
    5083,     869,     870,     917,     916
    5084,     870,     871,     918,     917
    5085,     871,     872,     919,     918
    5086,     872,     873,     920,     919
    5087,     873,     874,     921,     920
    5088,     874,     875,     922,     921
    5089,     875,     876,     923,     922
    5090,     876,     877,     924,     923
    5091,     877,     878,     925,     924
    5092,     878,     879,     926,     925
    5093,     879,     880,     927,     926
    5094,     880,     881,     928,     927
    5095,     881,     882,     929,     928
    5096,     882,     883,     930,     929
    5097,     883,     884,     931,     930
    5098,     884,     885,     932,     931
    5099,     885,     886,     933,     932
    5100,     886,     887,     934,     933
    5101,     887,     888,     935,     934
    5102,     888,     889,     936,     935
    5103,     889,     890,     937,     936
    5104,     890,     891,     938,     937
    5105,     891,     892,     939,     938
    5106,     892,     893,     940,     939
    5107,     894,     895,     942,     941
    5108,     895,     896,     943,     942
    5109,     896,     897,     944,     943
    5110,     897,     898,     945,     944
    5111,     898,     899,     946,     945
    5112,     899,     900,     947,     946
    5113,     900,     901,     948,     947
    5114,     901,     902,     949,     948
    5115,     902,     903,     950,     949
    5116,     903,     904,     951,     950
    5117,     904,     905,     952,     951
    5118,     905,     906,     953,     952
    5119,     906,     907,     954,     953
    5120,     907,     908,     955,     954
    5121,     908,     909,     956,     955
    5122,     909,     910,     957,     956
    5123,     910,     911,     958,     957
    5124,     911,     912,     959,     958
    5125,     912,     913,     960,     959
    5126,     913,     914,     961,     960
    5127,     914,     915,     962,     961
    5128,     915,     916,     963,     962
    5129,     916,     917,     964,     963
    5130,     917,     918,     965,     964
    5131,     918,     919,     966,     965
    5132,     919,     920,     967,     966
    5133,     920,     921,     968,     967
    5134,     921,     922,     969,     968
    5135,     922,     923,     970,     969
    5136,     923,     924,     971,     970
    5137,     924,     925,     972,     971
    5138,     925,     926,     973,     972
    5139,     926,     927,     974,     973
    5140,     927,     928,     975,     974
    5141,     928,     929,     976,     975
    5142,     929,     930,     977,     976
    5143,     930,     931,     978,     977
    5144,     931,     932,     979,     978
    5145,     932,     933,     980,     979
    5146,     933,     934,     981,     980
    5147,     934,     935,     982,     981
    5148,     935,     936,     983,     982
    5149,     936,     937,     984,     983
    5150,     937,     938,     985,     984
    5151,     938,     939,     986,     985
    5152,     939,     940,     987,     986
    5153,     941,     942,     989,     988
    5154,     942,     943,     990,     989
    5155,     943,     944,     991,     990
    5156,     944,     945,     992,     991
    5157,     945,     946,     993,     992
    5158,     946,     947,     994,     993
    5159,     947,     948,     995,     994
    5160,     948,     949,     996,     995
    5161,     949,     950,     997,     996
    5162,     950,     951,     998,     997
    5163,     951,     952,     999,     998
    5164,     952,     953,    1000,     999
    5165,     953,     954,    1001,    1000
    5166,     954,     955,    1002,    1001
    5167,     955,     956,    1003,    1002
    5168,     956,     957,    1004,    1003
    5169,     957,     958,    1005,    1004
    5170,     958,     959,    1006,    1005
    5171,     959,     960,    1007,    1006
    5172,     960,     961,    1008,    1007
    5173,     961,     962,    1009,    1008
    5174,     962,     963,    1010,    1009
    5175,     963,     964,    1011,    1010
    5176,     964,     965,    1012,    1011
    5177,     965,     966,    1013,    1012
    5178,     966,     967,    1014,    1013
    5179,     967,     968,    1015,    1014
    5180,     968,     969,    1016,    1015
    5181,     969,     970,    1017,    1016
    5182,     970,     971,    1018,    1017
    5183,     971,     972,    1019,    1018
    5184,     972,     973,    1020,    1019
    5185,     973,     974,    1021,    1020
    5186,     974,     975,    1022,    1021
    5187,     975,     976,    1023,    1022
    5188,     976,     977,    1024,    1023
    5189,     977,     978,    1025,    1024
    5190,     978,     979,    1026,    1025
    5191,     979,     980,    1027,    1026
    5192,     980,     981,    1028,    1027
    5193,     981,     982,    1029,    1028
    5194,     982,     983,    1030,    1029
    5195,     983,     984,    1031,    1030
    5196,     984,     985,    1032,    1031
    5197,     985,     986,    1033,    1032
    5198,     986,     987,    1034,    1033
    5199,     988,     989,    1036,    1035
    5200,     989,     990,    1037,    1036
    5201,     990,     991,    1038,    1037
    5202,     991,     992,    1039,    1038
    5203,     992,     993,    1040,    1039
    5204,     993,     994,    1041,    1040
    5205,     994,     995,    1042,    1041
    5206,     995,     996,    1043,    1042
    5207,     996,     997,    1044,    1043
    5208,     997,     998,    1045,    1044
    5209,     998,     999,    1046,    1045
    5210,     999,    1000,    1047,    1046
    5211,    1000,    1001,    1048,    1047
    5212,    1001,    1002,    1049,    1048
    5213,    1002,    1003,    1050,    1049
    5214,    1003,    1004,    1051,    1050
    5215,    1004,    1005,    1052,    1051
    5216,    1005,    1006,    1053,    1052
    5217,    1006,    1007,    1054,    1053
    5218,    1007,    1008,    1055,    1054
    5219,    1008,    1009,    1056,    1055
    5220,    1009,    1010,    1057,    1056
    5221,    1010,    1011,    1058,    1057
    5222,    1011,    1012,    1059,    1058
    5223,    1012,    1013,    1060,    1059
    5224,    1013,    1014,    1061,    1060
    5225,    1014,    1015,    1062,    1061
    5226,    1015,    1016,    1063,    1062
    5227,    1016,    1017,    1064,    1063
    5228,    1017,    1018,    1065,    1064
    5229,    1018,    1019,    1066,    1065
    5230,    1019,    1020,    1067,    1066
    5231,    1020,    1021,    1068,    1067
    5232,    1021,    1022,    1069,    1068
    5233,    1022,    1023,    1070,    1069
    5234,    1023,    1024,    1071,    1070
    5235,    1024,    1025,    1072,    1071
    5236,    1025,    1026,    1073,    1072
    5237,    1026,    1027,    1074,    1073
    5238,    1027,    1028,    1075,    1074
    5239,    1028,    1029,    1076,    1075
    5240,    1029,    1030,    1077,    1076
    5241,    1030,    1031,    1078,    1077
    5242,    1031,    1032,    1079,    1078
    5243,    1032,    1033,    1080,    1079
    5244,    1033,    1034,    1081,    1080
    5245,    1035,    1036,    1084,    1082
    5246,    1036,    1037,    1086,    1084
    5247,    1037,    1038,    1088,    1086
    5248,    1038,    1039,    1090,    1088
    5249,    1039,    1040,    1092,    1090
    5250,    1040,    1041,    1094,    1092
    5251,    1041,    1042,    1096,    1094
    5252,    1042,    1043,    1098,    1096
    5253,    1043,    1044,    1100,    1098
    5254,    1044,    1045,    1102,    1100
    5255,    1045,    1046,    1104,    1102
    5256,    1046,    1047,    1106,    1104
    5257,    1047,    1048,    1108,    1106
    5258,    1048,    1049,    1110,    1108
    5259,    1049,    1050,    1112,    1110
    5260,    1050,    1051,    1114,    1112
    5261,    1051,    1052,    1116,    1114
    5262,    1052,    1053,    1118,    1116
    5263,    1053,    1054,    1120,    1118
    5264,    1054,    1055,    1122,    1120
    5265,    1055,    1056,    1124,    1122
    5266,    1056,    1057,    1126,    1124
    5267,    1057,    1058,    1128,    1126
    5268,    1058,    1059,    1129,    1128
    5269,    1059,    1060,    1130,    1129
    5270,    1060,    1061,    1131,    1130
    5271,    1061,    1062,    1132,    1131
    5272,    1062,    1063,    1133,    1132
    5273,    1063,    1064,    1134,    1133
    5274,    1064,    1065,    1135,    1134
    5275,    1065,    1066,    1136,    1135
    5276,    1066,    1067,    1137,    1136
    5277,    1067,    1068,    1138,    1137
    5278,    1068,    1069,    1139,    1138
    5279,    1069,    1070,    1140,    1139
    5280,    1070,    1071,    1141,    1140
    5281,    1071,    1072,    1142,    1141
    5282,    1072,    1073,    1143,    1142
    5283,    1073,    1074,    1144,    1143
    5284,    1074,    1075,    1145,    1144
    5285,    1075,    1076,    1146,    1145
    5286,    1076,    1077,    1147,    1146
    5287,    1077,    1078,    1148,    1147
    5288,    1078,    1079,    1149,    1148
    5289,    1079,    1080,    1150,    1149
    5290,    1080,    1081,    1151,    1150
    5291,    1083,    1085,    1153,    1152
    5292,    1085,    1087,    1154,    1153
    5293,    1087,    1089,    1155,    1154
    5294,    1089,    1091,    1156,    1155
    5295,    1091,    1093,    1157,    1156
    5296,    1093,    1095,    1158,    1157
    5297,    1095,    1097,    1159,    1158
    5298,    1097,    1099,    1160,    1159
    5299,    1099,    1101,    1161,    1160
    5300,    1101,    1103,    1162,    1161
    5301,    1103,    1105,    1163,    1162
    5302,    1105,    1107,    1164,    1163
    5303,    1107,    1109,    1165,    1164
    5304,    1109,    1111,    1166,    1165
    5305,    1111,    1113,    1167,    1166
    5306,    1113,    1115,    1168,    1167
    5307,    1115,    1117,    1169,    1168
    5308,    1117,    1119,    1170,    1169
    5309,    1119,    1121,    1171,    1170
    5310,    1121,    1123,    1172,    1171
    5311,    1123,    1125,    1173,    1172
    5312,    1125,    1127,    1174,    1173
    5313,    1127,    1128,    1175,    1174
    5314,    1128,    1129,    1176,    1175
    5315,    1129,    1130,    1177,    1176
    5316,    1130,    1131,    1178,    1177
    5317,    1131,    1132,    1179,    1178
    5318,    1132,    1133,    1180,    1179
    5319,    1133,    1134,    1181,    1180
    5320,    1134,    1135,    1182,    1181
    5321,    1135,    1136,    1183,    1182
    5322,    1136,    1137,    1184,    1183
    5323,    1137,    1138,    1185,    1184
    5324,    1138,    1139,    1186,    1185
    5325,    1139,    1140,    1187,    1186
    5326,    1140,    1141,    1188,    1187
    5327,    1141,    1142,    1189,    1188
    5328,    1142,    1143,    1190,    1189
    5329,    1143,    1144,    1191,    1190
    5330,    1144,    1145,    1192,    1191
    5331,    1145,    1146,    1193,    1192
    5332,    1146,    1147,    1194,    1193
    5333,    1147,    1148,    1195,    1194
    5334,    1148,    1149,    1196,    1195
    5335,    1149,    1150,    1197,    1196
    5336,    1150,    1151,    1198,    1197
    5337,    1152,    1153,    1200,    1199
    5338,    1153,    1154,    1201,    1200
    5339,    1154,    1155,    1202,    1201
    5340,    1155,    1156,    1203,    1202
    5341,    1156,    1157,    1204,    1203
    5342,    1157,    1158,    1205,    1204
    5343,    1158,    1159,    1206,    1205
    5344,    1159,    1160,    1207,    1206
    5345,    1160,    1161,    1208,    1207
    5346,    1161,    1162,    1209,    1208
    5347,    1162,    1163,    1210,    1209
    5348,    1163,    1164,    1211,    1210
    5349,    1164,    1165,    1212,    1211
    5350,    1165,    1166,    1213,    1212
    5351,    1166,    1167,    1214,    1213
    5352,    1167,    1168,    1215,    1214
    5353,    1168,    1169,    1216,    1215
    5354,    1169,    1170,    1217,    1216
    5355,    1170,    1171,    1218,    1217
    5356,    1171,    1172,    1219,    1218
    5357,    1172,    1173,    1220,    1219
    5358,    1173,    1174,    1221,    1220
    5359,    1174,    1175,    1222,    1221
    5360,    1175,    1176,    1223,    1222
    5361,    1176,    1177,    1224,    1223
    5362,    1177,    1178,    1225,    1224
    5363,    1178,    1179,    1226,    1225
    5364,    1179,    1180,    1227,    1226
    5365,    1180,    1181,    1228,    1227
    5366,    1181,    1182,    1229,    1228
    5367,    1182,    1183,    1230,    1229
    5368,    1183,    1184,    1231,    1230
    5369,    1184,    1185,    1232,    1231
    5370,    1185,    1186,    1233,    1232
    5371,    1186,    1187,    1234,    1233
    5372,    1187,    1188,    1235,    1234
    5373,    1188,    1189,    1236,    1235
    5374,    1189,    1190,    1237,    1236
    5375,    1190,    1191,    1238,    1237
    5376,    1191,    1192,    1239,    1238
    5377,    1192,    1193,    1240,    1239
    5378,    1193,    1194,    1241,    1240
    5379,    1194,    1195,    1242,    1241
    5380,    1195,    1196,    1243,    1242
    5381,    1196,    1197,    1244,    1243
    5382,    1197,    1198,    1245,    1244
    5383,    1199,    1200,    1247,    1246
    5384,    1200,    1201,    1248,    1247
    5385,    1201,    1202,    1249,    1248
    5386,    1202,    1203,    1250,    1249
    5387,    1203,    1204,    1251,    1250
    5388,    1204,    1205,    1252,    1251
    5389,    1205,    1206,    1253,    1252
    5390,    1206,    1207,    1254,    1253
    5391,    1207,    1208,    1255,    1254
    5392,    1208,    1209,    1256,    1255
    5393,    1209,    1210,    1257,    1256
    5394,    1210,    1211,    1258,    1257
    5395,    1211,    1212,    1259,    1258
    5396,    1212,    1213,    1260,    1259
    5397,    1213,    1214,    1261,    1260
    5398,    1214,    1215,    1262,    1261
    5399,    1215,    1216,    1263,    1262
    5400,    1216,    1217,    1264,    1263
    5401,    1217,    1218,    1265,    1264
    5402,    1218,    1219,    1266,    1265
    5403,    1219,    1220,    1267,    1266
    5404,    1220,    1221,    1268,    1267
    5405,    1221,    1222,    1269,    1268
    5406,    1222,    1223,    1270,    1269
    5407,    1223,    1224,    1271,    1270
    5408,    1224,    1225,    1272,    1271
    5409,    1225,    1226,    1273,    1272
    5410,    1226,    1227,    1274,    1273
    5411,    1227,    1228,    1275,    1274
    5412,    1228,    1229,    1276,    1275
    5413,    1229,    1230,    1277,    1276
    5414,    1230,    1231,    1278,    1277
    5415,    1231,    1232,    1279,    1278
    5416,    1232,    1233,    1280,    1279
    5417,    1233,    1234,    1281,    1280
    5418,    1234,    1235,    1282,    1281
    5419,    1235,    1236,    1283,    1282
    5420,    1236,    1237,    1284,    1283
    5421,    1237,    1238,    1285,    1284
    5422,    1238,    1239,    1286,    1285
    5423,    1239,    1240,    1287,    1286
    5424,    1240,    1241,    1288,    1287
    5425,    1241,    1242,    1289,    1288
    5426,    1242,    1243,    1290,    1289
    5427,    1243,    1244,    1291,    1290
    5428,    1244,    1245,    1292,    1291
    5429,    1246,    1247,    1294,    1293
    5430,    1247,    1248,    1295,    1294
    5431,    1248,    1249,    1296,    1295
    5432,    1249,    1250,    1297,    1296
    5433,    1250,    1251,    1298,    1297
    5434,    1251,    1252,    1299,    1298
    5435,    1252,    1253,    1300,    1299
    5436,    1253,    1254,    1301,    1300
    5437,    1254,    1255,    1302,    1301
    5438,    1255,    1256,    1303,    1302
    5439,    1256,    1257,    1304,    1303
    5440,    1257,    1258,    1305,    1304
    5441,    1258,    1259,    1306,    1305
    5442,    1259,    1260,    1307,    1306
    5443,    1260,    1261,    1308,    1307
    5444,    1261,    1262,    1309,    1308
    5445,    1262,    1263,    1310,    1309
    5446,    1263,    1264,    1311,    1310
    5447,    1264,    1265,    1312,    1311
    5448,    1265,    1266,    1313,    1312
    5449,    1266,    1267,    1314,    1313
    5450,    1267,    1268,    1315,    1314
    5451,    1268,    1269,    1316,    1315
    5452,    1269,    1270,    1317,    1316
    5453,    1270,    1271,    1318,    1317
    5454,    1271,    1272,    1319,    1318
    5455,    1272,    1273,    1320,    1319
    5456,    1273,    1274,    1321,    1320
    5457,    1274,    1275,    1322,    1321
    5458,    1275,    1276,    1323,    1322
    5459,    1276,    1277,    1324,    1323
    5460,    1277,    1278,    1325,    1324
    5461,    1278,    1279,    1326,    1325
    5462,    1279,    1280,    1327,    1326
    5463,    1280,    1281,    1328,    1327
    5464,    1281,    1282,    1329,    1328
    5465,    1282,    1283,    1330,    1329
    5466,    1283,    1284,    1331,    1330
    5467,    1284,    1285,    1332,    1331
    5468,    1285,    1286,    1333,    1332
    5469,    1286,    1287,    1334,    1333
    5470,    1287,    1288,    1335,    1334
    5471,    1288,    1289,    1336,    1335
    5472,    1289,    1290,    1337,    1336
    5473,    1290,    1291,    1338,    1337
    5474,    1291,    1292,    1339,    1338
    5475,    1293,    1294,    1341,    1340
    5476,    1294,    1295,    1342,    1341
    5477,    1295,    1296,    1343,    1342
    5478,    1296,    1297,    1344,    1343
    5479,    1297,    1298,    1345,    1344
    5480,    1298,    1299,    1346,    1345
    5481,    1299,    1300,    1347,    1346
    5482,    1300,    1301,    1348,    1347
    5483,    1301,    1302,    1349,    1348
    5484,    1302,    1303,    1350,    1349
    5485,    1303,    1304,    1351,    1350
    5486,    1304,    1305,    1352,    1351
    5487,    1305,    1306,    1353,    1352
    5488,    1306,    1307,    1354,    1353
    5489,    1307,    1308,    1355,    1354
    5490,    1308,    1309,    1356,    1355
    5491,    1309,    1310,    1357,    1356
    5492,    1310,    1311,    1358,    1357
    5493,    1311,    1312,    1359,    1358
    5494,    1312,    1313,    1360,    1359
    5495,    1313,    1314,    1361,    1360
    5496,    1314,    1315,    1362,    1361
    5497,    1315,    1316,    1363,    1362
    5498,    1316,    1317,    1364,    1363
    5499,    1317,    1318,    1365,    1364
    5500,    1318,    1319,    1366,    1365
    5501,    1319,    1320,    1367,    1366
    5502,    1320,    1321,    1368,    1367
    5503,    1321,    1322,    1369,    1368
    5504,    1322,    1323,    1370,    1369
    5505,    1323,    1324,    1371,    1370
    5506,    1324,    1325,    1372,    1371
    5507,    1325,    1326,    1373,    1372
    5508,    1326,    1327,    1374,    1373
    5509,    1327,    1328,    1375,    1374
    5510,    1328,    1329,    1376,    1375
    5511,    1329,    1330,    1377,    1376
    5512,    1330,    1331,    1378,    1377
    5513,    1331,    1332,    1379,    1378
    5514,    1332,    1333,    1380,    1379
    5515,    1333,    1334,    1381,    1380
    5516,    1334,    1335,    1382,    1381
    5517,    1335,    1336,    1383,    1382
    5518,    1336,    1337,    1384,    1383
    5519,    1337,    1338,    1385,    1384
    5520,    1338,    1339,    1386,    1385
    5521,    1340,    1341,    1388,    1387
    5522,    1341,    1342,    1389,    1388
    5523,    1342,    1343,    1390,    1389
    5524,    1343,    1344,    1391,    1390
    5525,    1344,    1345,    1392,    1391
    5526,    1345,    1346,    1393,    1392
    5527,    1346,    1347,    1394,    1393
    5528,    1347,    1348,    1395,    1394
    5529,    1348,    1349,    1396,    1395
    5530,    1349,    1350,    1397,    1396
    5531,    1350,    1351,    1398,    1397
    5532,    1351,    1352,    1399,    1398
    5533,    1352,    1353,    1400,    1399
    5534,    1353,    1354,    1401,    1400
    5535,    1354,    1355,    1402,    1401
    5536,    1355,    1356,    1403,    1402
    5537,    1356,    1357,    1404,    1403
    5538,    1357,    1358,    1405,    1404
    5539,    1358,    1359,    1406,    1405
    5540,    1359,    1360,    1407,    1406
    5541,    1360,    1361,    1408,    1407
    5542,    1361,    1362,    1409,    1408
    5543,    1362,    1363,    1410,    1409
    5544,    1363,    1364,    1411,    1410
    5545,    1364,    1365,    1412,    1411
    5546,    1365,    1366,    1413,    1412
    5547,    1366,    1367,    1414,    1413
    5548,    1367,    1368,    1415,    1414
    5549,    1368,    1369,    1416,    1415
    5550,    1369,    1370,    1417,    1416
    5551,    1370,    1371,    1418,    1417
    5552,    1371,    1372,    1419,    1418
    5553,    1372,    1373,    1420,    1419
    5554,    1373,    1374,    1421,    1420
    5555,    1374,    1375,    1422,    1421
    5556,    1375,    1376,    1423,    1422
    5557,    1376,    1377,    1424,    1423
    5558,    1377,    1378,    1425,    1424
    5559,    1378,    1379,    1426,    1425
    5560,    1379,    1380,    1427,    1426
    5561,    1380,    1381,    1428,    1427
    5562,    1381,    1382,    1429,    1428
    5563,    1382,    1383,    1430,    1429
    5564,    1383,    1384,    1431,    1430
    5565,    1384,    1385,    1432,    1431
    5566,    1385,    1386,    1433,    1432
    5567,    1387,    1388,    1435,    1434
    5568,    1388,    1389,    1436,    1435
    5569,    1389,    1390,    1437,    1436
    5570,    1390,    1391,    1438,    1437
    5571,    1391,    1392,    1439,    1438
    5572,    1392,    1393,    1440,    1439
    5573,    1393,    1394,    1441,    1440
    5574,    1394,    1395,    1442,    1441
    5575,    1395,    1396,    1443,    1442
    5576,    1396,    1397,    1444,    1443
    5577,    1397,    1398,    1445,    1444
    5578,    1398,    1399,    1446,    1445
    5579,    1399,    1400,    1447,    1446
    5580,    1400,    1401,    1448,    1447
    5581,    1401,    1402,    1449,    1448
    5582,    1402,    1403,    1450,    1449
    5583,    1403,    1404,    1451,    1450
    5584,    1404,    1405,    1452,    1451
    5585,    1405,    1406,    1453,    1452
    5586,    1406,    1407,    1454,    1453
    5587,    1407,    1408,    1455,    1454
    5588,    1408,    1409,    1456,    1455
    5589,    1409,    1410,    1457,    1456
    5590,    1410,    1411,    1458,    1457
    5591,    1411,    1412,    1459,    1458
    5592,    1412,    1413,    1460,    1459
    5593,    1413,    1414,    1461,    1460
    5594,    1414,    1415,    1462,    1461
    5595,    1415,    1416,    1463,    1462
    5596,    1416,    1417,    1464,    1463
    5597,    1417,    1418,    1465,    1464
    5598,    1418,    1419,    1466,    1465
    5599,    1419,    1420,    1467,    1466
    5600,    1420,    1421,    1468,    1467
    5601,    1421,    1422,    1469,    1468
    5602,    1422,    1423,    1470,    1469
    5603,    1423,    1424,    1471,    1470
    5604,    1424,    1425,    1472,    1471
    5605,    1425,    1426,    1473,    1472
    5606,    1426,    1427,    1474,    1473
    5607,    1427,    1428,    1475,    1474
    5608,    1428,    1429,    1476,    1475
    5609,    1429,    1430,    1477,    1476
    5610,    1430,    1431,    1478,    1477
    5611,    1431,    1432,    1479,    1478
    5612,    1432,    1433,    1480,    1479
    5613,    1434,    1435,    1482,    1481
    5614,    1435,    1436,    1483,    1482
    5615,    1436,    1437,    1484,    1483
    5616,    1437,    1438,    1485,    1484
    5617,    1438,    1439,    1486,    1485
    5618,    1439,    1440,    1487,    1486
    5619,    1440,    1441,    1488,    1487
    5620,    1441,    1442,    1489,    1488
    5621,    1442,    1443,    1490,    1489
    5622,    1443,    1444,    1491,    1490
    5623,    1444,    1445,    1492,    1491
    5624,    1445,    1446,    1493,    1492
    5625,    1446,    1447,    1494,    1493
    5626,    1447,    1448,    1495,    1494
    5627,    1448,    1449,    1496,    1495
    5628,    1449,    1450,    1497,    1496
    5629,    1450,    1451,    1498,    1497
    5630,    1451,    1452,    1499,    1498
    5631,    1452,    1453,    1500,    1499
    5632,    1453,    1454,    1501,    1500
    5633,    1454,    1455,    1502,    1501
    5634,    1455,    1456,    1503,    1502
    5635,    1456,    1457,    1504,    1503
    5636,    1457,    1458,    1505,    1504
    5637,    1458,    1459,    1506,    1505
    5638,    1459,    1460,    1507,    1506
    5639,    1460,    1461,    1508,    1507
    5640,    1461,    1462,    1509,    1508
    5641,    1462,    1463,    1510,    1509
    5642,    1463,    1464,    1511,    1510
    5643,    1464,    1465,    1512,    1511
    5644,    1465,    1466,    1513,    1512
    5645,    1466,    1467,    1514,    1513
    5646,    1467,    1468,    1515,    1514
    5647,    1468,    1469,    1516,    1515
    5648,    1469,    1470,    1517,    1516
    5649,    1470,    1471,    1518,    1517
    5650,    1471,    1472,    1519,    1518
    5651,    1472,    1473,    1520,    1519
    5652,    1473,    1474,    1521,    1520
    5653,    1474,    1475,    1522,    1521
    5654,    1475,    1476,    1523,    1522
    5655,    1476,    1477,    1524,    1523
    5656,    1477,    1478,    1525,    1524
    5657,    1478,    1479,    1526,    1525
    5658,    1479,    1480,    1527,    1526
    5659,    1481,    1482,    1529,    1528
    5660,    1482,    1483,    1530,    1529
    5661,    1483,    1484,    1531,    1530
    5662,    1484,    1485,    1532,    1531
    5663,    1485,    1486,    1533,    1532
    5664,    1486,    1487,    1534,    1533
    5665,    1487,    1488,    1535,    1534
    5666,    1488,    1489,    1536,    1535
    5667,    1489,    1490,    1537,    1536
    5668,    1490,    1491,    1538,    1537
    5669,    1491,    1492,    1539,    1538
    5670,    1492,    1493,    1540,    1539
    5671,    1493,    1494,    1541,    1540
    5672,    1494,    1495,    1542,    1541
    5673,    1495,    1496,    1543,    1542
    5674,    1496,    1497,    1544,    1543
    5675,    1497,    1498,    1545,    1544
    5676,    1498,    1499,    1546,    1545
    5677,    1499,    1500,    1547,    1546
    5678,    1500,    1501,    1548,    1547
    5679,    1501,    1502,    1549,    1548
    5680,    1502,    1503,    1550,    1549
    5681,    1503,    1504,    1551,    1550
    5682,    1504,    1505,    1552,    1551
    5683,    1505,    1506,    1553,    1552
    5684,    1506,    1507,    1554,    1553
    5685,    1507,    1508,    1555,    1554
    5686,    1508,    1509,    1556,    1555
    5687,    1509,    1510,    1557,    1556
    5688,    1510,    1511,    1558,    1557
    5689,    1511,    1512,    1559,    1558
    5690,    1512,    1513,    1560,    1559
    5691,    1513,    1514,    1561,    1560
    5692,    1514,    1515,    1562,    1561
    5693,    1515,    1516,    1563,    1562
    5694,    1516,    1517,    1564,    1563
    5695,    1517,    1518,    1565,    1564
    5696,    1518,    1519,    1566,    1565
    5697,    1519,    1520,    1567,    1566
    5698,    1520,    1521,    1568,    1567
    5699,    1521,    1522,    1569,    1568
    5700,    1522,    1523,    1570,    1569
    5701,    1523,    1524,    1571,    1570
    5702,    1524,    1525,    1572,    1571
    5703,    1525,    1526,    1573,    1572
    5704,    1526,    1527,    1574,    1573
    5705,    1528,    1529,    1576,    1575
    5706,    1529,    1530,    1577,    1576
    5707,    1530,    1531,    1578,    1577
    5708,    1531,    1532,    1579,    1578
    5709,    1532,    1533,    1580,    1579
    5710,    1533,    1534,    1581,    1580
    5711,    1534,    1535,    1582,    1581
    5712,    1535,    1536,    1583,    1582
    5713,    1536,    1537,    1584,    1583
    5714,    1537,    1538,    1585,    1584
    5715,    1538,    1539,    1586,    1585
    5716,    1539,    1540,    1587,    1586
    5717,    1540,    1541,    1588,    1587
    5718,    1541,    1542,    1589,    1588
    5719,    1542,    1543,    1590,    1589
    5720,    1543,    1544,    1591,    1590
    5721,    1544,    1545,    1592,    1591
    5722,    1545,    1546,    1593,    1592
    5723,    1546,    1547,    1594,    1593
    5724,    1547,    1548,    1595,    1594
    5725,    1548,    1549,    1596,    1595
    5726,    1549,    1550,    1597,    1596
    5727,    1550,    1551,    1598,    1597
    5728,    1551,    1552,    1599,    1598
    5729,    1552,    1553,    1600,    1599
    5730,    1553,    1554,    1601,    1600
    5731,    1554,    1555,    1602,    1601
    5732,    1555,    1556,    1603,    1602
    5733,    1556,    1557,    1604,    1603
    5734,    1557,    1558,    1605,    1604
    5735,    1558,    1559,    1606,    1605
    5736,    1559,    1560,    1607,    1606
    5737,    1560,    1561,    1608,    1607
    5738,    1561,    1562,    1609,    1608
    5739,    1562,    1563,    1610,    1609
    5740,    1563,    1564,    1611,    1610
    5741,    1564,    1565,    1612,    1611
    5742,    1565,    1566,    1613,    1612
    5743,    1566,    1567,    1614,    1613
    5744,    1567,    1568,    1615,    1614
    5745,    1568,    1569,    1616,    1615
    5746,    1569,    1570,    1617,    1616
    5747,    1570,    1571,    1618,    1617
    5748,    1571,    1572,    1619,    1618
    5749,    1572,    1573,    1620,    1619
    5750,    1573,    1574,    1621,    1620
    5751,    1575,    1576,    1623,    1622
    5752,    1576,    1577,    1624,    1623
    5753,    1577,    1578,    1625,    1624
    5754,    1578,    1579,    1626,    1625
    5755,    1579,    1580,    1627,    1626
    5756,    1580,    1581,    1628,    1627
    5757,    1581,    1582,    1629,    1628
    5758,    1582,    1583,    1630,    1629
    5759,    1583,    1584,    1631,    1630
    5760,    1584,    1585,    1632,    1631
    5761,    1585,    1586,    1633,    1632
    5762,    1586,    1587,    1634,    1633
    5763,    1587,    1588,    1635,    1634
    5764,    1588,    1589,    1636,    1635
    5765,    1589,    1590,    1637,    1636
    5766,    1590,    1591,    1638,    1637
    5767,    1591,    1592,    1639,    1638
    5768,    1592,    1593,    1640,    1639
    5769,    1593,    1594,    1641,    1640
    5770,    1594,    1595,    1642,    1641
    5771,    1595,    1596,    1643,    1642
    5772,    1596,    1597,    1644,    1643
    5773,    1597,    1598,    1645,    1644
    5774,    1598,    1599,    1646,    1645
    5775,    1599,    1600,    1647,    1646
    5776,    1600,    1601,    1648,    1647
    5777,    1601,    1602,    1649,    1648
    5778,    1602,    1603,    1650,    1649
    5779,    1603,    1604,    1651,    1650
    5780,    1604,    1605,    1652,    1651
    5781,    1605,    1606,    1653,    1652
    5782,    1606,    1607,    1654,    1653
    5783,    1607,    1608,    1655,    1654
    5784,    1608,    1609,    1656,    1655
    5785,    1609,    1610,    1657,    1656
    5786,    1610,    1611,    1658,    1657
    5787,    1611,    1612,    1659,    1658
    5788,    1612,    1613,    1660,    1659
    5789,    1613,    1614,    1661,    1660
    5790,    1614,    1615,    1662,    1661
    5791,    1615,    1616,    1663,    1662
    5792,    1616,    1617,    1664,    1663
    5793,    1617,    1618,    1665,    1664
    5794,    1618,    1619,    1666,    1665
    5795,    1619,    1620,    1667,    1666
    5796,    1620,    1621,    1668,    1667
    5797,    1622,    1623,    1670,    1669
    5798,    1623,    1624,    1671,    1670
    5799,    1624,    1625,    1672,    1671
    5800,    1625,    1626,    1673,    1672
    5801,    1626,    1627,    1674,    1673
    5802,    1627,    1628,    1675,    1674
    5803,    1628,    1629,    1676,    1675
    5804,    1629,    1630,    1677,    1676
    5805,    1630,    1631,    1678,    1677
    5806,    1631,    1632,    1679,    1678
    5807,    1632,    1633,    1680,    1679
    5808,    1633,    1634,    1681,    1680
    5809,    1634,    1635,    1682,    1681
    5810,    1635,    1636,    1683,    1682
    5811,    1636,    1637,    1684,    1683
    5812,    1637,    1638,    1685,    1684
    5813,    1638,    1639,    1686,    1685
    5814,    1639,    1640,    1687,    1686
    5815,    1640,    1641,    1688,    1687
    5816,    1641,    1642,    1689,    1688
    5817,    1642,    1643,    1690,    1689
    5818,    1643,    1644,    1691,    1690
    5819,    1644,    1645,    1692,    1691
    5820,    1645,    1646,    1693,    1692
    5821,    1646,    1647,    1694,    1693
    5822,    1647,    1648,    1695,    1694
    5823,    1648,    1649,    1696,    1695
    5824,    1649,    1650,    1697,    1696
    5825,    1650,    1651,    1698,    1697
    5826,    1651,    1652,    1699,    1698
    5827,    1652,    1653,    1700,    1699
    5828,    1653,    1654,    1701,    1700
    5829,    1654,    1655,    1702,    1701
    5830,    1655,    1656,    1703,    1702
    5831,    1656,    1657,    1704,    1703
    5832,    1657,    1658,    1705,    1704
    5833,    1658,    1659,    1706,    1705
    5834,    1659,    1660,    1707,    1706
    5835,    1660,    1661,    1708,    1707
    5836,    1661,    1662,    1709,    1708
    5837,    1662,    1663,    1710,    1709
    5838,    1663,    1664,    1711,    1710
    5839,    1664,    1665,    1712,    1711
    5840,    1665,    1666,    1713,    1712
    5841,    1666,    1667,    1714,    1713
    5842,    1667,    1668,    1715,    1714
    5843,    1669,    1670,    1717,    1716
    5844,    1670,    1671,    1718,    1717
    5845,    1671,    1672,    1719,    1718
    5846,    1672,    1673,    1720,    1719
    5847,    1673,    1674,    1721,    1720
    5848,    1674,    1675,    1722,    1721
    5849,    1675,    1676,    1723,    1722
    5850,    1676,    1677,    1724,    1723
    5851,    1677,    1678,    1725,    1724
    5852,    1678,    1679,    1726,    1725
    5853,    1679,    1680,    1727,    1726
    5854,    1680,    1681,    1728,    1727
    5855,    1681,    1682,    1729,    1728
    5856,    1682,    1683,    1730,    1729
    5857,    1683,    1684,    1731,    1730
    5858,    1684,    1685,    1732,    1731
    5859,    1685,    1686,    1733,    1732
    5860,    1686,    1687,    1734,    1733
    5861,    1687,    1688,    1735,    1734
    5862,    1688,    1689,    1736,    1735
    5863,    1689,    1690,    1737,    1736
    5864,    1690,    1691,    1738,    1737
    5865,    1691,    1692,    1739,    1738
    5866,    1692,    1693,    1740,    1739
    5867,    1693,    1694,    1741,    1740
    5868,    1694,    1695,    1742,    1741
    5869,    1695,    1696,    1743,    1742
    5870,    1696,    1697,    1744,    1743
    5871,    1697,    1698,    1745,    1744
    5872,    1698,    1699,    1746,    1745
    5873,    1699,    1700,    1747,    1746
    5874,    1700,    1701,    1748,    1747
    5875,    1701,    1702,    1749,    1748
    5876,    1702,    1703,    1750,    1749
    5877,    1703,    1704,    1751,    1750
    5878,    1704,    1705,    1752,    1751
    5879,    1705,    1706,    1753,    1752
    5880,    1706,    1707,    1754,    1753
    5881,    1707,    1708,    1755,    1754
    5882,    1708,    1709,    1756,    1755
    5883,    1709,    1710,    1757,    1756
    5884,    1710,    1711,    1758,    1757
    5885,    1711,    1712,    1759,    1758
    5886,    1712,    1713,    1760,    1759
    5887,    1713,    1714,    1761,    1760
    5888,    1714,    1715,    1762,    1761
    5889,    1716,    1717,    1764,    1763
    5890,    1717,    1718,    1765,    1764
    5891,    1718,    1719,    1766,    1765
    5892,    1719,    1720,    1767,    1766
    5893,    1720,    1721,    1768,    1767
    5894,    1721,    1722,    1769,    1768
    5895,    1722,    1723,    1770,    1769
    5896,    1723,    1724,    1771,    1770
    5897,    1724,    1725,    1772,    1771
    5898,    1725,    1726,    1773,    1772
    5899,    1726,    1727,    1774,    1773
    5900,    1727,    1728,    1775,    1774
    5901,    1728,    1729,    1776,    1775
    5902,    1729,    1730,    1777,    1776
    5903,    1730,    1731,    1778,    1777
    5904,    1731,    1732,    1779,    1778
    5905,    1732,    1733,    1780,    1779
    5906,    1733,    1734,    1781,    1780
    5907,    1734,    1735,    1782,    1781
    5908,    1735,    1736,    1783,    1782
    5909,    1736,    1737,    1784,    1783
    5910,    1737,    1738,    1785,    1784
    5911,    1738,    1739,    1786,    1785
    5912,    1739,    1740,    1787,    1786
    5913,    1740,    1741,    1788,    1787
    5914,    1741,    1742,    1789,    1788
    5915,    1742,    1743,    1790,    1789
    5916,    1743,    1744,    1791,    1790
    5917,    1744,    1745,    1792,    1791
    5918,    1745,    1746,    1793,    1792
    5919,    1746,    1747,    1794,    1793
    5920,    1747,    1748,    1795,    1794
    5921,    1748,    1749,    1796,    1795
    5922,    1749,    1750,    1797,    1796
    5923,    1750,    1751,    1798,    1797
    5924,    1751,    1752,    1799,    1798
    5925,    1752,    1753,    1800,    1799
    5926,    1753,    1754,    1801,    1800
    5927,    1754,    1755,    1802,    1801
    5928,    1755,    1756,    1803,    1802
    5929,    1756,    1757,    1804,    1803
    5930,    1757,    1758,    1805,    1804
    5931,    1758,    1759,    1806,    1805
    5932,    1759,    1760,    1807,    1806
    5933,    1760,    1761,    1808,    1807
    5934,    1761,    1762,    1809,    1808
    5935,    1763,    1764,    1811,    1810
    5936,    1764,    1765,    1812,    1811
    5937,    1765,    1766,    1813,    1812
    5938,    1766,    1767,    1814,    1813
    5939,    1767,    1768,    1815,    1814
    5940,    1768,    1769,    1816,    1815
    5941,    1769,    1770,    1817,    1816
    5942,    1770,    1771,    1818,    1817
    5943,    1771,    1772,    1819,    1818
    5944,    1772,    1773,    1820,    1819
    5945,    1773,    1774,    1821,    1820
    5946,    1774,    1775,    1822,    1821
    5947,    1775,    1776,    1823,    1822
    5948,    1776,    1777,    1824,    1823
    5949,    1777,    1778,    1825,    1824
    5950,    1778,    1779,    1826,    1825
    5951,    1779,    1780,    1827,    1826
    5952,    1780,    1781,    1828,    1827
    5953,    1781,    1782,    1829,    1828
    5954,    1782,    1783,    1830,    1829
    5955,    1783,    1784,    1831,    1830
    5956,    1784,    1785,    1832,    1831
    5957,    1785,    1786,    1833,    1832
    5958,    1786,    1787,    1834,    1833
    5959,    1787,    1788,    1835,    1834
    5960,    1788,    1789,    1836,    1835
    5961,    1789,    1790,    1837,    1836
    5962,    1790,    1791,    1838,    1837
    5963,    1791,    1792,    1839,    1838
    5964,    1792,    1793,    1840,    1839
    5965,    1793,    1794,    1841,    1840
    5966,    1794,    1795,    1842,    1841
    5967,    1795,    1796,    1843,    1842
    5968,    1796,    1797,    1844,    1843
    5969,    1797,    1798,    1845,    1844
    5970,    1798,    1799,    1846,    1845
    5971,    1799,    1800,    1847,    1846
    5972,    1800,    1801,    1848,    1847
    5973,    1801,    1802,    1849,    1848
    5974,    1802,    1803,    1850,    1849
    5975,    1803,    1804,    1851,    1850
    5976,    1804,    1805,    1852,    1851
    5977,    1805,    1806,    1853,    1852
    5978,    1806,    1807,    1854,    1853
    5979,    1807,    1808,    1855,    1854
    5980,    1808,    1809,    1856,    1855
    5981,    1810,    1811,    1858,    1857
    5982,    1811,    1812,    1859,    1858
    5983,    1812,    1813,    1860,    1859
    5984,    1813,    1814,    1861,    1860
    5985,    1814,    1815,    1862,    1861
    5986,    1815,    1816,    1863,    1862
    5987,    1816,    1817,    1864,    1863
    5988,    1817,    1818,    1865,    1864
    5989,    1818,    1819,    1866,    1865
    5990,    1819,    1820,    1867,    1866
    5991,    1820,    1821,    1868,    1867
    5992,    1821,    1822,    1869,    1868
    5993,    1822,    1823,    1870,    1869
    5994,    1823,    1824,    1871,    1870
    5995,    1824,    1825,    1872,    1871
    5996,    1825,    1826,    1873,    1872
    5997,    1826,    1827,    1874,    1873
    5998,    1827,    1828,    1875,    1874
    5999,    1828,    1829,    1876,    1875
    6000,    1829,    1830,    1877,    1876
    6001,    1830,    1831,    1878,    1877
    6002,    1831,    1832,    1879,    1878
    6003,    1832,    1833,    1880,    1879
    6004,    1833,    1834,    1881,    1880
    6005,    1834,    1835,    1882,    1881
    6006,    1835,    1836,    1883,    1882
    6007,    1836,    1837,    1884,    1883
    6008,    1837,    1838,    1885,    1884
    6009,    1838,    1839,    1886,    1885
    6010,    1839,    1840,    1887,    1886
    6011,    1840,    1841,    1888,    1887
    6012,    1841,    1842,    1889,    1888
    6013,    1842,    1843,    1890,    1889
    6014,    1843,    1844,    1891,    1890
    6015,    1844,    1845,    1892,    1891
    6016,    1845,    1846,    1893,    1892
    6017,    1846,    1847,    1894,    1893
    6018,    1847,    1848,    1895,    1894
    6019,    1848,    1849,    1896,    1895
    6020,    1849,    1850,    1897,    1896
    6021,    1850,    1851,    1898,    1897
    6022,    1851,    1852,    1899,    1898
    6023,    1852,    1853,    1900,    1899
    6024,    1853,    1854,    1901,    1900
    6025,    1854,    1855,    1902,    1901
    6026,    1855,    1856,    1903,    1902
    6027,    1857,    1858,    1905,    1904
    6028,    1858,    1859,    1906,    1905
    6029,    1859,    1860,    1907,    1906
    6030,    1860,    1861,    1908,    1907
    6031,    1861,    1862,    1909,    1908
    6032,    1862,    1863,    1910,    1909
    6033,    1863,    1864,    1911,    1910
    6034,    1864,    1865,    1912,    1911
    6035,    1865,    1866,    1913,    1912
    6036,    1866,    1867,    1914,    1913
    6037,    1867,    1868,    1915,    1914
    6038,    1868,    1869,    1916,    1915
    6039,    1869,    1870,    1917,    1916
    6040,    1870,    1871,    1918,    1917
    6041,    1871,    1872,    1919,    1918
    6042,    1872,    1873,    1920,    1919
    6043,    1873,    1874,    1921,    1920
    6044,    1874,    1875,    1922,    1921
    6045,    1875,    1876,    1923,    1922
    6046,    1876,    1877,    1924,    1923
    6047,    1877,    1878,    1925,    1924
    6048,    1878,    1879,    1926,    1925
    6049,    1879,    1880,    1927,    1926
    6050,    1880,    1881,    1928,    1927
    6051,    1881,    1882,    1929,    1928
    6052,    1882,    1883,    1930,    1929
    6053,    1883,    1884,    1931,    1930
    6054,    1884,    1885,    1932,    1931
    6055,    1885,    1886,    1933,    1932
    6056,    1886,    1887,    1934,    1933
    6057,    1887,    1888,    1935,    1934
    6058,    1888,    1889,    1936,    1935
    6059,    1889,    1890,    1937,    1936
    6060,    1890,    1891,    1938,    1937
    6061,    1891,    1892,    1939,    1938
    6062,    1892,    1893,    1940,    1939
    6063,    1893,    1894,    1941,    1940
    6064,    1894,    1895,    1942,    1941
    6065,    1895,    1896,    1943,    1942
    6066,    1896,    1897,    1944,    1943
    6067,    1897,    1898,    1945,    1944
    6068,    1898,    1899,    1946,    1945
    6069,    1899,    1900,    1947,    1946
    6070,    1900,    1901,    1948,    1947
    6071,    1901,    1902,    1949,    1948
    6072,    1902,    1903,    1950,    1949
    6073,    1904,    1905,    1952,    1951
    6074,    1905,    1906,    1953,    1952
    6075,    1906,    1907,    1954,    1953
    6076,    1907,    1908,    1955,    1954
    6077,    1908,    1909,    1956,    1955
    6078,    1909,    1910,    1957,    1956
    6079,    1910,    1911,    1958,    1957
    6080,    1911,    1912,    1959,    1958
    6081,    1912,    1913,    1960,    1959
    6082,    1913,    1914,    1961,    1960
    6083,    1914,    1915,    1962,    1961
    6084,    1915,    1916,    1963,    1962
    6085,    1916,    1917,    1964,    1963
    6086,    1917,    1918,    1965,    1964
    6087,    1918,    1919,    1966,    1965
    6088,    1919,    1920,    1967,    1966
    6089,    1920,    1921,    1968,    1967
    6090,    1921,    1922,    1969,    1968
    6091,    1922,    1923,    1970,    1969
    6092,    1923,    1924,    1971,    1970
    6093,    1924,    1925,    1972,    1971
    6094,    1925,    1926,    1973,    1972
    6095,    1926,    1927,    1974,    1973
    6096,    1927,    1928,    1975,    1974
    6097,    1928,    1929,    1976,    1975
    6098,    1929,    1930,    1977,    1976
    6099,    1930,    1931,    1978,    1977
    6100,    1931,    1932,    1979,    1978
    6101,    1932,    1933,    1980,    1979
    6102,    1933,    1934,    1981,    1980
    6103,    1934,    1935,    1982,    1981
    6104,    1935,    1936,    1983,    1982
    6105,    1936,    1937,    1984,    1983
    6106,    1937,    1938,    1985,    1984
    6107,    1938,    1939,    1986,    1985
    6108,    1939,    1940,    1987,    1986
    6109,    1940,    1941,    1988,    1987
    6110,    1941,    1942,    1989,    1988
    6111,    1942,    1943,    1990,    1989
    6112,    1943,    1944,    1991,    1990
    6113,    1944,    1945,    1992,    1991
    6114,    1945,    1946,    1993,    1992
    6115,    1946,    1947,    1994,    1993
    6116,    1947,    1948,    1995,    1994
    6117,    1948,    1949,    1996,    1995
    6118,    1949,    1950,    1997,    1996
    6119,    1951,    1952,    1999,    1998
    6120,    1952,    1953,    2000,    1999
    6121,    1953,    1954,    2001,    2000
    6122,    1954,    1955,    2002,    2001
    6123,    1955,    1956,    2003,    2002
    6124,    1956,    1957,    2004,    2003
    6125,    1957,    1958,    2005,    2004
    6126,    1958,    1959,    2006,    2005
    6127,    1959,    1960,    2007,    2006
    6128,    1960,    1961,    2008,    2007
    6129,    1961,    1962,    2009,    2008
    6130,    1962,    1963,    2010,    2009
    6131,    1963,    1964,    2011,    2010
    6132,    1964,    1965,    2012,    2011
    6133,    1965,    1966,    2013,    2012
    6134,    1966,    1967,    2014,    2013
    6135,    1967,    1968,    2015,    2014
    6136,    1968,    1969,    2016,    2015
    6137,    1969,    1970,    2017,    2016
    6138,    1970,    1971,    2018,    2017
    6139,    1971,    1972,    2019,    2018
    6140,    1972,    1973,    2020,    2019
    6141,    1973,    1974,    2021,    2020
    6142,    1974,    1975,    2022,    2021
    6143,    1975,    1976,    2023,    2022
    6144,    1976,    1977,    2024,    2023
    6145,    1977,    1978,    2025,    2024
    6146,    1978,    1979,    2026,    2025
    6147,    1979,    1980,    2027,    2026
    6148,    1980,    1981,    2028,    2027
    6149,    1981,    1982,    2029,    2028
    6150,    1982,    1983,    2030,    2029
    6151,    1983,    1984,    2031,    2030
    6152,    1984,    1985,    2032,    2031
    6153,    1985,    1986,    2033,    2032
    6154,    1986,    1987,    2034,    2033
    6155,    1987,    1988,    2035,    2034
    6156,    1988,    1989,    2036,    2035
    6157,    1989,    1990,    2037,    2036
    6158,    1990,    1991,    2038,    2037
    6159,    1991,    1992,    2039,    2038
    6160,    1992,    1993,    2040,    2039
    6161,    1993,    1994,    2041,    2040
    6162,    1994,    1995,    2042,    2041
    6163,    1995,    1996,    2043,    2042
    6164,    1996,    1997,    2044,    2043
    6165,    1998,    1999,    2046,    2045
    6166,    1999,    2000,    2047,    2046
    6167,    2000,    2001,    2048,    2047
    6168,    2001,    2002,    2049,    2048
    6169,    2002,    2003,    2050,    2049
    6170,    2003,    2004,    2051,    2050
    6171,    2004,    2005,    2052,    2051
    6172,    2005,    2006,    2053,    2052
    6173,    2006,    2007,    2054,    2053
    6174,    2007,    2008,    2055,    2054
    6175,    2008,    2009,    2056,    2055
    6176,    2009,    2010,    2057,    2056
    6177,    2010,    2011,    2058,    2057
    6178,    2011,    2012,    2059,    2058
    6179,    2012,    2013,    2060,    2059
    6180,    2013,    2014,    2061,    2060
    6181,    2014,    2015,    2062,    2061
    6182,    2015,    2016,    2063,    2062
    6183,    2016,    2017,    2064,    2063
    6184,    2017,    2018,    2065,    2064
    6185,    2018,    2019,    2066,    2065
    6186,    2019,    2020,    2067,    2066
    6187,    2020,    2021,    2068,    2067
    6188,    2021,    2022,    2069,    2068
    6189,    2022,    2023,    2070,    2069
    6190,    2023,    2024,    2071,    2070
    6191,    2024,    2025,    2072,    2071
    6192,    2025,    2026,    2073,    2072
    6193,    2026,    2027,    2074,    2073
    6194,    2027,    2028,    2075,    2074
    6195,    2028,    2029,    2076,    2075
    6196,    2029,    2030,    2077,    2076
    6197,    2030,    2031,    2078,    2077
    6198,    2031,    2032,    2079,    2078
    6199,    2032,    2033,    2080,    2079
    6200,    2033,    2034,    2081,    2080
    6201,    2034,    2035,    2082,    2081
    6202,    2035,    2036,    2083,    2082
    6203,    2036,    2037,    2084,    2083
    6204,    2037,    2038,    2085,    2084
    6205,    2038,    2039,    2086,    2085
    6206,    2039,    2040,    2087,    2086
    6207,    2040,    2041,    2088,    2087
    6208,    2041,    2042,    2089,    2088
    6209,    2042,    2043,    2090,    2089
    6210,    2043,    2044,    2091,    2090
    6211,    2045,    2046,    2093,    2092
    6212,    2046,    2047,    2094,    2093
    6213,    2047,    2048,    2095,    2094
    6214,    2048,    2049,    2096,    2095
    6215,    2049,    2050,    2097,    2096
    6216,    2050,    2051,    2098,    2097
    6217,    2051,    2052,    2099,    2098
    6218,    2052,    2053,    2100,    2099
    6219,    2053,    2054,    2101,    2100
    6220,    2054,    2055,    2102,    2101
    6221,    2055,    2056,    2103,    2102
    6222,    2056,    2057,    2104,    2103
    6223,    2057,    2058,    2105,    2104
    6224,    2058,    2059,    2106,    2105
    6225,    2059,    2060,    2107,    2106
    6226,    2060,    2061,    2108,    2107
    6227,    2061,    2062,    2109,    2108
    6228,    2062,    2063,    2110,    2109
    6229,    2063,    2064,    2111,    2110
    6230,    2064,    2065,    2112,    2111
    6231,    2065,    2066,    2113,    2112
    6232,    2066,    2067,    2114,    2113
    6233,    2067,    2068,    2115,    2114
    6234,    2068,    2069,    2116,    2115
    6235,    2069,    2070,    2117,    2116
    6236,    2070,    2071,    2118,    2117
    6237,    2071,    2072,    2119,    2118
    6238,    2072,    2073,    2120,    2119
    6239,    2073,    2074,    2121,    2120
    6240,    2074,    2075,    2122,    2121
    6241,    2075,    2076,    2123,    2122
    6242,    2076,    2077,    2124,    2123
    6243,    2077,    2078,    2125,    2124
    6244,    2078,    2079,    2126,    2125
    6245,    2079,    2080,    2127,    2126
    6246,    2080,    2081,    2128,    2127
    6247,    2081,    2082,    2129,    2128
    6248,    2082,    2083,    2130,    2129
    6249,    2083,    2084,    2131,    2130
    6250,    2084,    2085,    2132,    2131
    6251,    2085,    2086,    2133,    2132
    6252,    2086,    2087,    2134,    2133
    6253,    2087,    2088,    2135,    2134
    6254,    2088,    2089,    2136,    2135
    6255,    2089,    2090,    2137,    2136
    6256,    2090,    2091,    2138,    2137
    6257,    2092,    2093,    2140,    2139
    6258,    2093,    2094,    2141,    2140
    6259,    2094,    2095,    2142,    2141
    6260,    2095,    2096,    2143,    2142
    6261,    2096,    2097,    2144,    2143
    6262,    2097,    2098,    2145,    2144
    6263,    2098,    2099,    2146,    2145
    6264,    2099,    2100,    2147,    2146
    6265,    2100,    2101,    2148,    2147
    6266,    2101,    2102,    2149,    2148
    6267,    2102,    2103,    2150,    2149
    6268,    2103,    2104,    2151,    2150
    6269,    2104,    2105,    2152,    2151
    6270,    2105,    2106,    2153,    2152
    6271,    2106,    2107,    2154,    2153
    6272,    2107,    2108,    2155,    2154
    6273,    2108,    2109,    2156,    2155
    6274,    2109,    2110,    2157,    2156
    6275,    2110,    2111,    2158,    2157
    6276,    2111,    2112,    2159,    2158
    6277,    2112,    2113,    2160,    2159
    6278,    2113,    2114,    2161,    2160
    6279,    2114,    2115,    2162,    2161
    6280,    2115,    2116,    2163,    2162
    6281,    2116,    2117,    2164,    2163
    6282,    2117,    2118,    2165,    2164
    6283,    2118,    2119,    2166,    2165
    6284,    2119,    2120,    2167,    2166
    6285,    2120,    2121,    2168,    2167
    6286,    2121,    2122,    2169,    2168
    6287,    2122,    2123,    2170,    2169
    6288,    2123,    2124,    2171,    2170
    6289,    2124,    2125,    2172,    2171
    6290,    2125,    2126,    2173,    2172
    6291,    2126,    2127,    2174,    2173
    6292,    2127,    2128,    2175,    2174
    6293,    2128,    2129,    2176,    2175
    6294,    2129,    2130,    2177,    2176
    6295,    2130,    2131,    2178,    2177
    6296,    2131,    2132,    2179,    2178
    6297,    2132,    2133,    2180,    2179
    6298,    2133,    2134,    2181,    2180
    6299,    2134,    2135,    2182,    2181
    6300,    2135,    2136,    2183,    2182
    6301,    2136,    2137,    2184,    2183
    6302,    2137,    2138,    2185,    2184
    6303,    2139,    2140,    2187,    2186
    6304,    2140,    2141,    2188,    2187
    6305,    2141,    2142,    2189,    2188
    6306,    2142,    2143,    2190,    2189
    6307,    2143,    2144,    2191,    2190
    6308,    2144,    2145,    2192,    2191
    6309,    2145,    2146,    2193,    2192
    6310,    2146,    2147,    2194,    2193
    6311,    2147,    2148,    2195,    2194
    6312,    2148,    2149,    2196,    2195
    6313,    2149,    2150,    2197,    2196
    6314,    2150,    2151,    2198,    2197
    6315,    2151,    2152,    2199,    2198
    6316,    2152,    2153,    2200,    2199
    6317,    2153,    2154,    2201,    2200
    6318,    2154,    2155,    2202,    2201
    6319,    2155,    2156,    2203,    2202
    6320,    2156,    2157,    2204,    2203
    6321,    2157,    2158,    2205,    2204
    6322,    2158,    2159,    2206,    2205
    6323,    2159,    2160,    2207,    2206
    6324,    2160,    2161,    2208,    2207
    6325,    2161,    2162,    2209,    2208
    6326,    2162,    2163,    2210,    2209
    6327,    2163,    2164,    2211,    2210
    6328,    2164,    2165,    2212,    2211
    6329,    2165,    2166,    2213,    2212
    6330,    2166,    2167,    2214,    2213
    6331,    2167,    2168,    2215,    2214
    6332,    2168,    2169,    2216,    2215
    6333,    2169,    2170,    2217,    2216
    6334,    2170,    2171,    2218,    2217
    6335,    2171,    2172,    2219,    2218
    6336,    2172,    2173,    2220,    2219
    6337,    2173,    2174,    2221,    2220
    6338,    2174,    2175,    2222,    2221
    6339,    2175,    2176,    2223,    2222
    6340,    2176,    2177,    2224,    2223
    6341,    2177,    2178,    2225,    2224
    6342,    2178,    2179,    2226,    2225
    6343,    2179,    2180,    2227,    2226
    6344,    2180,    2181,    2228,    2227
    6345,    2181,    2182,    2229,    2228
    6346,    2182,    2183,    2230,    2229
    6347,    2183,    2184,    2231,    2230
    6348,    2184,    2185,    2232,    2231
** Aggregate Element Sets
*Elset, elset=PHASE
 PHASE_QUAD
*Elset, elset=DISP
 DISP_QUAD
*Elset, elset=UMATELEM
 UMAT_QUAD
*Elset, elset=All_elem
 UMATELEM
** UEL Properties: l0, Gc, E, nu, k_res, N_PHYS, EXEC_MODE
*UEL Property, elset=PHASE_QUAD
 1.500000e-02, 2.700000e-03, 2.100000e+02, 3.000000e-01, 1.000000e-07, 2116.0, 0.0
*UEL Property, elset=DISP_QUAD
 1.500000e-02, 2.700000e-03, 2.100000e+02, 3.000000e-01, 1.000000e-07, 2116.0, 0.0
*Solid Section, elset=UMAT_QUAD, material=MAT_QUAD_FACSIMILE
 1.000000e+00
*End Part
**
** ASSEMBLY
**
*Assembly, name=Assembly
*Instance, name=PlateInstance, part=PlatePart
*End Instance
** Assembly Reference Point
*Node
   99999,   0.0000000000e+00,   6.0000000000e-01,   0.0000000000e+00
*Nset, nset=RP
   99999
*Nset, nset=bottom_nodes, instance=PlateInstance
       1,       2,       3,       4,       5,       6,       7,       8,       9,      10,      11,      12,      13,      14,      15,      16
      17,      18,      19,      20,      21,      22,      23,      24,      25,      26,      27,      28,      29,      30,      31,      32
      33,      34,      35,      36,      37,      38,      39,      40,      41,      42,      43,      44,      45,      46,      47
*Nset, nset=top_nodes, instance=PlateInstance
    2186,    2187,    2188,    2189,    2190,    2191,    2192,    2193,    2194,    2195,    2196,    2197,    2198,    2199,    2200,    2201
    2202,    2203,    2204,    2205,    2206,    2207,    2208,    2209,    2210,    2211,    2212,    2213,    2214,    2215,    2216,    2217
    2218,    2219,    2220,    2221,    2222,    2223,    2224,    2225,    2226,    2227,    2228,    2229,    2230,    2231,    2232
*Nset, nset=left_nodes, instance=PlateInstance
       1,      48,      95,     142,     189,     236,     283,     330,     377,     424,     471,     518,     565,     612,     659,     706
     753,     800,     847,     894,     941,     988,    1035,    1082,    1083,    1152,    1199,    1246,    1293,    1340,    1387,    1434
    1481,    1528,    1575,    1622,    1669,    1716,    1763,    1810,    1857,    1904,    1951,    1998,    2045,    2092,    2139,    2186
*Nset, nset=right_nodes, instance=PlateInstance
      47,      94,     141,     188,     235,     282,     329,     376,     423,     470,     517,     564,     611,     658,     705,     752
     799,     846,     893,     940,     987,    1034,    1081,    1151,    1198,    1245,    1292,    1339,    1386,    1433,    1480,    1527
    1574,    1621,    1668,    1715,    1762,    1809,    1856,    1903,    1950,    1997,    2044,    2091,    2138,    2185,    2232
*Elset, elset=UMATELEM, instance=PlateInstance
 UMATELEM
*Elset, elset=All_elem, instance=PlateInstance
 UMATELEM
** Constraint: Mode-II Pure Shear Coupling (top_nodes U1 -> RP U1)
*Equation
 2
 top_nodes, 1, 1.
 RP, 1, -1.
*End Assembly
** MATERIALS
*Material, name=MAT_QUAD_FACSIMILE
*Depvar
 18
*User Material, constants=4
 1.000000e-11, 3.000000e-01, 2116.0, 4.0
** BOUNDARY CONDITIONS
*Boundary
 bottom_nodes, 1, 1
 bottom_nodes, 2, 2
 top_nodes, 2, 2
** STEP: Step-1
*Step, name=Step-1, nlgeom=NO
*Static
 0.001, 1.0, 1.0e-5, 1.0
*Boundary
 RP, 1, 1, 0.00750000
*Output, field
*Node Output
 RF, U
*Node Output, nset=RP
 RF, U
*Element Output, elset=UMATELEM
 S, E, SDV, EVOL
*Output, history, variable=PRESELECT
*Energy Output
 ALLAE, ALLCD, ALLIE, ALLKE, ALLPD, ALLSE, ALLWK, ETOTAL
*End Step
