*Heading
 Coarse L-Panel pre-analysis
** Job name: JOB_LPANEL_COARSE Model name: LPANEL_COARSE
** Generated by: Abaqus/CAE 2024
*Preprint, echo=NO, model=NO, history=NO, contact=NO
**
** PARTS
**
*Part, name=LPANEL
*Node
      1,           0.,           1.
      2,           0.,           0.
      3,           1.,           0.
      4,           1.,          0.5
      5,          0.5,          0.5
      6,          0.5,           1.
      7,           0.,  0.959999979
      8,           0.,  0.920000017
      9,           0.,  0.879999995
     10,           0.,  0.839999974
     11,           0.,  0.800000012
     12,           0.,   0.75999999
     13,           0.,  0.720000029
     14,           0.,  0.680000007
     15,           0.,  0.639999986
     16,           0.,  0.600000024
     17,           0.,  0.560000002
     18,           0.,  0.519999981
     19,           0.,  0.479999989
     20,           0.,  0.439999998
     21,           0.,  0.400000006
     22,           0.,  0.360000014
     23,           0.,  0.319999993
     24,           0.,  0.280000001
     25,           0.,  0.239999995
     26,           0.,  0.200000003
     27,           0.,  0.159999996
     28,           0.,  0.119999997
     29,           0., 0.0799999982
     30,           0., 0.0399999991
     31, 0.0399999991,           0.
     32, 0.0799999982,           0.
     33,  0.119999997,           0.
     34,  0.159999996,           0.
     35,  0.200000003,           0.
     36,  0.239999995,           0.
     37,  0.280000001,           0.
     38,  0.319999993,           0.
     39,  0.360000014,           0.
     40,  0.400000006,           0.
     41,  0.439999998,           0.
     42,  0.479999989,           0.
     43,  0.519999981,           0.
     44,  0.560000002,           0.
     45,  0.600000024,           0.
     46,  0.639999986,           0.
     47,  0.680000007,           0.
     48,  0.720000029,           0.
     49,   0.75999999,           0.
     50,  0.800000012,           0.
     51,  0.839999974,           0.
     52,  0.879999995,           0.
     53,  0.920000017,           0.
     54,  0.959999979,           0.
     55,           1., 0.0384615399
     56,           1., 0.0769230798
     57,           1.,  0.115384616
     58,           1.,   0.15384616
     59,           1.,  0.192307696
     60,           1.,  0.230769232
     61,           1.,  0.269230783
     62,           1.,  0.307692319
     63,           1.,  0.346153855
     64,           1.,  0.384615391
     65,           1.,  0.423076928
     66,           1.,  0.461538464
     67,  0.961538434,          0.5
     68,  0.923076928,          0.5
     69,  0.884615362,          0.5
     70,  0.846153855,          0.5
     71,  0.807692289,          0.5
     72,  0.769230783,          0.5
     73,  0.730769217,          0.5
     74,  0.692307711,          0.5
     75,  0.653846145,          0.5
     76,  0.615384638,          0.5
     77,  0.576923072,          0.5
     78,  0.538461566,          0.5
     79,          0.5,  0.538461566
     80,          0.5,  0.576923072
     81,          0.5,  0.615384638
     82,          0.5,  0.653846145
     83,          0.5,  0.692307711
     84,          0.5,  0.730769217
     85,          0.5,  0.769230783
     86,          0.5,  0.807692289
     87,          0.5,  0.846153855
     88,          0.5,  0.884615362
     89,          0.5,  0.923076928
     90,          0.5,  0.961538434
     91,  0.461538464,           1.
     92,  0.423076928,           1.
     93,  0.384615391,           1.
     94,  0.346153855,           1.
     95,  0.307692319,           1.
     96,  0.269230783,           1.
     97,  0.230769232,           1.
     98,  0.192307696,           1.
     99,   0.15384616,           1.
    100,  0.115384616,           1.
    101, 0.0769230798,           1.
    102, 0.0384615399,           1.
    103,  0.461700141,  0.693327367
    104,  0.462757498,  0.654253781
    105,  0.462489218,  0.576430678
    106,  0.460570961,  0.535445392
    107,  0.658647299,  0.469919562
    108,  0.961441398,  0.423696071
    109,  0.733440936,  0.469103277
    110,  0.696063638,   0.47003603
    111,   0.62111479,  0.469319284
    112,  0.584186494,  0.468024105
    113,  0.548445046,  0.465267688
    114,  0.461016804,  0.770648658
    115,  0.461763829,  0.809419453
    116,  0.462380409,  0.847903252
    117,  0.462639093,  0.886151671
    118,   0.46252498,  0.924210012
    119,  0.462143391,  0.962167025
    120,  0.190987617,   0.96258229
    121,  0.152365103,  0.962411523
    122,  0.113966279,  0.962061346
    123,   0.07576821,  0.961544693
    124, 0.0377337411,  0.960840881
    125,  0.962525487,  0.192572474
    126,  0.961896062,  0.153921947
    127,  0.961064875,  0.115528204
    128,  0.960427463, 0.0771528035
    129,  0.268690437,  0.962422192
    130,  0.962545335,  0.231455311
    131,  0.229754567,  0.962579191
    132,   0.46317786,  0.615410149
    133,  0.770969629,  0.467737645
    134,  0.885024965,  0.463497162
    135,  0.515552223,  0.458081335
    136,  0.460701913,  0.731993735
    137, 0.0374252461,  0.599822998
    138, 0.0373333991,   0.47963208
    139, 0.0380930528,  0.639953315
    140,  0.316379994, 0.0385360867
    141,  0.356950104, 0.0391257778
    142,  0.397754848, 0.0396386571
    143,  0.438520998, 0.0396714993
    144,  0.479208916, 0.0389547572
    145,  0.519931793, 0.0378348939
    146,  0.196614385,  0.037774615
    147,  0.236283943, 0.0378543064
    148,  0.276192248, 0.0380967259
    149,  0.560482025, 0.0367660634
    150, 0.0400665998,  0.720901608
    151, 0.0371522717,  0.559730887
    152, 0.0371307246,  0.519639671
    153, 0.0375389718,  0.439494938
    154, 0.0377166793,  0.399437428
    155, 0.0378072858,   0.35930106
    156, 0.0377674997,  0.319072008
    157, 0.0376810245,  0.278839022
    158, 0.0376782604,  0.198422208
    159,  0.037800055,   0.15832144
    160,  0.038073957,  0.118403114
    161, 0.0384830609, 0.0786329731
    162, 0.0390722789, 0.0390900262
    163, 0.0376154296,  0.238548204
    164,  0.640459359, 0.0356773213
    165,  0.759490907, 0.0359534472
    166,   0.79985863, 0.0371166654
    167,  0.920048237, 0.0389075503
    168,  0.839806318,  0.038600184
    169,  0.719568372, 0.0354341492
    170,  0.680014551, 0.0353810415
    171,  0.600708127, 0.0360190719
    172, 0.0391788222,   0.68031621
    173, 0.0404395014,  0.761214852
    174, 0.0382926054,  0.841942191
    175, 0.0375929773,  0.881875694
    176,  0.960087895, 0.0386148803
    177,  0.961795509,  0.270369321
    178,  0.846856892,  0.464671046
    179,  0.458523035,   0.48534593
    180,  0.424872547,  0.887439668
    181,  0.627364755,  0.438557267
    182,  0.699097991,  0.440300405
    183,  0.423117906,  0.811350644
    184,  0.423159242,   0.69258076
    185,  0.926349401,  0.231304511
    186,  0.770815849,   0.43528387
    187,  0.419522285,  0.732185662
    188,  0.346698701,  0.962537587
    189,  0.150937438,  0.925404847
    190,  0.960929096,  0.385180205
    191,  0.307644039,  0.962381363
    192,  0.923684359,  0.154782429
    193,  0.960789382,  0.308589578
    194,  0.427567631,  0.615346909
    195,  0.960522354,  0.346643507
    196,  0.808728993,  0.466150016
    197,   0.55911088,   0.43266204
    198,  0.189396784,   0.92603308
    199,  0.426430851,  0.577560484
    200,  0.112862177,  0.924338639
    201,  0.228342965,  0.925938666
    202,  0.267643243,  0.925357342
    203,  0.921407402,  0.116520047
    204,  0.385439098,  0.962594151
    205,   0.92575711,  0.192988694
    206,  0.420706153,  0.771813214
    207,   0.42636162,  0.653365374
    208,  0.663287461,  0.440389544
    209,  0.424344599,  0.849605203
    210,  0.734406888,  0.438574314
    211,  0.422839284,  0.539044559
    212,   0.59220624,  0.435945123
    213, 0.0395976752,  0.801535726
    214,  0.879782379, 0.0391384959
    215, 0.0760926008,  0.638778865
    216,  0.312383622, 0.0765402168
    217,  0.395319104, 0.0790901482
    218,  0.479439914, 0.0774760991
    219, 0.0743607283,  0.479033113
    220,  0.232479483, 0.0756091699
    221,  0.117728911, 0.0380651355
    222,  0.157134682, 0.0378057659
    223, 0.0746865943,  0.598834455
    224, 0.0748993382,  0.277194917
    225, 0.0760508403,  0.116923593
    226, 0.0747420564,  0.236732066
    227, 0.0755067766,  0.398632497
    228,  0.798180044, 0.0733319446
    229, 0.0826735497,  0.762500584
    230,  0.718949616, 0.0702857226
    231,  0.561965525, 0.0724878386
    232,  0.521064579, 0.0746964663
    233,  0.437482089, 0.0794862881
    234, 0.0751236901,  0.884165406
    235,  0.353419304, 0.0777735785
    236, 0.0755694658,  0.358221501
    237,  0.602079809, 0.0714682266
    238,  0.073864311,  0.519062221
    239, 0.0739374757,  0.558984578
    240, 0.0750211254,  0.438773245
    241, 0.0752666816,  0.317622453
    242,  0.272146821, 0.0758344606
    243,  0.193285227, 0.0756570697
    244, 0.0748544335,  0.196547195
    245, 0.0752778947,  0.156583756
    246,  0.641389489, 0.0711617395
    247,  0.758011818, 0.0704947412
    248,  0.838241816, 0.0783476308
    249,  0.680208266, 0.0707281455
    250, 0.0784189329,  0.679288745
    251, 0.0812889263,  0.720783174
    252, 0.0750981718,  0.922976911
    253,  0.424537361,  0.924952507
    254,  0.920286059,  0.077942811
    255,  0.919748604,  0.308445841
    256,  0.347063839,   0.92540592
    257,  0.845968723,  0.428799927
    258,  0.919841111,  0.347028464
    259,  0.386344492,  0.545013309
    260,  0.392983794,  0.614799857
    261,  0.599471152,  0.404661953
    262,  0.564103067,  0.401163161
    263,  0.633750737,   0.40860492
    264,  0.386064738,  0.925314605
    265,  0.391240209,   0.57967329
    266,  0.386043072,  0.851363778
    267,  0.384172171,  0.813882887
    268,  0.379960984,  0.774507403
    269,  0.391532183,  0.650394082
    270,  0.667927802,  0.411558807
    271,  0.372173578,  0.730307639
    272,  0.732959092,  0.408450991
    273,    0.7007851,  0.411659002
    274,  0.385681212,  0.687586844
    275,  0.226101965,  0.890373945
    276,  0.187577635,  0.890592933
    277,  0.892553508,  0.230345085
    278,  0.889949739,  0.194625437
    279,  0.149827272,  0.889140487
    280,  0.884958982,  0.157340854
    281,  0.884120524,  0.426305473
    282,  0.807934105,   0.43192324
    283,  0.307323813,  0.925223351
    284,  0.488378346,  0.440324217
    285,  0.923949361,  0.270170718
    286,  0.386290669,  0.888242722
    287, 0.0764101669,  0.844810486
    288,  0.879305124, 0.0789182782
    289, 0.0770620629, 0.0774962008
    290,  0.154410139, 0.0759873241
    291,  0.112627335,  0.438213587
    292,  0.348948598,  0.115680121
    293,  0.392059535,  0.118671581
    294,  0.481445223,  0.115776539
    295,   0.52382046,  0.110196017
    296,  0.436969072,   0.12072023
    297,  0.111020036,   0.47843504
    298,  0.603727758,  0.106124565
    299,  0.564405918,  0.106655225
    300,  0.109987773,  0.518209517
    301,  0.110280529,  0.557674527
    302,  0.112596326,  0.154877827
    303,  0.111743852,  0.194428876
    304,  0.113839597,   0.39756164
    305,  0.111440368,  0.234370589
    306,  0.111733489,  0.274742514
    307,  0.307838202,  0.113889068
    308,  0.111795746,    0.5968014
    309,  0.642458439,  0.107066251
    310,  0.112592712,  0.315456182
    311,  0.113603845,  0.356566638
    312,  0.117470756,   0.67621249
    313,  0.122717373,   0.71819061
    314,  0.114269957,  0.636070848
    315,   0.75596565,  0.102963775
    316,  0.267903447,   0.11312791
    317,  0.228760466,  0.113108732
    318,  0.680850148,  0.106746882
    319,  0.718844414,  0.104665756
    320,   0.79310292,  0.105898298
    321,  0.115695693, 0.0765962377
    322, 0.0794501007,  0.804089427
    323, 0.0374518894,  0.921480179
    324,  0.921363056,  0.386121958
    325,  0.922603548,  0.424626827
    326,  0.347073346,  0.888735116
    327,  0.878190935,  0.348652601
    328,  0.872548819,  0.304882467
    329,  0.306681603,  0.888620377
    330,  0.186057389,  0.856518209
    331,  0.855121911,  0.199501604
    332,  0.804707766,  0.397408307
    333,  0.846785963,  0.163888529
    334,  0.149881572,   0.85346657
    335,  0.222200766,  0.856997669
    336,  0.331059039,  0.749178588
    337,  0.701324522,  0.383189172
    338,  0.339645743,  0.703364313
    339,   0.84294492,  0.392284781
    340,  0.345191211,  0.817473948
    341,  0.340358466,  0.781930804
    342,  0.575532138,  0.365808994
    343,  0.359640628,  0.613863468
    344,   0.60941422,  0.372209966
    345,  0.357355624,  0.582248688
    346,  0.358537406,  0.645275772
    347,  0.641480625,   0.37886104
    348,  0.672718287,    0.3839252
    349,  0.352784902,  0.675938189
    350,  0.767769754,  0.402978927
    351,  0.265718699,  0.888476074
    352,   0.52187258,  0.401707143
    353,  0.377843857,  0.510809302
    354,  0.889337957,  0.266250312
    355,  0.112494037,  0.886777043
    356,  0.879858017,  0.118680209
    357,  0.833099544,  0.122697048
    358,  0.923195302,  0.462553799
    359,  0.113609366,     0.848903
    360,  0.130692542,  0.764475286
    361,  0.113975696,  0.115537263
    362,  0.190183654,  0.113579161
    363,  0.302709252,  0.150489703
    364,  0.150593951,  0.438432992
    365,  0.153655022,  0.396464318
    366,   0.15614745,  0.670876443
    367,  0.721277177,  0.139309406
    368,   0.52900517,  0.143567547
    369,  0.487469405,  0.152782127
    370,   0.43742156,  0.167565718
    371,  0.386077791,  0.157431513
    372,  0.342951179,  0.152824104
    373,  0.146257401,  0.555683315
    374,  0.145593956,  0.517549813
    375,  0.567341208,  0.138482586
    376,  0.147296399,   0.47893995
    377,  0.682510912,  0.144785941
    378,  0.263615161,  0.149937689
    379,  0.756366253,  0.133488089
    380,  0.149952248,  0.153131172
    381,  0.148198873,  0.271474004
    382,  0.151930124,  0.354057997
    383,  0.162387207,  0.710013151
    384,  0.147909507,   0.23146446
    385,  0.148580328,  0.192047536
    386,  0.798774362,  0.148830771
    387,  0.149661452,  0.312147975
    388,  0.152469397,  0.632193208
    389,  0.642574966,  0.144567043
    390,  0.148960978,  0.593855381
    391,  0.604214728,  0.139566034
    392,  0.152004629,   0.11436829
    393,  0.117752954,  0.809552908
    394,  0.423873514,  0.962446332
    395, 0.0783649534, 0.0384636819
    396,  0.462393612,  0.414652795
    397,  0.865227461,   0.25756222
    398,   0.88178122,  0.388191789
    399,  0.306293875,  0.853493571
    400,  0.186122388,  0.823243022
    401,    0.7611534,  0.370493233
    402,  0.217084363,  0.827027202
    403,  0.811315358,  0.177286521
    404,  0.845118821,  0.272806674
    405,  0.302463919,  0.787996233
    406,  0.306487471,  0.820215344
    407,  0.837485373,  0.355387121
    408,  0.315289855,  0.721401036
    409,  0.327923596,  0.613109827
    410,  0.590448737,  0.331355155
    411,  0.327328265,  0.640171587
    412,  0.707582116,   0.34866327
    413,  0.622716904,   0.33920306
    414,  0.315853089,  0.686010301
    415,  0.671238065,   0.32237497
    416,  0.323481619,  0.665117562
    417,  0.727365375,   0.37910822
    418,  0.414836049,  0.499598593
    419,  0.262212574,  0.850209177
    420,  0.542422593,   0.35798189
    421,  0.351978034,  0.550884485
    422,  0.861092448,  0.231648311
    423,  0.174648583,  0.747040033
    424,  0.225304455,  0.150431037
    425,   0.29689461,  0.186988652
    426,  0.334803641,  0.190045714
    427,  0.187666088,  0.441845566
    428,  0.183657691,  0.481382638
    429,  0.180706471,  0.517359495
    430,  0.259418756,  0.186497882
    431,  0.197930142,  0.395827264
    432,  0.410634518,  0.207887083
    433,  0.373435169,  0.194927737
    434,  0.197278991,  0.701077282
    435,  0.466106027,  0.204221249
    436,  0.501841128,  0.188101575
    437,  0.181649074,  0.553399444
    438,  0.185369715,  0.189739406
    439,  0.764821351,  0.161836252
    440,  0.184158787,  0.228247806
    441,  0.189522713,  0.349260926
    442,  0.184193447,  0.267411292
    443,  0.538347721,  0.175743476
    444,  0.185805902,  0.307543933
    445,  0.687106192,  0.186791316
    446,  0.729020894,  0.172197968
    447,  0.185796797,  0.590099216
    448,  0.637833953,  0.186099127
    449,  0.570974648,  0.167046934
    450,  0.194361106,  0.665670335
    451,  0.600307703,  0.169714913
    452,  0.191416383,  0.627743661
    453,  0.187535152,  0.151520938
    454,  0.431544572,  0.444403201
    455,  0.158369884,  0.789885461
    456,  0.491241515,   0.38016507
    457,  0.398449928,  0.463175505
    458,  0.828412175,  0.319741875
    459,  0.831243038,  0.240948543
    460,  0.271395624,  0.819671392
    461,  0.216442764,   0.80285728
    462,  0.789301932,  0.329749137
    463,  0.813679576,  0.285964966
    464,  0.267628908,  0.791089952
    465,  0.294447005,  0.758118749
    466,  0.300826609,  0.699327767
    467,  0.297657967,  0.637167037
    468,  0.604163229,  0.297477901
    469,  0.690728545,  0.293842763
    470,  0.295226455,  0.680249989
    471,  0.637945652,  0.305860937
    472,  0.296109706,  0.659582734
    473,  0.346529812,  0.852796733
    474,   0.75108552,  0.339008212
    475,  0.245942771,  0.822569311
    476,  0.364980727,  0.477407247
    477,  0.324929565,  0.585124254
    478,  0.559857368,  0.323105216
    479,  0.152457014,  0.818815649
    480,  0.821535349,  0.209142983
    481,   0.40842998,  0.410835296
    482,  0.514043391,  0.344320655
    483,   0.21421428,  0.732455492
    484,  0.222360238,  0.187674597
    485,  0.326314032,  0.229490757
    486,  0.362571865,  0.227952927
    487,  0.290354043,  0.222885787
    488,  0.223061547,   0.48760736
    489,  0.232158482,  0.418179572
    490,  0.213341862,  0.519150436
    491,  0.392216504,  0.239940599
    492,  0.438502192,  0.230812058
    493,  0.235235468,  0.373511881
    494,  0.485846072,  0.233726561
    495,  0.220211893,  0.225099519
    496,  0.518809378,  0.223634273
    497,  0.225675821,  0.339453429
    498,  0.215157449,  0.550604701
    499,  0.221154675,  0.301676422
    500,  0.219598189,  0.263048917
    501,  0.673837006,   0.21786353
    502,  0.553323388,  0.205431521
    503,  0.743662894,  0.202423945
    504,   0.71353054,  0.218257263
    505,  0.583408415,  0.191281885
    506,  0.220942497,  0.584310651
    507,  0.232311606,   0.66612196
    508,  0.191607118,  0.784710288
    509,  0.437224656,  0.385968298
    510,  0.788910806,  0.220861807
    511,  0.777565479,  0.296315372
    512,  0.800190866,  0.252604842
    513,  0.386914998,  0.380344957
    514,  0.259562641,  0.762520373
    515,  0.277573317,   0.70575577
    516,  0.612353504,  0.261103511
    517,  0.267657518,  0.634305716
    518,  0.655261338,  0.265715152
    519,  0.272445351,  0.682022989
    520,  0.741632879,  0.305955887
    521,  0.298759013,  0.613596737
    522,  0.343735993,   0.51978296
    523,  0.573180497,  0.291962743
    524,  0.532464325,  0.311975181
    525,  0.223681346,    0.7013129
    526,  0.358917445,  0.251177013
    527,  0.308324486,  0.255195409
    528,  0.223235175,  0.449704021
    529,  0.260780543,  0.428630143
    530,  0.375731617,  0.265290529
    531,   0.23951602,  0.516129911
    532,  0.247599989,  0.397069573
    533,  0.461746246,  0.256042361
    534,  0.416451484,  0.259023339
    535,  0.258981168,  0.331092894
    536,  0.246258467,  0.544749558
    537,  0.503737986,  0.253084272
    538,  0.255749375,  0.222845569
    539,  0.255361885,  0.296330631
    540,  0.253780335,   0.25916484
    541,  0.645143747,  0.223155141
    542,  0.543249309,   0.24683702
    543,  0.263514161,  0.598905087
    544,  0.609058857,  0.219993204
    545,  0.571257532,  0.232729062
    546,  0.691125154,  0.242687136
    547,  0.731752336,   0.24005647
    548,  0.266928405,  0.659008086
    549,  0.225932598,  0.767767012
    550,  0.464155287,  0.356758505
    551,   0.37900719,  0.429629803
    552,  0.578962445,  0.261714846
    553,  0.765844703,  0.263263792
    554,  0.252066344,  0.733697653
    555,  0.776703477,  0.190304831
    556,  0.723305225,  0.269760936
    557,  0.318890333,  0.556812346
    558,   0.27554217,  0.615688205
    559,  0.547058761,  0.284428746
    560,   0.23852101,  0.795312881
    561,  0.252148986,  0.685753882
    562,  0.487325996,  0.326023489
    563,  0.339570254,  0.260442227
    564,  0.354971796,  0.284207612
    565,   0.27873528,  0.445920676
    566,  0.259272903,  0.480007797
    567,  0.279049337,  0.400496215
    568,  0.395554721,   0.28489536
    569,  0.278267115,  0.536436915
    570,   0.43944326,  0.281902879
    571,  0.297755003,   0.35487619
    572,  0.483743072,  0.277917266
    573,  0.287626833,  0.325118572
    574,  0.289348066,  0.293132246
    575,  0.524917543,  0.269945115
    576,  0.293877035,  0.589514375
    577,  0.556411684,  0.264007986
    578,  0.284813911,  0.256391734
    579,   0.41400069,  0.357970178
    580,  0.348800987,   0.44539693
    581,  0.757774115,  0.232182607
    582,  0.367168218,  0.352183104
    583,  0.332494259,   0.30060339
    584,  0.319293976,   0.45919022
    585,  0.302569151,  0.429887086
    586,  0.372946441,  0.307067484
    587,  0.300923139,  0.499315083
    588,  0.416863263,  0.307801008
    589,   0.31188494,  0.385094106
    590,  0.462635636,  0.304840863
    591,  0.309910864,  0.315768212
    592,  0.507165313,   0.29668197
    593,  0.439603567,  0.332167804
    594,  0.330394596,  0.414659977
    595,  0.392775744,  0.331512839
    596,  0.340609938,  0.369655848
    597,  0.318017513,  0.277070105
    598,  0.349276185,  0.325775266
    599,  0.324452996,  0.341933042
    600,  0.961625397,  0.461940765
    601,  0.532705903,  0.429666132
    602,  0.332754165,  0.489012957
    603,  0.359251678,  0.398481876
    604,  0.284933001,  0.730546951
    605,  0.310726404,  0.528104842
    606,   0.29007262,  0.471413463
    607,  0.783870697,  0.129278213
    608,  0.798230708,  0.363003939
    609,  0.250152856,  0.707113743
    610,  0.286396146,  0.563865364
    611,  0.269177228,  0.507921576
    612,   0.25451076,  0.452533036
    613,  0.653499842,  0.349032879
    614,  0.676817358,   0.36097759
    615,  0.268324852,    0.3645733
    616,  0.233024031,  0.622526944
    617,  0.253616214,  0.573544264
    618,  0.713708401,  0.316082299
*Element, type=CPE3
 1, 537, 494, 496
 2, 475, 460, 419
 3, 470, 414, 466
 4, 412, 417, 337
 5, 505, 449, 451
 6, 525, 483, 434
 7, 531, 490, 488
 8, 544, 448, 541
 9, 574, 591, 573
10, 529, 565, 612
*Element, type=CPE4
 11, 201, 131, 120, 198
 12, 120, 131,  97,  98
 13, 161, 289, 225, 160
 14, 145, 144,  42,  43
 15, 351, 329, 283, 202
 16, 131, 129,  96,  97
 17, 312, 366, 383, 313
 18,  83,  84, 136, 103
 19, 103, 104,  82,  83
 20, 104, 207, 194, 132
 21,  81,  82, 104, 132
 22, 139, 215, 250, 172
 23, 132, 105,  80,  81
 24,  79,  80, 105, 106
 25,  20,  21, 154, 153
 26,  21,  22, 155, 154
 27, 152, 151,  17,  18
 28, 244, 158, 159, 245
 29, 147, 146,  35,  36
 30, 159, 158,  26,  27
 31, 289, 161, 162, 395
 32, 161, 160,  28,  29
 33, 162, 161,  29,  30
 34,  31, 162,  30,   2
 35, 146, 222,  34,  35
 36,  36,  37, 148, 147
 37, 242, 216, 307, 316
 38, 140, 148,  37,  38
 39, 224, 226, 305, 306
 40,  39,  40, 142, 141
 41, 227, 236, 311, 304
 42,  40,  41, 143, 142
 43, 144, 143,  41,  42
 44, 249, 170, 169, 230
 45,  75,  76, 111, 107
 46, 195, 258, 255, 193
 47, 332, 339, 257, 282
 48, 125,  59,  60, 130
 49, 166, 165,  49,  50
 50,  59, 125, 126,  58
 51, 168, 248, 228, 166
 52, 176,  55,  56, 128
 53,  54, 176, 167,  53
 54,  54,   3,  55, 176
 55,  57, 127, 128,  56
 56, 125, 130, 185, 205
 57,  52, 214, 168,  51
 58, 177,  61,  62, 193
 59, 109, 133,  72,  73
 60, 109, 210, 186, 133
 61,  71,  72, 133, 196
 62, 134, 281, 325, 358
 63,  68,  69, 134, 358
 64,  67,  68, 358, 600
 65,  66, 600, 108,  65
 66,   4,  67, 600,  66
 67,  70,  71, 196, 178
 68, 177, 193, 255, 285
 69, 208, 107, 111, 181
 70, 110, 109,  73,  74
 71, 107, 110,  74,  75
 72, 164, 171,  45,  46
 73,  76,  77, 112, 111
 74,  77,  78, 113, 112
 75, 149, 145,  43,  44
 76, 103, 184, 207, 104
 77, 136, 187, 184, 103
 78,  84,  85, 114, 136
 79,  86,  87, 116, 115
 80, 115, 114,  85,  86
 81,  93,  94, 188, 204
 82, 118, 117,  88,  89
 83, 119, 118,  89,  90
 84,  91, 119,  90,   6
 85, 198, 120, 121, 189
 86, 200, 122, 123, 252
 87,  98,  99, 121, 120
 88, 150, 173,  12,  13
 89,  99, 100, 122, 121
 90, 473, 326, 329, 399
 91, 349, 338, 414, 416
 92, 123, 122, 100, 101
 93, 124, 123, 101, 102
 94,   7, 124, 102,   1
 95, 137, 139,  15,  16
 96,  18,  19, 138, 152
 97, 153, 138,  19,  20
 98,   5,  79, 106, 179
 99, 107, 208, 182, 110
100,  65, 108, 190,  64
101,  78,   5, 135, 113
102, 298, 299, 231, 237
103, 391, 298, 309, 389
104, 241, 224, 306, 310
105, 116, 209, 183, 115
106,  87,  88, 117, 116
107, 129, 191,  95,  96
108, 188, 256, 264, 204
109, 326, 286, 264, 256
110,  91,  92, 394, 119
111,  13,  14, 172, 150
112,  11,  12, 173, 213
113,   9,  10, 174, 175
114, 174, 287, 234, 175
115,   7,   8, 323, 124
116,  50,  51, 168, 166
117, 130,  60,  61, 177
118, 167, 214,  52,  53
119,  58, 126, 127,  57
120, 205, 192, 126, 125
121, 176, 128, 254, 167
122, 117, 180, 209, 116
123, 193,  62,  63, 195
124, 110, 182, 210, 109
125, 239, 151, 152, 238
126, 268, 206, 183, 267
127, 178, 257, 281, 134
128,  69,  70, 178, 134
129, 141, 140,  38,  39
130,  14,  15, 139, 172
131,  16,  17, 151, 137
132, 199, 105, 132, 194
133, 217, 142, 143, 233
134, 217, 233, 296, 293
135, 218, 144, 145, 232
136,  44,  45, 171, 149
137, 295, 294, 218, 232
138,  27,  28, 160, 159
139, 157, 156,  23,  24
140, 155, 236, 227, 154
141, 226, 163, 158, 244
142,  46,  47, 170, 164
143, 246, 164, 170, 249
144, 229, 173, 150, 251
145, 239, 238, 300, 301
146, 138, 219, 238, 152
147,  22,  23, 156, 155
148, 238, 219, 297, 300
149, 241, 156, 157, 224
150,  24,  25, 163, 157
151, 140, 216, 242, 148
152,  25,  26, 158, 163
153, 148, 242, 220, 147
154, 220, 243, 146, 147
155, 160, 225, 245, 159
156, 243, 290, 222, 146
157, 289, 395, 221, 321
158,  31,  32, 395, 162
159,  32,  33, 221, 395
160, 165, 169,  48,  49
161, 192, 203, 127, 126
162, 607, 379, 315, 320
163, 247, 165, 166, 228
164,  47,  48, 169, 170
165, 113, 135, 601, 197
166, 300, 374, 373, 301
167, 172, 250, 251, 150
168, 122, 200, 189, 121
169, 175, 234, 252, 323
170, 213, 174,  10,  11
171,   9, 175, 323,   8
172, 203, 254, 128, 127
173, 458, 407, 608, 462
174, 282, 196, 133, 186
175, 135,   5, 179, 284
176, 211, 106, 105, 199
177, 180, 117, 118, 253
178, 253, 118, 119, 394
179, 181, 111, 112, 212
180, 212, 112, 113, 197
181, 182, 208, 270, 273
182, 115, 183, 206, 114
183, 187, 136, 114, 206
184, 185, 277, 278, 205
185, 130, 177, 285, 185
186, 210, 182, 273, 272
187, 198, 189, 279, 276
188,  94,  95, 191, 188
189, 202, 129, 131, 201
190, 256, 188, 191, 283
191, 195,  63,  64, 190
192, 327, 398, 339, 407
193, 231, 149, 171, 237
194, 276, 275, 201, 198
195, 291, 297, 219, 240
196, 252, 123, 124, 323
197, 411, 409, 343, 346
198, 329, 326, 256, 283
199, 129, 202, 283, 191
200, 254, 203, 356, 288
201, 253, 394, 204, 264
202,  93, 204, 394,  92
203, 379, 367, 319, 315
204, 267, 183, 209, 266
205, 215, 223, 308, 314
206, 274, 184, 187, 271
207, 246, 249, 318, 309
208, 180, 286, 266, 209
209, 165, 247, 230, 169
210, 353, 418, 211, 259
211, 173, 229, 322, 213
212, 214, 167, 254, 288
213, 215, 139, 137, 223
214, 223, 137, 151, 239
215, 216, 140, 141, 235
216, 235, 141, 142, 217
217, 233, 143, 144, 218
218, 197, 601, 352, 262
219, 232, 145, 149, 231
220, 296, 370, 371, 293
221, 219, 138, 153, 240
222, 240, 153, 154, 227
223, 222, 221,  33,  34
224, 362, 392, 290, 243
225, 317, 362, 243, 220
226, 260, 194, 207, 269
227, 224, 157, 163, 226
228, 316, 307, 363, 378
229, 428, 376, 364, 427
230, 236, 155, 156, 241
231, 249, 230, 319, 318
232, 237, 171, 164, 246
233, 262, 261, 212, 197
234, 252, 234, 355, 200
235, 287, 174, 213, 322
236, 304, 291, 240, 227
237, 309, 298, 237, 246
238, 488, 428, 427, 528
239, 308, 390, 388, 314
240, 244, 303, 305, 226
241, 292, 307, 216, 235
242, 305, 384, 381, 306
243, 289, 321, 361, 225
244, 302, 245, 225, 361
245, 261, 263, 181, 212
246, 320, 315, 247, 228
247, 214, 288, 248, 168
248, 278, 280, 192, 205
249, 377, 318, 319, 367
250, 208, 181, 263, 270
251, 223, 239, 301, 308
252, 253, 264, 286, 180
253, 257, 178, 196, 282
254, 407, 339, 332, 608
255, 195, 190, 324, 258
256, 259, 211, 199, 265
257, 265, 199, 194, 260
258, 269, 207, 184, 274
259, 373, 437, 447, 390
260, 284, 352, 601, 135
261, 232, 231, 299, 295
262, 342, 344, 261, 262
263, 202, 201, 275, 351
264, 271, 187, 206, 268
265, 314, 312, 250, 215
266, 473, 399, 406, 340
267, 341, 268, 267, 340
268, 458, 328, 327, 407
269, 186, 210, 272, 350
270, 614, 613, 415, 412
271, 279, 334, 330, 276
272, 312, 313, 251, 250
273, 230, 247, 315, 319
274, 185, 285, 354, 277
275, 279, 189, 200, 355
276, 359, 393, 479, 334
277, 331, 278, 277, 422
278, 355, 234, 287, 359
279, 356, 357, 248, 288
280, 203, 192, 280, 356
281, 325, 281, 398, 324
282, 382, 311, 310, 387
283, 293, 292, 235, 217
284, 423, 508, 455, 360
285, 222, 290, 321, 221
286, 321, 290, 392, 361
287, 233, 218, 294, 296
288, 436, 369, 368, 443
289, 262, 352, 420, 342
290, 369, 294, 295, 368
291, 343, 345, 265, 260
292, 299, 375, 368, 295
293, 342, 420, 478, 410
294, 390, 308, 301, 373
295, 269, 274, 349, 346
296, 220, 242, 316, 317
297, 244, 245, 302, 303
298, 372, 363, 307, 292
299, 387, 310, 306, 381
300, 454, 179, 418, 457
301, 236, 241, 310, 311
302, 292, 293, 371, 372
303, 274, 271, 338, 349
304, 304, 365, 364, 291
305, 493, 431, 441, 497
306, 330, 400, 402, 335
307, 229, 251, 313, 360
308, 346, 343, 260, 269
309, 508, 400, 479, 455
310, 404, 328, 458, 463
311, 320, 228, 248, 357
312, 333, 403, 386, 357
313, 302, 361, 392, 380
314, 378, 424, 317, 316
315, 263, 261, 344, 347
316, 379, 439, 446, 367
317, 278, 331, 333, 280
318, 324, 190, 108, 325
319, 358, 325, 108, 600
320, 266, 286, 326, 473
321, 327, 258, 324, 398
322, 328, 404, 397, 354
323, 255, 328, 354, 285
324, 351, 419, 399, 329
325, 276, 330, 335, 275
326, 422, 277, 354, 397
327, 272, 273, 337, 417
328, 350, 332, 282, 186
329, 255, 258, 327, 328
330, 356, 280, 333, 357
331, 279, 355, 359, 334
332, 341, 340, 406, 405
333, 338, 271, 336, 408
334, 336, 271, 268, 341
335, 273, 270, 348, 337
336, 367, 446, 445, 377
337, 390, 447, 452, 388
338, 281, 257, 339, 398
339, 340, 267, 266, 473
340, 389, 309, 318, 377
341, 270, 263, 347, 348
342, 291, 364, 376, 297
343, 259, 265, 345, 421
344, 347, 344, 413, 613
345, 405, 465, 336, 341
346, 275, 335, 419, 351
347, 426, 425, 363, 372
348, 457, 418, 353, 476
349, 287, 322, 393, 359
350, 322, 229, 360, 393
351, 313, 383, 423, 360
352, 365, 431, 427, 364
353, 384, 305, 303, 385
354, 363, 425, 430, 378
355, 365, 304, 311, 382
356, 481, 454, 457, 551
357, 366, 312, 314, 388
358, 375, 299, 298, 391
359, 284, 396, 456, 352
360, 369, 370, 296, 294
361, 486, 485, 426, 433
362, 530, 526, 486, 491
363, 374, 300, 297, 376
364, 409, 477, 345, 343
365, 451, 391, 389, 448
366, 446, 503, 504, 445
367, 410, 413, 344, 342
368, 385, 303, 302, 380
369, 607, 386, 439, 379
370, 438, 453, 424, 484
371, 441, 382, 387, 444
372, 464, 405, 406, 460
373, 425, 426, 485, 487
374, 380, 453, 438, 385
375, 438, 484, 495, 440
376, 320, 357, 386, 607
377, 403, 333, 331, 480
378, 384, 440, 442, 381
379, 372, 371, 433, 426
380, 346, 349, 416, 411
381, 469, 415, 471, 518
382, 374, 429, 437, 373
383, 388, 452, 450, 366
384, 392, 362, 453, 380
385, 396, 284, 179, 454
386, 332, 350, 401, 608
387, 459, 422, 397, 404
388, 400, 330, 334, 479
389, 417, 401, 350, 272
390, 474, 520, 511, 462
391, 464, 514, 465, 405
392, 480, 331, 422, 459
393, 439, 386, 403, 555
394, 460, 406, 399, 419
395, 466, 408, 604, 515
396, 414, 338, 408, 466
397, 470, 472, 416, 414
398, 337, 348, 614, 412
399, 348, 347, 613, 614
400, 391, 451, 449, 375
401, 377, 445, 448, 389
402, 468, 471, 413, 410
403, 417, 412, 474, 401
404, 418, 179, 106, 211
405, 335, 402, 475, 419
406, 432, 370, 435, 492
407, 353, 259, 421, 522
408, 434, 483, 423, 383
409, 362, 317, 424, 453
410, 430, 484, 424, 378
411, 371, 370, 432, 433
412, 476, 580, 551, 457
413, 431, 365, 382, 441
414, 528, 612, 566, 488
415, 376, 428, 429, 374
416, 488, 490, 429, 428
417, 385, 438, 440, 384
418, 444, 387, 381, 442
419, 433, 432, 491, 486
420, 435, 370, 369, 436
421, 491, 432, 492, 534
422, 434, 383, 366, 450
423, 420, 482, 524, 478
424, 443, 368, 375, 449
425, 436, 496, 494, 435
426, 602, 584, 580, 476
427, 510, 480, 459, 512
428, 539, 535, 497, 499
429, 442, 500, 499, 444
430, 537, 496, 542, 575
431, 444, 499, 497, 441
432, 503, 555, 510, 581
433, 547, 581, 553, 556
434, 506, 447, 437, 498
435, 505, 451, 448, 544
436, 443, 502, 496, 436
437, 516, 518, 471, 468
438, 541, 448, 445, 501
439, 498, 437, 429, 490
440, 558, 517, 616, 543
441, 360, 455, 479, 393
442, 352, 456, 482, 420
443, 396, 454, 481, 509
444, 489, 528, 427, 431
445, 555, 403, 480, 510
446, 549, 560, 461, 508
447, 402, 400, 508, 461
448, 483, 549, 508, 423
449, 401, 474, 462, 608
450, 512, 553, 581, 510
451, 458, 462, 511, 463
452, 336, 465, 604, 408
453, 409, 411, 467, 521
454, 411, 416, 472, 467
455, 410, 478, 523, 468
456, 415, 469, 618, 412
457, 413, 471, 415, 613
458, 460, 475, 560, 464
459, 519, 470, 466, 515
460, 516, 544, 541, 518
461, 452, 616, 507, 450
462, 520, 618, 469, 556
463, 560, 475, 402, 461
464, 477, 557, 421, 345
465, 529, 489, 532, 567
466, 456, 396, 509, 550
467, 435, 494, 533, 492
468, 507, 525, 434, 450
469, 487, 538, 430, 425
470, 489, 431, 493, 532
471, 564, 530, 568, 586
472, 440, 495, 500, 442
473, 584, 606, 565, 585
474, 531, 536, 498, 490
475, 595, 582, 598, 586
476, 586, 568, 588, 595
477, 533, 494, 537, 572
478, 484, 430, 538, 495
479, 502, 443, 449, 505
480, 575, 542, 577, 559
481, 526, 563, 485, 486
482, 506, 617, 543, 616
483, 615, 567, 532, 493
484, 500, 495, 538, 540
485, 539, 499, 500, 540
486, 505, 544, 545, 502
487, 503, 446, 439, 555
488, 511, 553, 512, 463
489, 552, 516, 468, 523
490, 547, 556, 546, 504
491, 501, 445, 504, 546
492, 552, 545, 544, 516
493, 517, 548, 507, 616
494, 447, 506, 616, 452
495, 472, 548, 517, 467
496, 509, 481, 513, 579
497, 512, 459, 404, 463
498, 535, 615, 493, 497
499, 549, 483, 554, 514
500, 514, 554, 604, 465
501, 519, 548, 472, 470
502, 577, 552, 523, 559
503, 541, 501, 546, 518
504, 609, 561, 519, 515
505, 618, 520, 474, 412
506, 546, 556, 469, 518
507, 483, 525, 609, 554
508, 477, 409, 521, 576
509, 476, 353, 522, 602
510, 478, 524, 559, 523
511, 568, 534, 570, 588
512, 548, 519, 561, 507
513, 487, 485, 527, 578
514, 528, 489, 529, 612
515, 522, 605, 587, 602
516, 567, 585, 565, 529
517, 564, 563, 526, 530
518, 536, 531, 611, 569
519, 535, 573, 571, 615
520, 550, 562, 482, 456
521, 530, 491, 534, 568
522, 534, 492, 533, 570
523, 527, 485, 563, 597
524, 543, 617, 610, 576
525, 542, 496, 502, 545
526, 592, 575, 559, 524
527, 539, 574, 573, 535
528, 578, 540, 538, 487
529, 467, 517, 558, 521
530, 577, 542, 545, 552
531, 547, 504, 503, 581
532, 513, 481, 551, 603
533, 553, 511, 520, 556
534, 515, 604, 554, 609
535, 560, 549, 514, 464
536, 522, 421, 557, 605
537, 557, 477, 576, 610
538, 558, 543, 576, 521
539, 592, 562, 590, 572
540, 507, 561, 609, 525
541, 570, 533, 572, 590
542, 524, 482, 562, 592
543, 585, 567, 589, 594
544, 583, 564, 586, 598
545, 569, 611, 587, 605
546, 531, 488, 566, 611
547, 615, 571, 589, 567
548, 594, 589, 596, 603
549, 593, 590, 562, 550
550, 593, 579, 595, 588
551, 572, 537, 575, 592
552, 574, 539, 540, 578
553, 599, 591, 583, 598
554, 597, 574, 578, 527
555, 550, 509, 579, 593
556, 579, 513, 582, 595
557, 584, 602, 587, 606
558, 591, 599, 571, 573
559, 597, 583, 591, 574
560, 563, 564, 583, 597
561, 584, 585, 594, 580
562, 603, 596, 582, 513
563, 566, 606, 587, 611
564, 588, 570, 590, 593
565, 580, 594, 603, 551
566, 599, 598, 582, 596
567, 599, 596, 589, 571
568, 605, 557, 610, 569
569, 565, 606, 566, 612
570, 569, 610, 617, 536
571, 506, 498, 536, 617
*Nset, nset=ALL_FACES, generate
   1,  618,    1
*Elset, elset=ALL_FACES, generate
   1,  571,    1
** Section: PanelSec
*Solid Section, elset=ALL_FACES, material=Steel
1.,
*End Part
**  
**
** ASSEMBLY
**
*Assembly, name=Assembly
**  
*Instance, name=LPANEL-1, part=LPANEL
*End Instance
**  
*Nset, nset=BOTTOM, instance=LPANEL-1
  2,  3, 31, 32, 33, 34, 35, 36, 37, 38, 39, 40, 41, 42, 43, 44
 45, 46, 47, 48, 49, 50, 51, 52, 53, 54
*Elset, elset=BOTTOM, instance=LPANEL-1
  14,  29,  34,  35,  36,  38,  40,  42,  43,  49,  53,  54,  57,  72,  75, 116
 118, 129, 136, 142, 158, 159, 160, 164, 223
*Nset, nset=TOP, instance=LPANEL-1
   1,   6,  91,  92,  93,  94,  95,  96,  97,  98,  99, 100, 101, 102
*Elset, elset=TOP, instance=LPANEL-1
  12,  16,  81,  84,  87,  89,  92,  93,  94, 107, 110, 188, 202
*End Assembly
** 
** MATERIALS
** 
*Material, name=Steel
*Elastic
210000., 0.3
** ----------------------------------------------------------------
** 
** STEP: Step-1
** 
*Step, name=Step-1, nlgeom=NO
*Static
1., 1., 1e-05, 1.
** 
** BOUNDARY CONDITIONS
** 
** Name: FIX_BOTTOM Type: Displacement/Rotation
*Boundary
BOTTOM, 1, 1
BOTTOM, 2, 2
** Name: PULL_TOP Type: Displacement/Rotation
*Boundary
TOP, 1, 1
TOP, 2, 2, 0.001
** 
** OUTPUT REQUESTS
** 
*Restart, write, frequency=0
** 
** FIELD OUTPUT: F-Output-1
** 
*Output, field
*Node Output, nset=LPANEL-1.ALL_FACES
RF, U
*Element Output, elset=LPANEL-1.ALL_FACES, directions=YES
EVOL, MISESAVG, MISESERI, S
** 
** HISTORY OUTPUT: H-Output-1
** 
*Output, history, variable=PRESELECT
*End Step
