*Heading
 Coarse Plate with Hole Solve
** Job name: JOB_PLATE_HOLE_COARSE Model name: PLATE_WITH_HOLE_MODEL
** Generated by: Abaqus/CAE 2023
*Preprint, echo=NO, model=NO, history=NO, contact=NO
**
** PARTS
**
*Part, name=PLATE
*Node
      1,  0.592387974,  0.538268328
      2,  0.570710659,  0.570710659
      3,  0.538268328,  0.592387974
      4,  0.461731642,  0.592387974
      5,  0.429289311,  0.570710659
      6,  0.407612056,  0.538268328
      7,  0.400000006,          0.5
      8,  0.407612056,  0.461731642
      9,  0.429289311,  0.429289311
     10,  0.461731642,  0.407612056
     11,  0.538268328,  0.407612056
     12,  0.570710659,  0.429289311
     13,  0.592387974,  0.461731642
     14,  0.600000024,          0.5
     15,           1.,           0.
     16,           0.,           0.
     17,           1.,           1.
     18,           0.,           1.
     19,          0.5,  0.600000024
     20,          0.5,  0.400000006
     21,  0.959999979,           0.
     22,  0.920000017,           0.
     23,  0.879999995,           0.
     24,  0.839999974,           0.
     25,  0.800000012,           0.
     26,   0.75999999,           0.
     27,  0.720000029,           0.
     28,  0.680000007,           0.
     29,  0.639999986,           0.
     30,  0.600000024,           0.
     31,  0.560000002,           0.
     32,  0.519999981,           0.
     33,  0.479999989,           0.
     34,  0.439999998,           0.
     35,  0.400000006,           0.
     36,  0.360000014,           0.
     37,  0.319999993,           0.
     38,  0.280000001,           0.
     39,  0.239999995,           0.
     40,  0.200000003,           0.
     41,  0.159999996,           0.
     42,  0.119999997,           0.
     43, 0.0799999982,           0.
     44, 0.0399999991,           0.
     45,           1.,  0.959999979
     46,           1.,  0.920000017
     47,           1.,  0.879999995
     48,           1.,  0.839999974
     49,           1.,  0.800000012
     50,           1.,   0.75999999
     51,           1.,  0.720000029
     52,           1.,  0.680000007
     53,           1.,  0.639999986
     54,           1.,  0.600000024
     55,           1.,  0.560000002
     56,           1.,  0.519999981
     57,           1.,  0.479999989
     58,           1.,  0.439999998
     59,           1.,  0.400000006
     60,           1.,  0.360000014
     61,           1.,  0.319999993
     62,           1.,  0.280000001
     63,           1.,  0.239999995
     64,           1.,  0.200000003
     65,           1.,  0.159999996
     66,           1.,  0.119999997
     67,           1., 0.0799999982
     68,           1., 0.0399999991
     69, 0.0399999991,           1.
     70, 0.0799999982,           1.
     71,  0.119999997,           1.
     72,  0.159999996,           1.
     73,  0.200000003,           1.
     74,  0.239999995,           1.
     75,  0.280000001,           1.
     76,  0.319999993,           1.
     77,  0.360000014,           1.
     78,  0.400000006,           1.
     79,  0.439999998,           1.
     80,  0.479999989,           1.
     81,  0.519999981,           1.
     82,  0.560000002,           1.
     83,  0.600000024,           1.
     84,  0.639999986,           1.
     85,  0.680000007,           1.
     86,  0.720000029,           1.
     87,   0.75999999,           1.
     88,  0.800000012,           1.
     89,  0.839999974,           1.
     90,  0.879999995,           1.
     91,  0.920000017,           1.
     92,  0.959999979,           1.
     93,           0., 0.0399999991
     94,           0., 0.0799999982
     95,           0.,  0.119999997
     96,           0.,  0.159999996
     97,           0.,  0.200000003
     98,           0.,  0.239999995
     99,           0.,  0.280000001
    100,           0.,  0.319999993
    101,           0.,  0.360000014
    102,           0.,  0.400000006
    103,           0.,  0.439999998
    104,           0.,  0.479999989
    105,           0.,  0.519999981
    106,           0.,  0.560000002
    107,           0.,  0.600000024
    108,           0.,  0.639999986
    109,           0.,  0.680000007
    110,           0.,  0.720000029
    111,           0.,   0.75999999
    112,           0.,  0.800000012
    113,           0.,  0.839999974
    114,           0.,  0.879999995
    115,           0.,  0.920000017
    116,           0.,  0.959999979
    117,  0.572644532,  0.626411915
    118,  0.578809738,  0.381642133
    119,  0.376031101,  0.575375676
    120,  0.358433396,  0.464989603
    121,   0.46575284,  0.636102021
    122,  0.473316282,  0.355695277
    123,  0.358132601,  0.528851449
    124,  0.525013149,  0.641446054
    125,  0.380338788,  0.419491798
    126,  0.421295077,  0.620055079
    127,  0.427107841,  0.374459296
    128,   0.61964035,   0.58240664
    129,   0.62267828,  0.426189572
    130,  0.535398781,   0.35849449
    131,  0.642675817,  0.536368906
    132,  0.643773973,  0.471124709
    133,  0.801704824, 0.0375767127
    134,  0.721550107, 0.0373258963
    135,  0.600958467, 0.0371063948
    136,    0.5604496, 0.0377913341
    137,  0.961917222,  0.760458589
    138,  0.962367892,  0.679743826
    139,  0.961499691,  0.556901217
    140,  0.961352944,  0.516483426
    141,  0.319316149,  0.961666644
    142,  0.359285802,  0.962062418
    143,  0.399702251,  0.961987495
    144,  0.440307975,  0.961473227
    145,  0.481300563,  0.960610569
    146,  0.522642195,  0.959643722
    147, 0.0367523991,  0.322960734
    148, 0.0359744653,  0.363245815
    149, 0.0356863774,  0.403287381
    150, 0.0360488705,   0.44351092
    151, 0.0371940359,  0.483979732
    152, 0.0387459993,  0.524545312
    153,  0.199015722,  0.959849775
    154,  0.239064291,  0.960236788
    155,  0.279245466,  0.960902929
    156, 0.0395263769,  0.200896993
    157, 0.0388604626,  0.241630629
    158, 0.0378108844,  0.282489508
    159,  0.881559134, 0.0380145684
    160,  0.841686726, 0.0377509594
    161,  0.761656165, 0.0374673232
    162,  0.681440949, 0.0370756164
    163,  0.641280949, 0.0369081907
    164,  0.519754827, 0.0389960781
    165,  0.478724837, 0.0400199816
    166,  0.437666625,  0.039892517
    167,  0.396932751, 0.0383794606
    168,   0.35631603, 0.0367855802
    169,  0.316671103,  0.036186222
    170,  0.277414054, 0.0364533626
    171,  0.237841487, 0.0370372944
    172,  0.198079035,  0.037616808
    173,  0.158429012, 0.0381440036
    174,  0.118818842, 0.0386121161
    175,   0.96136868,  0.881162882
    176,  0.961438596,   0.84089458
    177,  0.961557329,  0.800700843
    178,  0.962129712,  0.720246434
    179,  0.962386787,  0.638918281
    180,  0.962020695,  0.597898602
    181,  0.962194741,  0.476245165
    182,  0.963012516,  0.436189145
    183,  0.963430166,  0.396449059
    184,  0.963347495,  0.356800467
    185,  0.963112891,  0.316910535
    186,  0.962804556,   0.27698949
    187,  0.962430179,   0.23715581
    188,  0.962100267,   0.19735907
    189,  0.961891174,  0.157637835
    190,  0.961681724,  0.118020192
    191,  0.961355448, 0.0784942731
    192,  0.960851073, 0.0390537158
    193,  0.563930452,  0.959551275
    194,  0.604848921,   0.96079123
    195,  0.645535529,  0.962399602
    196,  0.685692906,  0.963592768
    197,  0.725269377,  0.964063406
    198,  0.764580846,  0.963916957
    199,  0.803855836,  0.963486314
    200,  0.843055129,  0.962944746
    201,  0.882222474,   0.96231246
    202,  0.921475351,  0.961626172
    203,  0.960823774,  0.960886776
    204, 0.0395082124,  0.565068066
    205, 0.0384533554,  0.605115771
    206, 0.0365682803,  0.645290613
    207, 0.0348630287,  0.685068011
    208, 0.0338749774,  0.724518418
    209, 0.0339499265,  0.763723612
    210, 0.0349135697,  0.802775681
    211, 0.0362426937,  0.841860294
    212, 0.0375168249,  0.881171107
    213, 0.0385368615,  0.920713782
    214, 0.0393163413,  0.960403562
    215, 0.0398132168,  0.160359591
    216,  0.159096375,  0.959816039
    217,  0.561619461, 0.0747497082
    218,  0.923786342,  0.554385841
    219,  0.921296179, 0.0384721495
    220,   0.96122545,  0.921215951
    221,   0.31888178,  0.923303068
    222, 0.0725700706,  0.327059627
    223,  0.398867011,  0.924595475
    224,  0.481461853,  0.922323167
    225, 0.0702705607,  0.406694025
    226, 0.0729370862,  0.486624211
    227,  0.763201237, 0.0748570189
    228,  0.722943068, 0.0743674338
    229,  0.923729718,  0.760838747
    230,  0.924467862,  0.720354319
    231, 0.0773634389,   0.24437286
    232,   0.23831223,   0.92017138
    233, 0.0395337977, 0.0794578716
    234, 0.0790467262,  0.960348487
    235,  0.119044282,  0.960034251
    236, 0.0397760309,  0.119839333
    237,  0.926562965,  0.353731632
    238, 0.0792363435,  0.039072223
    239,  0.434886396,  0.080046095
    240,  0.352451831, 0.0723254308
    241,  0.807041824,  0.926402926
    242,  0.926310122,  0.313898414
    243,  0.924066842,  0.195069417
    244, 0.0759820938,  0.881218433
    245, 0.0686412975,  0.691004992
    246,  0.439781994,  0.923679888
    247,  0.651871502,  0.926100791
    248,  0.691630602,  0.928162694
    249,  0.118426561, 0.0781445578
    250, 0.0706384331,  0.446372122
    251, 0.0720264241,  0.652101338
    252,  0.080158025,  0.570557117
    253,  0.568349123,  0.918897927
    254,  0.314027578, 0.0721966699
    255,  0.926263452,  0.431964725
    256,  0.602174461, 0.0734006837
    257,  0.520077884, 0.0772330239
    258,  0.925613344,  0.596399188
    259,  0.922124803,  0.512795985
    260,  0.358296156,  0.924457014
    261,  0.524507582,  0.919797242
    262, 0.0709619299,  0.367217243
    263, 0.0770456567,  0.527876854
    264,  0.278953403,  0.921711147
    265, 0.0748176128,  0.286237717
    266,   0.92491281,  0.234685302
    267,   0.68269062,  0.073681049
    268,  0.642461479, 0.0732041076
    269,   0.47791785, 0.0795905218
    270,  0.393171668, 0.0757192001
    271, 0.0794578269,  0.202620298
    272,  0.275939345, 0.0733670443
    273,  0.236716419, 0.0745921284
    274,  0.197060719, 0.0758876503
    275,  0.157733947, 0.0771851763
    276,  0.768513322,  0.927655876
    277,  0.925514519,  0.679367483
    278,  0.926147819,  0.637927532
    279,  0.924793065,  0.471829802
    280,  0.926809311,  0.392874807
    281,  0.803295135, 0.0752317682
    282,  0.925757766,  0.274182409
    283,  0.843185663, 0.0756798089
    284,   0.88283062, 0.0763737112
    285,  0.923500359,  0.155570969
    286,  0.922958851,   0.11634817
    287,  0.610798836,  0.922435284
    288,  0.922846973,  0.801408052
    289,  0.730207503,  0.928514421
    290,  0.922779679,  0.841930747
    291,  0.922767699,  0.882485449
    292,  0.845447183,  0.925073147
    293,  0.883781493,  0.923743546
    294, 0.0767066181,  0.611744523
    295,   0.19794178,  0.918975174
    296, 0.0668360665,  0.728984833
    297, 0.0675720945,  0.766543269
    298, 0.0702793002,  0.804227054
    299, 0.0733945966,  0.842358589
    300, 0.0777938217,  0.920625091
    301,  0.922251403, 0.0773320794
    302,  0.922364414,  0.922457993
    303, 0.0799269676,  0.161058769
    304,  0.157991961,  0.919118583
    305, 0.0791202486, 0.0789506063
    306,  0.103815593,  0.410540521
    307,  0.480124384,  0.885555029
    308,  0.438663274,  0.886469901
    309,  0.105972327,  0.487216473
    310,  0.397503346,  0.887903273
    311,  0.103517599,  0.448606491
    312,  0.878549278,  0.509011447
    313,  0.521696448,  0.114102885
    314,   0.52408725,  0.880849183
    315,  0.113362662,  0.527266264
    316,  0.889438152,  0.465892553
    317,  0.887852132,  0.554299414
    318,  0.562809229,  0.110195592
    319,  0.573829353,  0.874560833
    320,  0.126018748,  0.576127887
    321,  0.105192669,  0.372085661
    322,  0.889612496,  0.427600503
    323,  0.478666663,  0.119118854
    324,  0.107452713,  0.332582325
    325,  0.357323885,   0.88756603
    326,  0.319014996,  0.884210348
    327,  0.430387139,  0.123975649
    328,   0.89114356,  0.595898271
    329,   0.60313338,  0.108701296
    330,   0.88479054,   0.15393655
    331,  0.846702397,  0.886483788
    332,  0.158138409,  0.117407382
    333,  0.111745827,  0.840879917
    334,  0.643132091,  0.108856581
    335,  0.889738977,  0.678265095
    336,  0.891627789,  0.636746705
    337,  0.197198167,  0.114698067
    338,  0.105745755,  0.803157389
    339,    0.8444978,  0.113942139
    340,   0.88395375,  0.843471527
    341,  0.804705977,  0.113216273
    342,  0.885796845,  0.193305358
    343,  0.808851063,  0.889353931
    344,  0.236820251,  0.112331316
    345, 0.0998735428,  0.767289042
    346,  0.887102425,  0.232642889
    347,  0.771213412,  0.891399622
    348,  0.888594151,  0.271613568
    349,  0.734262407,  0.893455148
    350,  0.276332855,   0.11107973
    351, 0.0981058553,  0.732957125
    352,  0.114224419,  0.621478677
    353,  0.890398383,   0.38957569
    354,  0.619489789,  0.885207713
    355,  0.386844963,  0.111122258
    356,  0.110785633,  0.291804522
    357,  0.279294044,  0.882549226
    358,  0.683436573,  0.109957024
    359,  0.886587024,  0.719946027
    360,  0.882888377,  0.802182496
    361,  0.889743328,  0.310849756
    362,  0.764485955,    0.1124219
    363,  0.697391987,  0.894261539
    364,  0.313308209,  0.108105496
    365,  0.101136759,   0.69780463
    366,  0.889357567,  0.350987673
    367,  0.349039614,  0.105104268
    368,  0.659232318,  0.891460717
    369,   0.10641817,  0.661108494
    370,  0.885425746,  0.760712683
    371,  0.723935544,  0.111344054
    372,  0.237837657,   0.87992841
    373,  0.196735159,  0.876187444
    374,  0.115704171,  0.249216288
    375,  0.120851405,  0.205493525
    376,  0.117718056,  0.919908762
    377,  0.079569906,  0.119678065
    378,  0.883875966,  0.115066044
    379,  0.884358466,  0.884227574
    380,   0.11553023,  0.879900455
    381,  0.156192288,  0.877557039
    382,  0.119189255,  0.119086377
    383,  0.141700536,  0.339404106
    384,  0.145343274,  0.299527615
    385,   0.32141009,  0.841040075
    386,  0.602917194,  0.835136712
    387,  0.848326564,  0.425338328
    388,  0.166089952,  0.605747938
    389,  0.279229522,  0.844599307
    390,  0.401207089,  0.160895854
    391,  0.150975898,  0.638421535
    392,  0.635715961,  0.848336995
    393,  0.724198103,  0.148332939
    394,  0.683247566,  0.145724043
    395,  0.849824786,  0.349355668
    396,  0.371730626,  0.144475117
    397,  0.845908403,    0.7191149
    398,  0.855829835,  0.675048232
    399,  0.857983232,  0.596250534
    400,  0.855346084,   0.55912143
    401,  0.564774096,   0.14358741
    402,   0.60364145,  0.142714575
    403,  0.483075321,  0.163036913
    404,  0.394898564,  0.852483451
    405,  0.446747929,  0.155995503
    406,  0.137171865,  0.415400535
    407,   0.35780561,  0.853045642
    408,  0.437852949,  0.847265899
    409,   0.13543275,  0.451246291
    410,  0.139184251,  0.378074259
    411,  0.519872844,  0.838557363
    412,  0.146716952,  0.518337488
    413,  0.526564598,  0.149334565
    414,  0.843131721,  0.479413927
    415,  0.556669831,  0.843972683
    416,  0.159567311,  0.552935898
    417,  0.860540688,  0.458230853
    418,  0.845653892,  0.152694613
    419,  0.845796764,  0.846878231
    420,  0.642906308,  0.143677115
    421,  0.858883023,    0.6350137
    422,  0.239698038,   0.84240514
    423,  0.152085856,   0.25771156
    424,  0.477113068,  0.851571262
    425,  0.135276988,  0.485459298
    426,  0.844479382,  0.529230773
    427,   0.23760137,  0.148436844
    428,   0.12904796,  0.764434159
    429,  0.848196983,  0.231167048
    430,  0.772430897,  0.854300857
    431,  0.199388191,  0.153607398
    432,  0.151843622,  0.836083353
    433,  0.736135364,  0.858913898
    434,  0.278731734,  0.150772184
    435,  0.127198547,  0.737237394
    436,   0.85073483,  0.269900233
    437,  0.318781674,   0.14709717
    438,  0.702478409,  0.862501085
    439,  0.134732664,  0.707644343
    440,  0.347113818,  0.131621182
    441,  0.140944108,  0.673729956
    442,  0.854919016,   0.30760029
    443,  0.669236362,  0.857651472
    444,  0.849470794,  0.759094477
    445,  0.838495612,  0.802304149
    446,  0.765357077,  0.150224134
    447,  0.805874586,  0.151609898
    448,  0.120640449,  0.161678627
    449,  0.166850284,  0.210105672
    450,  0.178876609,  0.308862329
    451,    0.3044447,  0.796861768
    452,  0.827516317,  0.376337141
    453,  0.623644531,  0.801004887
    454,   0.17571041,  0.346912086
    455,  0.352837205,  0.822079241
    456,  0.378863633,  0.191604003
    457,  0.825072587,  0.596550167
    458,  0.199813262,  0.628123462
    459,  0.427662343,  0.182057738
    460,  0.820723414,  0.555563331
    461,  0.681444108,  0.180813938
    462,  0.184664607,  0.657317042
    463,  0.654800236,  0.814070761
    464,  0.566960156,  0.174961746
    465,  0.811649442,  0.700061083
    466,  0.813910604,   0.32994464
    467,  0.537585557,  0.180566803
    468,  0.575004518,  0.816619098
    469,  0.187391236,   0.57756418
    470,  0.350450099,  0.171662554
    471,  0.456221402,  0.200990781
    472,  0.641358256,  0.177746668
    473,  0.803062677,  0.660749137
    474,  0.185209602,  0.272203594
    475,  0.271753162,  0.807808697
    476,  0.387458652,  0.817522585
    477,  0.827742219,   0.63312155
    478,  0.167751819,  0.457131386
    479,     0.422582,   0.81166786
    480,  0.161814198,  0.488944113
    481,  0.171270385,  0.421964079
    482,  0.173504099,  0.384889573
    483,  0.451911271,  0.800597131
    484,  0.602957726,  0.176322371
    485,  0.496525884,  0.807795346
    486,  0.506817639,  0.197032362
    487,  0.545701444,  0.799581885
    488,  0.178725064,  0.530225158
    489,  0.818374097,  0.500186563
    490,  0.723107815,  0.185889304
    491,  0.820529401,  0.748312414
    492,  0.172714576,  0.687037587
    493,  0.206929311,  0.190899551
    494,  0.196435332,  0.826742291
    495,  0.239808202,  0.181081578
    496,  0.172908008,   0.78351754
    497,  0.705521464,  0.837076068
    498,   0.68476218,   0.82497865
    499,  0.266047567,  0.178232938
    500,   0.17134589,  0.722873092
    501,  0.826424539,  0.304875284
    502,   0.80793643,  0.229988277
    503,  0.731801569,  0.824406087
    504,  0.804250062,  0.780561984
    505,  0.765755534,  0.188396856
    506,   0.30345419,  0.177288428
    507,  0.806775212,  0.823215246
    508,  0.806844532,   0.19043979
    509,  0.199421763,  0.240574017
    510,   0.21166487,  0.316966444
    511,  0.339645535,  0.778596997
    512,   0.16065836,  0.160348609
    513,  0.209567085,  0.353617013
    514,   0.81305027,  0.405622184
    515,  0.380961448,  0.780626953
    516,  0.595000207,  0.784664214
    517,    0.4062002,  0.212238953
    518,  0.796899199,  0.357930005
    519,   0.64131254,  0.770761788
    520,  0.785006881,  0.566938877
    521,  0.215169936,  0.283861876
    522,  0.433423281,  0.233363852
    523,  0.283813089,  0.760595977
    524,  0.358181208,  0.219815046
    525,  0.218481451,   0.59930402
    526,  0.559452713,  0.208618537
    527,  0.229688272,  0.648345947
    528,  0.676988363,  0.213991389
    529,  0.785577416,  0.677317798
    530,  0.795516133,  0.522551477
    531,  0.525223017,  0.223787844
    532,  0.791190922,  0.600975692
    533,  0.567354262,  0.766428769
    534,  0.796464682,  0.433575898
    535,  0.481394589,  0.222902045
    536,  0.207843095,  0.548909903
    537,  0.796551168,  0.634836733
    538,  0.600499868,  0.209999561
    539,   0.20812571,  0.391553879
    540,  0.638605833,  0.211205512
    541,  0.213356897,  0.677068114
    542,  0.414931715,  0.778314769
    543,  0.719694734,  0.225324258
    544,  0.785955846,  0.730383992
    545,  0.206787467,  0.429664344
    546,  0.477721959,  0.784808695
    547,  0.443276584,   0.77338028
    548,  0.203111798,  0.467171192
    549,  0.672216117,  0.784138739
    550,  0.192745343,  0.500569224
    551,  0.788307905,  0.468059689
    552,  0.520677388,  0.779040039
    553,   0.78564924,  0.308962643
    554,  0.224195912,  0.793363929
    555,  0.330820441,   0.19831267
    556,  0.200655863,   0.75934124
    557,   0.25017035,  0.210116073
    558,  0.224620253,  0.223177776
    559,  0.766644478,  0.261845827
    560,  0.197843805,  0.704631507
    561,  0.753394723,  0.777277946
    562,  0.710706174,  0.791877687
    563,  0.781716764,  0.763469577
    564,  0.807772398,  0.273741156
    565,  0.266750902,  0.232559338
    566,  0.766148746,  0.225983962
    567,  0.773516417,  0.811482072
    568,  0.808748484,  0.853317618
    569,   0.84672451,    0.1919135
    570,  0.220467865,   0.25992623
    571,  0.253021568,  0.773839772
    572,  0.244037971,  0.321551532
    573,  0.353743613,  0.739557922
    574,  0.243970931,  0.287266552
    575,  0.311005205,  0.744639874
    576,  0.779658258,  0.387414306
    577,  0.614138722,  0.753829122
    578,  0.412088692,  0.264077008
    579,  0.762605369,  0.417795986
    580,  0.385165125,  0.241655454
    581,  0.242896512,  0.358286917
    582,  0.587536514,  0.734842658
    583,  0.751643062,  0.569933057
    584,  0.383123666,  0.745644033
    585,  0.530305326,  0.254872352
    586,  0.248467714,  0.620243013
    587,  0.746586502,  0.531570017
    588,  0.238733798,  0.569771111
    589,  0.564752162,  0.247300461
    590,  0.460288584,  0.254789501
    591,  0.658128798,  0.743743598
    592,  0.757574975,  0.606212199
    593,  0.670425832,  0.245841324
    594,  0.763604999,  0.645982802
    595,  0.242260993,  0.396333873
    596,  0.504256964,  0.242973149
    597,  0.414301515,  0.745719492
    598,  0.697528124,  0.248632416
    599,  0.766535461,  0.339495152
    600,  0.256543249,  0.667251289
    601,  0.743954182,   0.66983521
    602,  0.636251807,   0.24546285
    603,   0.76529634,  0.499666363
    604,  0.746717036,  0.449822426
    605,  0.540966213,  0.746963203
    606,   0.46437332,  0.768541455
    607,  0.245278925,  0.480164438
    608,  0.259106249,  0.539711595
    609,  0.338049918,   0.24691765
    610,  0.496868163,  0.758862019
    611,  0.226284519,  0.516869903
    612,  0.240483731,  0.695370674
    613,  0.678982079,  0.759428442
    614,  0.757306159,  0.293909758
    615,  0.230899334,  0.733521044
    616,  0.735182166,  0.284670502
    617,  0.245693892,  0.254522055
    618,  0.310797155,  0.225287274
    619,  0.276179105,  0.323280752
    620,  0.330736667,  0.727808475
    621,  0.728789568,  0.399362594
    622,  0.390906245,  0.292969435
    623,  0.607375324,  0.705210984
    624,  0.307822317,  0.364671946
    625,  0.360563904,   0.70561868
    626,  0.719359696,  0.572662055
    627,  0.633094609,  0.725022316
    628,  0.567326367,   0.28220734
    629,  0.747409105,   0.36895591
    630,  0.269436657,   0.59161061
    631,  0.440328687,  0.287918717
    632,   0.72426188,  0.609354198
    633,  0.387185872,  0.714667916
    634,  0.600548029,  0.280727923
    635,  0.275404632,  0.398666143
    636,  0.364287257,  0.269725472
    637,   0.27623561,  0.641518176
    638,  0.709208071,  0.431897402
    639,  0.560869038,  0.714450836
    640,  0.277948886,  0.434792727
    641,  0.292181909,  0.562209606
    642,  0.731516719,  0.644111514
    643,  0.487301499,  0.273008525
    644,  0.444028497,  0.743379831
    645,  0.671122611,  0.281668663
    646,  0.635320902,  0.282711297
    647,  0.720548034,   0.68356657
    648,  0.730089247,  0.481754333
    649,  0.677843034,  0.721254766
    650,  0.472380161,  0.744733512
    651,  0.513900042,  0.727258444
    652,  0.278103292,  0.512313068
    653,  0.279855937,  0.687051117
    654,  0.737743974,  0.321616143
    655,  0.268106192,  0.728009403
    656,    0.7320593,  0.260797352
    657,  0.318947136,  0.272294044
    658,  0.737517893,   0.71264261
    659,  0.714583099,  0.720274448
    660,  0.713992715,  0.300678909
    661,  0.273283154,  0.282504261
    662,  0.314984828,  0.324892133
    663,  0.327604741,  0.693451703
    664,  0.626869559,  0.678385735
    665,  0.696485221,  0.380294144
    666,  0.419139594,  0.317524582
    667,  0.676911652,  0.412963122
    668,  0.580545485,  0.682774782
    669,  0.369854331,  0.320418388
    670,   0.71512711,  0.538830817
    671,  0.377146333,  0.673310757
    672,  0.537489057,  0.285830915
    673,  0.338260978,  0.372444093
    674,  0.297961771,  0.613941014
    675,    0.3212578,  0.584917128
    676,  0.308218867,   0.39960292
    677,  0.688173592,  0.614476085
    678,  0.471589029,  0.313562542
    679,  0.414202988,  0.687183201
    680,  0.673720837,  0.669479609
    681,  0.283529669,  0.467882484
    682,  0.598478198,  0.313804984
    683,  0.512940526,  0.283351123
    684,  0.715246379,  0.349016488
    685,  0.686404705,   0.46700266
    686,  0.703629494,  0.653253675
    687,  0.718093336,   0.51180613
    688,  0.534149468,  0.694431186
    689,   0.30221504,  0.664935172
    690,  0.631734252,  0.322249919
    691,  0.446203113,  0.711646378
    692,  0.317236662,  0.531426251
    693,  0.342748523,  0.296897292
    694,  0.293482274,  0.493037879
    695,  0.482799679,  0.707535684
    696,  0.696517766,  0.698940575
    697,  0.296539605,  0.712819457
    698,   0.67920804,  0.323503137
    699,  0.302462578,  0.292148888
    700,  0.600289881,  0.654306352
    701,  0.647023797,  0.396208853
    702,  0.651876271,  0.572440028
    703,  0.350862235,  0.346234947
    704,  0.350228369,  0.657502472
    705,  0.398515999,  0.345866203
    706,  0.569406688,  0.350121737
    707,  0.644296646,  0.654702842
    708,  0.446860671,  0.342007577
    709,  0.640446484,   0.61377269
    710,  0.348738968,  0.606410146
    711,  0.664866269,  0.363814861
    712,  0.608580172,  0.363799483
    713,  0.392933249,  0.643943012
    714,  0.360411674,  0.389441431
    715,  0.552855015,  0.659687459
    716,  0.535780728,  0.319891244
    717,  0.655842304,  0.443311393
    718,   0.68152374,  0.537360966
    719,  0.348565191,  0.430129677
    720,  0.344942391,  0.556455433
    721,  0.434135377,  0.647949934
    722,  0.505485117,  0.318727762
    723,  0.319581896,  0.465817899
    724,   0.68226099,  0.504272342
    725,   0.49210301,  0.662460685
    726,  0.469873011,  0.671482146
    727,  0.322520733,  0.497142732
    728,  0.620232046,  0.631327569
    729,  0.622492433,  0.381433249
    730,  0.372560322,   0.62638247
    731,  0.662225306,  0.637021899
    732,  0.634234488,  0.356533855
    733,  0.378936321,  0.369701326
    734,  0.324888051,  0.636518836
    735, 0.0396457165, 0.0395507514
    736,  0.642307878,  0.502575815
    737,   0.59807384,  0.405138284
    738,  0.503114939,  0.358311325
    739,  0.404368281,  0.398760647
    740,  0.359772354,  0.497988105
    741,  0.400317252,  0.597472191
    742,  0.496251315,   0.63454777
    743,   0.59564805,  0.602084696
    744,  0.685874283,  0.573092401
    745,  0.567083597,  0.316881955
    746,  0.313623607,   0.43328163
    747,  0.441975325,  0.679543078
    748,  0.406285167,  0.662591457
    749,  0.658968627,  0.600466371
    750,  0.601086617,  0.339649945
    751,  0.338322431,  0.398750246
    752,  0.509692013,  0.676942647
    753,  0.415924758,  0.715041757
    754,   0.27560848,    0.3610892
    755,   0.60039103,  0.245338485
    756,  0.243011028,  0.435287774
    757,  0.392916769,  0.691565096
    758,  0.652595103,  0.698309064
    759,  0.703614652,  0.273186356
    760,  0.776638687,  0.540009379
    761,  0.763684511,  0.697649121
    762,   0.82031703,  0.451413393
    763,  0.140685111,  0.797327101
    764,  0.262362093,  0.703395009
    765,  0.855777204,  0.386962622
    766,  0.706662297,   0.74824816
    767,  0.292438924,  0.252549857
    768,  0.825606942,    0.6676597
    769,   0.74596113,  0.742911279
    770,  0.466590583,   0.82555449
    771,  0.151480094,  0.751539528
    772,  0.281197071,  0.203772366
    773,  0.245452374,  0.815095842
*Element, type=CPE3
 1, 488, 416, 412
 2, 460, 426, 400
 3, 526, 467, 464
 4, 455, 407, 385
 5, 765, 452, 395
 6, 491, 397, 444
 7, 480, 412, 425
 8, 506, 434, 437
 9, 596, 531, 585
10, 762, 551, 534
11, 560, 500, 492
12, 601, 642, 594
13, 683, 585, 672
14, 687, 587, 670
15, 661, 574, 617
16, 707, 731, 680
17, 748, 671, 713
18, 678, 122, 708
19, 685, 132, 717
20, 692, 123, 720
21, 712, 732, 729
22, 690, 750, 682
23, 751, 673, 714
24, 770, 424, 408
25, 435, 771, 428
26, 557, 772, 565
*Element, type=CPE4
 27, 118, 737,  12,  11
 28, 185, 184, 237, 242
 29,  27,  26, 161, 134
 30,  20, 738, 130,  11
 31,  33,  32, 164, 165
 32, 125,   8, 120, 719
 33, 233, 735, 238, 305
 34, 149, 102, 101, 148
 35, 123,   6, 119, 720
 36, 206, 108, 107, 205
 37, 326, 325, 260, 221
 38, 126,   4, 121, 721
 39, 143,  78,  77, 142
 40, 124,   3, 117, 715
 41, 328, 399, 400, 317
 42, 128, 743,   2,   1
 43, 128,   1, 131, 702
 44, 132,  13, 129, 717
 45, 195,  84,  83, 194
 46,   9, 739, 127,  10
 47,  21,  15,  68, 192
 48,  21, 192, 219,  22
 49,  24,  23, 159, 160
 50,  25,  24, 160, 133
 51, 133, 161,  26,  25
 52, 134, 162,  28,  27
 53, 162, 163,  29,  28
 54, 217, 136, 135, 256
 55, 135, 136,  31,  30
 56,  32,  31, 136, 164
 57,  34,  33, 165, 166
 58,  35,  34, 166, 167
 59, 239, 166, 165, 269
 60, 374, 356, 265, 231
 61,  37,  36, 168, 169
 62, 167, 270, 240, 168
 63,  38,  37, 169, 170
 64,  40,  39, 171, 172
 65,  41,  40, 172, 173
 66, 173, 174,  42,  41
 67,  45,  17,  92, 203
 68,  45, 203, 220,  46
 69, 200, 199, 241, 292
 70,  47, 175, 176,  48
 71, 177,  49,  48, 176
 72,  51, 178, 138,  52
 73,  50, 137, 178,  51
 74,  53, 179, 180,  54
 75, 179,  53,  52, 138
 76, 316, 312, 414, 417
 77, 140,  56,  55, 139
 78, 724, 736, 132, 685
 79, 140, 139, 218, 259
 80, 182,  58,  57, 181
 81, 402, 329, 334, 420
 82, 184,  60,  59, 183
 83, 185,  61,  60, 184
 84, 189, 188, 243, 285
 85, 188,  64,  63, 187
 86,  66, 190, 191,  67
 87,  67, 191, 192,  68
 88,  69,  18, 116, 214
 89, 214, 116, 115, 213
 90, 210, 209, 297, 298
 91, 235,  71,  70, 234
 92, 216,  72,  71, 235
 93, 208, 207, 245, 296
 94, 372, 357, 264, 232
 95,  73, 153, 154,  74
 96, 142, 141, 221, 260
 97,  76, 141, 142,  77
 98, 144,  79,  78, 143
 99, 145,  80,  79, 144
100, 725, 742, 124, 752
101, 223, 246, 144, 143
102, 193,  82,  81, 146
103, 194,  83,  82, 193
104, 196,  85,  84, 195
105, 196, 195, 247, 248
106, 198,  87,  86, 197
107, 199,  88,  87, 198
108,  90, 201, 202,  91
109,  91, 202, 203,  92
110,  16,  44, 735,  93
111,  44,  43, 238, 735
112, 273, 171, 170, 272
113,  94, 233, 236,  95
114, 215,  96,  95, 236
115, 157,  98,  97, 156
116, 148, 147, 222, 262
117, 262, 222, 324, 321
118, 100, 147, 148, 101
119, 150, 103, 102, 149
120, 151, 104, 103, 150
121, 123, 740,   7,   6
122, 225, 250, 150, 149
123, 204, 106, 105, 152
124, 205, 107, 106, 204
125, 207, 109, 108, 206
126, 206, 205, 294, 251
127, 208, 110, 109, 207
128, 210, 112, 111, 209
129, 211, 113, 112, 210
130, 114, 212, 213, 115
131, 117,   3,   2, 743
132, 119,   6,   5, 741
133,   5,   4, 126, 741
134, 120,   8,   7, 740
135, 121,   4,  19, 742
136,  19,   3, 124, 742
137,  20,  10, 122, 738
138, 263, 252, 204, 152
139, 152, 105, 104, 151
140, 261, 253, 193, 146
141, 146,  81,  80, 145
142, 168, 240, 254, 169
143,   9,   8, 125, 739
144, 310, 308, 246, 223
145, 730, 741, 126, 713
146,  36,  35, 167, 168
147, 122,  10, 127, 708
148, 131,   1,  14, 736
149, 183,  59,  58, 182
150, 129,  13,  12, 737
151, 313, 323, 269, 257
152, 118,  11, 130, 706
153,  14,  13, 132, 736
154, 255, 279, 316, 322
155, 181,  57,  56, 140
156, 186,  62,  61, 185
157, 268, 163, 162, 267
158,  30,  29, 163, 135
159, 136, 217, 257, 164
160, 137,  50,  49, 177
161, 197,  86,  85, 196
162, 180, 179, 278, 258
163, 139,  55,  54, 180
164, 141,  76,  75, 155
165, 155,  75,  74, 154
166, 260, 223, 143, 142
167, 246, 224, 145, 144
168, 224, 261, 146, 145
169, 147, 100,  99, 158
170, 158,  99,  98, 157
171, 262, 225, 149, 148
172, 306, 311, 250, 225
173, 250, 226, 151, 150
174, 226, 263, 152, 151
175, 153,  73,  72, 216
176, 209, 111, 110, 208
177, 155, 154, 232, 264
178, 156,  97,  96, 215
179,  39,  38, 170, 171
180, 158, 157, 231, 265
181,  23,  22, 219, 159
182,  65, 189, 190,  66
183, 187,  63,  62, 186
184, 187, 186, 282, 266
185, 281, 133, 160, 283
186, 161, 227, 228, 134
187, 281, 341, 362, 227
188, 318, 313, 257, 217
189, 403, 323, 313, 413
190, 166, 239, 270, 167
191, 356, 374, 423, 384
192, 271, 156, 215, 303
193, 240, 270, 355, 367
194, 344, 337, 274, 273
195, 171, 273, 274, 172
196, 174, 173, 275, 249
197, 238, 174, 249, 305
198,  43,  42, 174, 238
199, 175,  47,  46, 220
200,  89, 200, 201,  90
201, 137, 177, 288, 229
202, 229, 230, 178, 137
203, 138, 178, 230, 277
204, 340, 360, 288, 290
205, 317, 312, 259, 218
206, 181, 140, 259, 279
207, 280, 255, 322, 353
208, 183, 182, 255, 280
209, 237, 280, 353, 366
210, 186, 185, 242, 282
211, 339, 378, 330, 418
212, 160, 159, 284, 283
213,  64, 188, 189,  65
214, 286, 285, 330, 378
215, 286, 301, 191, 190
216, 301, 219, 192, 191
217, 287, 253, 319, 354
218, 253, 261, 314, 319
219, 289, 276, 198, 197
220, 176, 290, 288, 177
221, 197, 196, 248, 289
222, 379, 331, 419, 340
223, 291, 290, 176, 175
224,  88, 199, 200,  89
225, 292, 331, 379, 293
226, 293, 302, 202, 201
227, 220, 203, 202, 302
228, 251, 294, 352, 369
229, 251, 245, 207, 206
230, 389, 357, 372, 422
231, 295, 153, 216, 304
232, 338, 345, 428, 763
233, 345, 338, 298, 297
234, 113, 211, 212, 114
235, 234, 214, 213, 300
236, 213, 212, 244, 300
237,  69, 214, 234,  70
238, 256, 135, 163, 268
239, 403, 471, 459, 405
240, 139, 180, 258, 218
241, 551, 762, 414, 489
242, 141, 155, 264, 221
243, 310, 404, 408, 308
244, 147, 158, 265, 222
245, 410, 406, 306, 321
246, 411, 487, 468, 415
247, 411, 314, 307, 424
248, 311, 306, 406, 409
249, 294, 252, 320, 352
250, 393, 394, 358, 371
251, 227, 161, 133, 281
252, 334, 358, 394, 420
253, 134, 228, 267, 162
254, 397, 398, 335, 359
255, 157, 156, 271, 231
256, 272, 170, 169, 254
257, 154, 153, 295, 232
258, 209, 208, 296, 297
259, 233,  94,  93, 735
260, 380, 376, 300, 244
261, 382, 377, 305, 249
262, 184, 183, 280, 237
263, 569, 429, 502, 508
264, 269, 165, 164, 257
265, 270, 239, 327, 355
266, 423, 374, 375, 449
267, 199, 198, 276, 241
268, 266, 243, 188, 187
269, 341, 281, 283, 339
270, 376, 304, 216, 235
271, 212, 211, 299, 244
272, 422, 372, 373, 494
273, 308, 307, 224, 246
274, 195, 194, 287, 247
275, 247, 287, 354, 368
276, 568, 430, 567, 507
277, 173, 172, 274, 275
278, 252, 263, 315, 320
279, 412, 315, 309, 425
280, 205, 204, 252, 294
281, 309, 315, 263, 226
282, 194, 193, 253, 287
283, 307, 314, 261, 224
284, 337, 344, 427, 431
285, 182, 181, 279, 255
286, 279, 259, 312, 316
287, 217, 256, 329, 318
288, 277, 278, 179, 138
289, 218, 258, 328, 317
290, 325, 310, 223, 260
291, 321, 306, 225, 262
292, 311, 309, 226, 250
293, 346, 342, 243, 266
294, 371, 228, 227, 362
295, 239, 269, 323, 327
296, 367, 364, 254, 240
297, 337, 332, 275, 274
298, 303, 377, 382, 448
299, 347, 343, 241, 276
300, 230, 229, 370, 359
301, 348, 346, 266, 282
302, 447, 508, 505, 446
303, 159, 219, 301, 284
304, 285, 286, 190, 189
305, 285, 243, 342, 330
306, 301, 286, 378, 284
307, 349, 347, 276, 289
308, 504, 445, 507, 567
309, 175, 220, 302, 291
310, 292, 293, 201, 200
311, 292, 241, 343, 331
312, 302, 293, 379, 291
313, 351, 345, 297, 296
314, 338, 333, 299, 298
315, 211, 210, 298, 299
316, 376, 380, 381, 304
317, 235, 234, 300, 376
318, 215, 236, 377, 303
319, 249, 275, 332, 382
320, 244, 299, 333, 380
321, 236, 233, 305, 377
322, 479, 542, 547, 483
323, 545, 548, 478, 481
324, 407, 404, 310, 325
325, 392, 386, 453, 463
326, 697, 663, 620, 575
327, 543, 528, 461, 490
328, 258, 278, 336, 328
329, 256, 268, 334, 329
330, 318, 401, 413, 313
331, 444, 370, 360, 445
332, 441, 391, 462, 492
333, 222, 265, 356, 324
334, 410, 383, 454, 482
335, 440, 396, 470, 437
336, 383, 410, 321, 324
337, 221, 264, 357, 326
338, 326, 385, 407, 325
339, 350, 344, 273, 272
340, 278, 277, 335, 336
341, 421, 399, 328, 336
342, 329, 402, 401, 318
343, 284, 378, 339, 283
344, 291, 379, 340, 290
345, 554, 494, 496, 556
346, 267, 228, 371, 358
347, 589, 585, 531, 526
348, 358, 334, 268, 267
349, 277, 230, 359, 335
350, 364, 367, 440, 437
351, 439, 435, 351, 365
352, 330, 342, 569, 418
353, 331, 343, 568, 419
354, 370, 229, 288, 360
355, 272, 254, 364, 350
356, 396, 390, 456, 470
357, 296, 245, 365, 351
358, 389, 475, 451, 385
359, 282, 242, 361, 348
360, 361, 442, 436, 348
361, 289, 248, 363, 349
362, 443, 438, 363, 368
363, 366, 361, 242, 237
364, 366, 353, 765, 395
365, 368, 354, 392, 443
366, 519, 453, 516, 577
367, 367, 355, 396, 440
368, 662, 699, 657, 693
369, 369, 352, 391, 441
370, 389, 422, 773, 475
371, 352, 320, 388, 391
372, 353, 322, 387, 765
373, 354, 319, 386, 392
374, 355, 327, 390, 396
375, 231, 271, 375, 374
376, 295, 373, 372, 232
377, 349, 363, 438, 433
378, 514, 576, 518, 452
379, 447, 446, 362, 341
380, 368, 363, 248, 247
381, 384, 423, 474, 450
382, 369, 365, 245, 251
383, 433, 430, 347, 349
384, 371, 362, 446, 393
385, 357, 389, 385, 326
386, 373, 295, 304, 381
387, 384, 383, 324, 356
388, 375, 271, 303, 448
389, 558, 493, 495, 557
390, 381, 380, 333, 432
391, 432, 333, 338, 763
392, 431, 512, 332, 337
393, 572, 581, 513, 510
394, 427, 344, 350, 434
395, 455, 511, 515, 476
396, 415, 319, 314, 411
397, 468, 487, 533, 516
398, 322, 316, 417, 387
399, 416, 320, 315, 412
400, 488, 536, 469, 416
401, 763, 496, 494, 432
402, 405, 327, 323, 403
403, 459, 471, 522, 517
404, 391, 388, 458, 462
405, 490, 393, 446, 505
406, 484, 402, 420, 472
407, 366, 395, 442, 361
408, 359, 370, 444, 397
409, 592, 532, 537, 594
410, 398, 421, 336, 335
411, 400, 399, 457, 460
412, 520, 460, 457, 532
413, 317, 400, 426, 312
414, 540, 528, 593, 602
415, 456, 390, 459, 517
416, 327, 405, 459, 390
417, 481, 478, 409, 406
418, 455, 385, 451, 511
419, 308, 408, 424, 307
420, 525, 469, 536, 588
421, 311, 409, 425, 309
422, 450, 454, 383, 384
423, 453, 386, 468, 516
424, 458, 388, 469, 525
425, 464, 467, 413, 401
426, 670, 587, 583, 626
427, 414, 312, 426, 489
428, 319, 415, 468, 386
429, 388, 320, 416, 469
430, 341, 339, 418, 447
431, 342, 346, 429, 569
432, 340, 419, 445, 360
433, 343, 347, 430, 568
434, 394, 461, 472, 420
435, 491, 544, 465, 397
436, 493, 431, 427, 495
437, 479, 408, 404, 476
438, 425, 409, 478, 480
439, 350, 364, 437, 434
440, 345, 351, 435, 428
441, 346, 348, 436, 429
442, 429, 436, 564, 502
443, 497, 503, 433, 438
444, 332, 512, 448, 382
445, 393, 490, 461, 394
446, 465, 544, 761, 529
447, 442, 395, 466, 501
448, 434, 499, 495, 427
449, 443, 392, 463, 498
450, 766, 769, 561, 562
451, 441, 439, 365, 369
452, 527, 458, 525, 586
453, 456, 517, 580, 524
454, 466, 395, 452, 518
455, 503, 567, 430, 433
456, 512, 449, 375, 448
457, 494, 373, 381, 432
458, 454, 450, 510, 513
459, 762, 387, 417, 414
460, 698, 660, 654, 684
461, 623, 627, 577, 582
462, 539, 545, 481, 482
463, 573, 584, 515, 511
464, 476, 404, 407, 455
465, 470, 456, 524, 555
466, 399, 421, 477, 457
467, 583, 587, 760, 520
468, 413, 467, 486, 403
469, 622, 636, 580, 578
470, 579, 604, 638, 621
471, 426, 460, 530, 489
472, 528, 540, 472, 461
473, 511, 451, 523, 575
474, 643, 596, 585, 683
475, 464, 401, 402, 484
476, 537, 473, 529, 594
477, 397, 465, 768, 398
478, 424, 770, 485, 411
479, 605, 639, 582, 533
480, 588, 608, 641, 630
481, 521, 510, 450, 474
482, 506, 437, 470, 555
483, 471, 403, 486, 535
484, 477, 768, 473, 537
485, 423, 449, 509, 474
486, 492, 500, 439, 441
487, 607, 681, 694, 652
488, 408, 479, 483, 770
489, 595, 756, 545, 539
490, 482, 481, 406, 410
491, 482, 454, 513, 539
492, 546, 485, 770, 483
493, 644, 650, 606, 547
494, 467, 526, 531, 486
495, 487, 411, 485, 552
496, 488, 412, 480, 550
497, 489, 530, 603, 551
498, 530, 460, 520, 760
499, 444, 445, 504, 491
500, 511, 575, 620, 573
501, 493, 449, 512, 431
502, 500, 771, 435, 439
503, 617, 558, 557, 565
504, 771, 500, 556, 496
505, 436, 442, 501, 564
506, 498, 497, 438, 443
507, 463, 453, 519, 549
508, 499, 434, 506, 772
509, 509, 570, 521, 474
510, 462, 458, 527, 541
511, 598, 593, 528, 543
512, 559, 566, 502, 564
513, 567, 561, 563, 504
514, 445, 419, 568, 507
515, 447, 418, 569, 508
516, 574, 572, 510, 521
517, 508, 502, 566, 505
518, 509, 449, 493, 558
519, 422, 494, 554, 773
520, 523, 451, 475, 571
521, 754, 635, 595, 581
522, 629, 621, 665, 684
523, 514, 452, 765, 387
524, 633, 584, 573, 625
525, 476, 515, 542, 479
526, 632, 626, 583, 592
527, 553, 466, 518, 599
528, 503, 562, 561, 567
529, 532, 457, 477, 537
530, 570, 509, 558, 617
531, 772, 506, 555, 618
532, 535, 590, 522, 471
533, 773, 554, 571, 475
534, 560, 492, 462, 541
535, 578, 580, 517, 522
536, 630, 674, 637, 586
537, 464, 484, 538, 526
538, 622, 578, 631, 666
539, 575, 523, 655, 697
540, 589, 755, 634, 628
541, 702, 131, 718, 744
542, 465, 529, 473, 768
543, 579, 576, 514, 534
544, 582, 577, 516, 533
545, 762, 534, 514, 387
546, 535, 486, 531, 596
547, 586, 525, 588, 630
548, 642, 632, 592, 594
549, 540, 538, 484, 472
550, 581, 595, 539, 513
551, 701, 711, 665, 667
552, 556, 500, 560, 615
553, 597, 644, 547, 542
554, 505, 566, 543, 490
555, 553, 564, 501, 466
556, 504, 563, 544, 491
557, 549, 562, 498, 463
558, 546, 483, 547, 606
559, 726, 695, 691, 747
560, 584, 597, 542, 515
561, 548, 607, 611, 550
562, 480, 478, 548, 550
563, 591, 519, 577, 627
564, 536, 488, 550, 611
565, 587, 603, 530, 760
566, 533, 487, 552, 605
567, 552, 485, 546, 610
568, 599, 518, 576, 629
569, 772, 557, 495, 499
570, 600, 527, 586, 637
571, 764, 653, 697, 655
572, 562, 503, 497, 498
573, 591, 613, 549, 519
574, 613, 766, 562, 549
575, 654, 599, 629, 684
576, 614, 616, 656, 559
577, 609, 524, 580, 636
578, 617, 565, 767, 661
579, 571, 554, 556, 615
580, 624, 754, 619, 662
581, 625, 573, 620, 663
582, 618, 555, 524, 609
583, 655, 523, 571, 615
584, 600, 612, 541, 527
585, 643, 678, 631, 590
586, 534, 551, 604, 579
587, 667, 665, 621, 638
588, 669, 622, 666, 705
589, 676, 635, 754, 624
590, 664, 623, 668, 700
591, 583, 520, 532, 592
592, 757, 679, 753, 633
593, 589, 526, 538, 755
594, 666, 631, 678, 708
595, 667, 638, 685, 717
596, 675, 674, 630, 641
597, 540, 602, 755, 538
598, 706, 130, 716, 745
599, 578, 522, 590, 631
600, 590, 535, 596, 643
601, 601, 594, 529, 761
602, 627, 623, 664, 758
603, 635, 640, 756, 595
604, 628, 672, 585, 589
605, 668, 639, 688, 715
606, 566, 559, 656, 543
607, 553, 599, 654, 614
608, 621, 629, 576, 579
609, 653, 600, 637, 689
610, 769, 766, 659, 658
611, 696, 659, 766, 649
612, 634, 755, 602, 646
613, 604, 551, 603, 648
614, 623, 582, 639, 668
615, 633, 753, 597, 584
616, 641, 692, 720, 675
617, 548, 545, 756, 607
618, 608, 588, 536, 611
619, 767, 565, 772, 618
620, 605, 552, 610, 651
621, 610, 546, 606, 650
622, 681, 607, 756, 640
623, 764, 655, 615, 612
624, 649, 591, 627, 758
625, 614, 654, 660, 616
626, 564, 553, 614, 559
627, 656, 616, 660, 759
628, 657, 609, 636, 693
629, 574, 521, 570, 617
630, 703, 662, 693, 669
631, 619, 572, 574, 661
632, 704, 663, 689, 734
633, 750, 706, 745, 682
634, 749, 709, 128, 702
635, 625, 663, 704, 671
636, 684, 665, 711, 698
637, 674, 734, 689, 637
638, 708, 127, 705, 666
639, 632, 642, 686, 677
640, 713, 671, 704, 730
641, 602, 593, 645, 646
642, 634, 646, 690, 682
643, 714, 673, 703, 733
644, 669, 693, 636, 622
645, 683, 722, 678, 643
646, 687, 724, 685, 648
647, 676, 746, 640, 635
648, 652, 608, 611, 607
649, 642, 601, 647, 686
650, 664, 707, 680, 758
651, 753, 691, 644, 597
652, 645, 593, 598, 759
653, 645, 759, 660, 698
654, 647, 658, 659, 696
655, 707, 664, 700, 728
656, 694, 727, 692, 652
657, 638, 604, 648, 685
658, 613, 591, 649, 766
659, 639, 605, 651, 688
660, 651, 610, 650, 695
661, 641, 608, 652, 692
662, 612, 600, 653, 764
663, 598, 543, 656, 759
664, 661, 767, 657, 699
665, 618, 609, 657, 767
666, 761, 658, 647, 601
667, 769, 658, 761, 544
668, 673, 624, 662, 703
669, 730, 704, 734, 710
670, 711, 701, 729, 732
671, 709, 749, 677, 731
672, 744, 626, 632, 677
673, 717, 129, 701, 667
674, 715, 117, 700, 668
675, 712, 118, 706, 750
676, 745, 628, 634, 682
677, 736, 724, 718, 131
678, 126, 721, 748, 713
679, 738, 722, 716, 130
680, 714, 125, 719, 751
681, 720, 119, 710, 675
682, 676, 751, 719, 746
683, 728, 709, 731, 707
684, 679, 748, 721, 747
685, 691, 753, 679, 747
686, 696, 680, 686, 647
687, 758, 680, 696, 649
688, 740, 727, 723, 120
689, 690, 646, 645, 698
690, 732, 712, 750, 690
691, 683, 672, 716, 722
692, 687, 670, 718, 724
693, 689, 663, 697, 653
694, 742, 725, 726, 121
695, 650, 644, 691, 695
696, 699, 662, 619, 661
697, 694, 681, 723, 727
698, 752, 695, 726, 725
699, 117, 743, 728, 700
700, 129, 737, 729, 701
701, 703, 669, 705, 733
702, 127, 739, 733, 705
703, 686, 680, 731, 677
704, 122, 678, 722, 738
705, 119, 741, 730, 710
706, 675, 710, 734, 674
707, 732, 690, 698, 711
708, 624, 673, 751, 676
709, 745, 716, 672, 628
710, 744, 718, 670, 626
711, 120, 723, 746, 719
712, 123, 692, 727, 740
713, 121, 726, 747, 721
714, 746, 723, 681, 640
715, 752, 124, 715, 688
716, 128, 709, 728, 743
717, 118, 712, 729, 737
718, 125, 714, 733, 739
719, 671, 748, 679, 757
720, 749, 702, 744, 677
721, 752, 688, 651, 695
722, 754, 581, 572, 619
723, 625, 671, 757, 633
724, 587, 687, 648, 603
725, 496, 763, 428, 771
726, 769, 544, 563, 561
727, 768, 477, 421, 398
728, 560, 541, 612, 615
*Nset, nset=ALL_ELEM, generate
   1,  773,    1
*Elset, elset=ALL_ELEM, generate
   1,  728,    1
** Section: PlateSec
*Solid Section, elset=ALL_ELEM, material=Steel
1.,
*End Part
**  
**
** ASSEMBLY
**
*Assembly, name=Assembly
**  
*Instance, name=PLATE-1, part=PLATE
*End Instance
**  
*Nset, nset=_PickedSet3, internal, instance=PLATE-1
 15, 16, 21, 22, 23, 24, 25, 26, 27, 28, 29, 30, 31, 32, 33, 34
 35, 36, 37, 38, 39, 40, 41, 42, 43, 44
*Elset, elset=_PickedSet3, internal, instance=PLATE-1
  29,  31,  47,  48,  49,  50,  51,  52,  53,  55,  56,  57,  58,  61,  63,  64
  65,  66, 110, 111, 146, 158, 179, 181, 198
*Nset, nset=_PickedSet4, internal, instance=PLATE-1
 16,
*Nset, nset=_PickedSet5, internal, instance=PLATE-1
 17, 18, 69, 70, 71, 72, 73, 74, 75, 76, 77, 78, 79, 80, 81, 82
 83, 84, 85, 86, 87, 88, 89, 90, 91, 92
*Elset, elset=_PickedSet5, internal, instance=PLATE-1
  39,  45,  67,  88,  91,  92,  95,  97,  98,  99, 102, 103, 104, 106, 107, 108
 109, 141, 161, 164, 165, 175, 200, 224, 237
*End Assembly
** 
** MATERIALS
** 
*Material, name=Steel
*Elastic
210000., 0.3
** 
** BOUNDARY CONDITIONS
** 
** Name: BC_Bottom_Y Type: Displacement/Rotation
*Boundary
_PickedSet3, 2, 2
** Name: BC_Pin_X Type: Displacement/Rotation
*Boundary
_PickedSet4, 1, 1
** ----------------------------------------------------------------
** 
** STEP: Step-1
** 
*Step, name=Step-1, nlgeom=NO
*Static
1., 1., 1e-05, 1.
** 
** BOUNDARY CONDITIONS
** 
** Name: BC_Top_Tension Type: Displacement/Rotation
*Boundary
_PickedSet5, 2, 2, 0.001
** 
** OUTPUT REQUESTS
** 
*Restart, write, frequency=0
** 
** FIELD OUTPUT: F-Output-1
** 
*Output, field, variable=PRESELECT
** 
** HISTORY OUTPUT: H-Output-1
** 
*Output, history, variable=PRESELECT
*OUTPUT, FIELD
*NODE OUTPUT
U, RF
*ELEMENT OUTPUT
S, MISESERI, MISESAVG, EVOL, ENER
*End Step
