*Heading
 Adapted Plate Hole errorTarget=5.0%
** Job name: PLATE_HOLE_ADAPTED_ERR_50PCT Model name: PLATE_HOLE_ERR_50
** Generated by: Abaqus/CAE 2023
*Preprint, echo=NO, model=NO, history=NO, contact=NO
**
** PARTS
**
*Part, name=PLATE
*Node
      1,  0.590686321,   0.54214251
      2,  0.567579091,  0.573709369
      3,   0.53958261,  0.591832578
      4,  0.459204763,  0.591300309
      5,  0.431966871,  0.573290467
      6,  0.409671813,  0.542904735
      7,  0.400034249,  0.502616465
      8,   0.40755412,  0.461871773
      9,  0.428410083,  0.430179626
     10,  0.469658703,  0.404714078
     11,  0.545831144,  0.411120832
     12,  0.571080744,  0.429661334
     13,  0.591418803,  0.459471017
     14,  0.600000024,          0.5
     15,           1.,           0.
     16,           0.,           0.
     17,           1.,           1.
     18,           0.,           1.
     19,  0.499151468,  0.599996388
     20,  0.508232355,  0.400339425
     21,  0.961133778,           0.
     22,  0.922455192,           0.
     23,  0.883982778,           0.
     24,  0.845651925,           0.
     25,  0.807409286,           0.
     26,  0.769225657,           0.
     27,  0.731104374,           0.
     28,  0.693067431,           0.
     29,  0.655090392,           0.
     30,  0.617049694,           0.
     31,  0.578740597,           0.
     32,  0.500659704,           0.
     33,  0.461200595,           0.
     34,  0.422098041,           0.
     35,  0.383684874,           0.
     36,  0.345901906,           0.
     37,  0.308347404,           0.
     38,  0.270629585,           0.
     39,  0.232624769,           0.
     40,  0.194364071,           0.
     41,  0.155876577,           0.
     42,  0.117167294,           0.
     43, 0.0782296658,           0.
     44,  0.039144814,           0.
     45,           1.,  0.961093068
     46,           1.,  0.922276616
     47,           1.,  0.883520126
     48,           1.,  0.844792366
     49,           1.,  0.806127846
     50,           1.,  0.767571867
     51,           1.,  0.729125142
     52,           1.,  0.690726817
     53,           1.,  0.652287245
     54,           1.,  0.613707423
     55,           1.,  0.574965537
     56,           1.,  0.536203742
     57,           1.,  0.497652173
     58,           1.,  0.421601057
     59,           1.,  0.383850813
     60,           1.,  0.346031964
     61,           1.,  0.308079481
     62,           1.,  0.269984543
     63,           1.,  0.231750429
     64,           1.,  0.193407655
     65,           1.,  0.154979825
     66,           1.,   0.11644268
     67,           1., 0.0777359605
     68,           1., 0.0388975739
     69, 0.0388327464,           1.
     70,  0.077715449,           1.
     71,  0.116717957,           1.
     72,  0.155832127,           1.
     73,  0.194964349,           1.
     74,  0.233996332,           1.
     75,  0.272792965,           1.
     76,  0.311273366,           1.
     77,  0.349532813,           1.
     78,  0.387796313,           1.
     79,  0.426286757,           1.
     80,  0.465188116,           1.
     81,  0.504525483,           1.
     82,  0.544009686,           1.
     83,  0.583174348,           1.
     84,  0.621696472,           1.
     85,  0.696928501,           1.
     86,  0.734137475,           1.
     87,  0.771399379,           1.
     88,  0.808833003,           1.
     89,  0.846509993,           1.
     90,  0.884492934,           1.
     91,  0.922819197,           1.
     92,    0.9613657,           1.
     93,           0., 0.0394138098
     94,           0., 0.0788507164
     95,           0.,  0.118378557
     96,           0.,  0.157981724
     97,           0.,  0.197545096
     98,           0.,   0.23692432
     99,           0.,  0.275946051
    100,           0.,   0.31448403
    101,           0.,  0.352564096
    102,           0.,  0.390355915
    103,           0.,  0.428133905
    104,           0.,  0.466214001
    105,           0.,  0.504827797
    106,           0.,  0.543933988
    107,           0.,  0.583149612
    108,           0.,  0.621977031
    109,           0.,  0.697468638
    110,           0.,  0.734321713
    111,           0.,  0.771008015
    112,           0.,  0.807893872
    113,           0.,  0.845255852
    114,           0.,  0.883214772
    115,           0.,  0.921743333
    116,           0.,  0.960731685
    117,  0.582424521,   0.63389653
    118,  0.592558324,  0.366798699
    119,  0.366169184,  0.575587809
    120,  0.346686602,  0.450797409
    121,  0.456230938,  0.647441983
    122,  0.449934006,  0.332123637
    123,  0.347914547,  0.540484846
    124,  0.515305996,  0.650948882
    125,  0.367017806,  0.414254338
    126,  0.413317025,  0.631993055
    127,  0.420962483,  0.365368217
    128,  0.635570347,  0.590733945
    129,  0.637166917,  0.421356261
    130,  0.535847664,  0.361090362
    131,  0.659296632,  0.544747829
    132,  0.671986639,  0.471842706
    133,  0.805912375, 0.0393972993
    134,  0.729291916, 0.0383527167
    135,  0.613174915, 0.0362650789
    136,  0.574147463, 0.0347106867
    137,  0.961787522,  0.733539462
    138,  0.959843457,  0.656914055
    139,  0.957991421,  0.537986457
    140,  0.958623946,  0.498788655
    141,  0.350685507,  0.963350892
    142,  0.389116615,  0.963689148
    143,  0.427711487,  0.963562191
    144,  0.466671795,  0.963169098
    145,   0.50594914,    0.9627074
    146,   0.54523319,  0.962400198
    147, 0.0337755755,  0.350485951
    148, 0.0340923369,  0.388324052
    149, 0.0345976129,  0.426228076
    150, 0.0351597853,  0.464413524
    151, 0.0357518531,  0.503012002
    152, 0.0362477414,   0.54194206
    153,  0.234875068,  0.960114956
    154,  0.273596376,  0.961351156
    155,  0.312197715,  0.962546766
    156, 0.0346865878,  0.235915259
    157, 0.0339864641,   0.27441296
    158, 0.0336590186,  0.312585175
    159,  0.882807493, 0.0398517996
    160,  0.844271183, 0.0397140123
    161,  0.767647147, 0.0389045067
    162,  0.690797448, 0.0377403162
    163,  0.652100742, 0.0370905399
    164,  0.535766542, 0.0315540619
    165,  0.477038682, 0.0456756204
    166,  0.427445084,   0.04325784
    167,  0.385750264, 0.0407824032
    168,  0.347038686, 0.0384309143
    169,  0.308931798, 0.0366970226
    170,  0.271141827, 0.0360916406
    171,  0.233119071, 0.0367263705
    172,  0.194623724, 0.0381866619
    173,  0.156004831, 0.0396682024
    174,  0.117279202, 0.0401518047
    175,   0.96479857,  0.846874416
    176,  0.964585006,  0.809147775
    177,  0.963275075,  0.771349907
    178,  0.960630655,  0.695489824
    179,  0.959190309,  0.617557347
    180,  0.958448708,  0.577658594
    181,   0.95981425,  0.459917009
    182,  0.960999072,   0.42162922
    183,  0.961848676,  0.383766502
    184,  0.962201416,  0.346000314
    185,  0.962062836,  0.308156133
    186,  0.961555958,  0.270304024
    187,   0.96093905,  0.232423991
    188,   0.96039325,  0.194423735
    189,   0.96008867,  0.156115666
    190,  0.960090697,  0.117464021
    191,  0.960278928, 0.0785734579
    192,  0.960615575, 0.0394499525
    193,  0.584311187,  0.962413013
    194,  0.623091042,  0.962560296
    195,  0.661381304,  0.962638438
    196,  0.699244082,  0.962480843
    197,   0.73682636,  0.962164342
    198,  0.774341404,  0.961825848
    199,  0.811793804,  0.961657107
    200,  0.849143624,  0.961767614
    201,  0.886572242,  0.961971045
    202,  0.924432755,  0.962039113
    203,  0.963199258,  0.923377037
    204, 0.0365807042,  0.580884635
    205, 0.0366690978,  0.619419217
    206, 0.0365330018,  0.657359242
    207,  0.036394041,  0.694763541
    208, 0.0365350582,  0.731961906
    209, 0.0370821618,  0.769347906
    210,  0.037839029,  0.806747317
    211, 0.0386547334,   0.84422183
    212, 0.0392941199,  0.882187784
    213, 0.0395503305,  0.920847535
    214, 0.0787423626,  0.959548175
    215, 0.0357445143,  0.197046608
    216,   0.19622454,  0.959204972
    217,  0.567832589, 0.0692656189
    218,  0.915718675,  0.539353907
    219,  0.921603918, 0.0397298895
    220,   0.96410352,  0.885040104
    221,  0.314041585,  0.925842762
    222, 0.0670615435,  0.348463088
    223,  0.428557009,  0.927694142
    224,  0.506912887,   0.92531234
    225, 0.0686940476,  0.423800141
    226, 0.0713516772,  0.500509143
    227,  0.765682459, 0.0775191784
    228,  0.727105379, 0.0760740936
    229,  0.922996819,  0.739098549
    230,  0.921016693,  0.701047838
    231, 0.0679115355,   0.27357623
    232,  0.236785695,  0.919841051
    233, 0.0379708894,    0.1185937
    234,   0.11808046,  0.959087551
    235,    0.1573385,  0.958881497
    236,  0.036949791,  0.157858446
    237,  0.924881279,  0.345882863
    238, 0.0781628937, 0.0400253199
    239,  0.426172674, 0.0823460147
    240,  0.346045583, 0.0750348866
    241,  0.814745128,   0.92278415
    242,   0.92435956,  0.308563858
    243,  0.920365512,  0.195842475
    244, 0.0787656307,  0.880416274
    245, 0.0722082406,  0.692386925
    246,  0.467436433,  0.926684737
    247,  0.663449347,  0.925924599
    248,  0.701450765,  0.925560951
    249,   0.11755044, 0.0807096362
    250, 0.0698881447,   0.46192798
    251, 0.0729993954,  0.655161142
    252, 0.0734383985,  0.578585923
    253,  0.585808933,  0.924873471
    254,  0.308422178, 0.0717476904
    255,  0.922672033,  0.420524627
    256,   0.60879755, 0.0717170835
    257,  0.525389373,  0.063375406
    258,  0.918261051,  0.580831587
    259,  0.917509317,   0.49859035
    260,  0.352242231,  0.927653372
    261,   0.54643774,  0.924503386
    262, 0.0675768182,  0.386050135
    263, 0.0725353584,  0.539512992
    264,  0.275613546,  0.923054874
    265, 0.0670531243,  0.311065078
    266,  0.921476901,  0.233645797
    267,  0.688209295, 0.0745684355
    268,  0.648859799, 0.0731483847
    269,  0.471360564, 0.0885269046
    270,  0.384460568, 0.0800120085
    271, 0.0694270357,  0.235881582
    272,  0.271813989, 0.0708761662
    273,   0.23478204, 0.0721738338
    274,  0.196485266, 0.0757010877
    275,  0.157174677,  0.080221124
    276,  0.777004361,  0.923597574
    277,  0.920460224,  0.661967397
    278,  0.920036137,  0.621899486
    279,  0.920292497,  0.458859235
    280,  0.924310803,  0.383015215
    281,  0.804113269,  0.078630574
    282,  0.923036218,  0.271119714
    283,  0.842687249, 0.0793092027
    284,  0.881621301, 0.0794589072
    285,  0.919995248,  0.157364637
    286,  0.920249522,  0.118394174
    287,  0.624929428,  0.925636113
    288,    0.9260782,  0.776544034
    289,  0.739218414,  0.924671292
    290,  0.929290116,  0.812973738
    291,   0.92983526,  0.848447263
    292,  0.851967871,  0.922802329
    293,  0.888794184,  0.923528314
    294, 0.0735717043,  0.617208302
    295,  0.198091835,   0.91757679
    296, 0.0720464066,  0.729379773
    297, 0.0731921718,  0.767022669
    298, 0.0752303526,  0.804612815
    299,  0.077357851,  0.842179954
    300, 0.0791652575,   0.91963011
    301,  0.920857549, 0.0791522115
    302,   0.92792207,  0.885764718
    303, 0.0716516078,  0.197726071
    304,   0.15887852,  0.917267442
    305, 0.0767299235,  0.119514883
    306,   0.10206382,  0.420801848
    307,  0.506861746,   0.88809818
    308,  0.428565741,  0.892642856
    309,  0.106462456,   0.49713403
    310,  0.391047686,   0.89345789
    311,  0.104050368,  0.458624989
    312,  0.877237678,  0.495788932
    313,  0.516827941,  0.100005761
    314,  0.547664464,  0.885690689
    315,  0.108648181,  0.536429942
    316,  0.881762624,  0.455795795
    317,  0.870061278,  0.540885627
    318,   0.56199193,  0.104662552
    319,  0.588029921,  0.887621403
    320,  0.110417724,  0.576109052
    321,  0.100357711,  0.383493364
    322,  0.885081947,  0.417992532
    323,  0.463829905,  0.126141652
    324,  0.099589929,  0.346560895
    325,  0.354151964,  0.893312514
    326,  0.317054003,  0.890445828
    327,  0.423313737,    0.1178248
    328,   0.88127178,  0.585787058
    329,  0.604918897,  0.106423162
    330,    0.8795771,  0.158550754
    331,  0.855470359,  0.882373512
    332,  0.160518289,  0.124755718
    333,   0.11667262,  0.838674426
    334,  0.645720482,  0.108088031
    335,  0.881837189,   0.66637826
    336,  0.883312464,   0.62604934
    337,  0.201725557,  0.110754035
    338,  0.112329103,  0.801110685
    339,  0.840900362,  0.119009383
    340,  0.894910157,  0.818590343
    341,  0.801902533,  0.117956363
    342,  0.879557729,  0.197717264
    343,  0.817499638,  0.883049905
    344,  0.237900183,  0.105820216
    345,  0.107978851,  0.763806164
    346,  0.881151497,  0.235786691
    347,  0.778918684,  0.885362387
    348,  0.884425938,  0.272919059
    349,  0.740902841,  0.887661636
    350,   0.27278617,  0.104390584
    351,  0.106042959,   0.72665441
    352,  0.111010097,  0.615457952
    353,  0.887461007,   0.38153258
    354,  0.627532899,  0.889496505
    355,  0.379857093,  0.123258784
    356, 0.0999332294,  0.310056567
    357,  0.279569924,    0.8856318
    358,  0.685310662,  0.110401355
    359,  0.880184472,  0.706900895
    360,  0.888432384,  0.784192026
    361,   0.88720119,   0.30961898
    362,   0.76322633,  0.115890272
    363,  0.703377426,  0.889347136
    364,   0.30681622,  0.105062634
    365,    0.1073642,    0.6907956
    366,   0.88827318,   0.34583205
    367,  0.341732532,  0.108876824
    368,  0.665783405,  0.890054464
    369,  0.109499566,  0.653911412
    370,  0.883537531,  0.745979905
    371,  0.724397898,  0.113159336
    372,  0.240580559,   0.87908566
    373,  0.200863302,  0.873761475
    374,   0.10147243,  0.273615777
    375,  0.103995062,   0.23701942
    376,   0.11899592,  0.918268502
    377,  0.074359335,   0.15882504
    378,   0.88048619,   0.11899846
    379,  0.891479194,  0.884999752
    380,  0.118843727,  0.877856255
    381,  0.159857899,  0.874911666
    382,  0.111917377,  0.161434248
    383,  0.131224677,  0.344789535
    384,  0.132054508,  0.309754997
    385,  0.321610063,  0.856393993
    386,  0.592404306,  0.851776063
    387,  0.847751439,  0.413692087
    388,  0.147423252,  0.572878778
    389,   0.28650409,  0.850383103
    390,  0.399155736,  0.158564493
    391,  0.149782613,   0.61421293
    392,   0.63112998,  0.854808629
    393,  0.720744371,  0.149714917
    394,  0.681884229,  0.145178199
    395,  0.852447033,  0.345944077
    396,  0.834525347,   0.71206367
    397,  0.845631719,  0.666975379
    398,  0.848637521,  0.593298376
    399,   0.84359169,  0.564698935
    400,  0.559631646,  0.140778869
    401,  0.602838159,  0.140060827
    402,  0.447486937,  0.158088341
    403,  0.390836895,  0.859168172
    404,   0.42318821,  0.144116908
    405,  0.134582102,   0.41705358
    406,  0.356135577,  0.861257493
    407,  0.427664161,  0.858601272
    408,  0.137595028,   0.45429343
    409,  0.132073507,  0.380631417
    410,  0.504093707,  0.852396846
    411,  0.144185722,  0.532277644
    412,  0.509065509,  0.144881308
    413,   0.83867985,  0.487661958
    414,  0.548930168,  0.843257427
    415,  0.843909264,  0.450337976
    416,  0.839018345,  0.159064636
    417,  0.861450076,  0.837243438
    418,  0.642973542,  0.141708687
    419,  0.849617064,  0.628519356
    420,  0.248748302,  0.839749515
    421,  0.134628728,  0.274746388
    422,  0.465195686,  0.856568575
    423,  0.140827671,  0.492612571
    424,  0.829792023,  0.523516953
    425,  0.241788954,  0.137948066
    426,  0.140580401,  0.759013236
    427,  0.838717878,   0.23974748
    428,  0.779209018,   0.84776175
    429,  0.210647941,  0.142066807
    430,  0.157839447,  0.833072305
    431,  0.741456926,  0.851375222
    432,  0.305972844,  0.138939396
    433,  0.137235537,  0.724525988
    434,  0.846197307,  0.276862919
    435,  0.704755187,  0.853865921
    436,  0.142294839,  0.691213429
    437,  0.332716316,  0.135029316
    438,  0.146140039,  0.654510081
    439,  0.851248622,  0.311776578
    440,  0.668260872,  0.855188727
    441,  0.845101058,  0.755073249
    442,  0.852199852,  0.795073807
    443,   0.75989598,  0.154366598
    444,  0.799086273,    0.1578812
    445,  0.107395954,   0.19997485
    446,    0.1384902,  0.239464432
    447,  0.163202763,   0.31049192
    448,   0.32943821,  0.820740283
    449,  0.814649522,  0.373841941
    450,  0.601205349,  0.817862809
    451,  0.161459282,  0.343183935
    452,  0.357307732,  0.835210443
    453,  0.371451795,  0.182210341
    454,   0.81798774,  0.595868766
    455,  0.193241954,  0.613791883
    456,  0.423261136,  0.183117598
    457,  0.813138843,  0.559080482
    458,  0.677476406,  0.178783923
    459,  0.180339903,  0.657900274
    460,  0.635652363,  0.821271539
    461,  0.564624012,  0.175575599
    462,  0.802107155,  0.691626787
    463,  0.816928864,  0.345829159
    464,  0.527982652,  0.184718058
    465,  0.571541131,   0.81006521
    466,  0.182567403,  0.567328274
    467,  0.349491417,  0.155727983
    468,  0.448729694,  0.205146641
    469,  0.640403092,  0.174249113
    470,  0.787301898,   0.65542233
    471,  0.167017698,  0.277556032
    472,  0.295679033,  0.819062829
    473,  0.386704594,  0.821157277
    474,  0.818656921,  0.628250301
    475,  0.170653224,  0.448557913
    476,  0.426918715,  0.826522052
    477,  0.174607113,  0.486697912
    478,  0.166285142,   0.41213277
    479,  0.162695542,  0.377161831
    480,  0.454597116,  0.784755409
    481,  0.603198171,   0.17234315
    482,  0.496041745,  0.818801045
    483,   0.47556296,  0.178228214
    484,  0.527591884,  0.809977531
    485,  0.178779438,  0.526903927
    486,  0.801636696,  0.479527622
    487,  0.715481222,  0.185164049
    488,   0.79697752,  0.736424744
    489,  0.181137174,  0.698359072
    490,  0.179645151,  0.209431797
    491,   0.20498392,  0.823754013
    492,  0.215435892,  0.175623491
    493,  0.183945864,  0.782958806
    494,  0.705422878,  0.818747878
    495,  0.670514405,  0.820997238
    496,  0.273106456,  0.168127507
    497,  0.161573574,   0.72481364
    498,  0.817679584,  0.314924955
    499,   0.78929776,  0.248404145
    500,  0.740785956,  0.815801203
    501,  0.808560073,  0.768211901
    502,  0.754816473,  0.193052739
    503,   0.31145978,  0.178769663
    504,  0.814887941,   0.80456835
    505,  0.795228302,  0.199825525
    506,  0.173451886,    0.2436077
    507,  0.193658605,  0.312624395
    508,  0.331314117,  0.773651958
    509,  0.184598714,  0.147765219
    510,  0.189909801,  0.341683358
    511,  0.810274482,  0.407292992
    512,  0.356223643,  0.795798838
    513,  0.564377785,   0.77761668
    514,   0.39699471,  0.207347274
    515,  0.607637525,  0.783189595
    516,  0.787279785,  0.576108813
    517,  0.197114855,  0.282828391
    518,  0.423411548,   0.22973974
    519,  0.285041958,  0.777470052
    520,  0.341774046,  0.209212661
    521,  0.227789089,  0.589397132
    522,  0.571765065,  0.207873553
    523,  0.226598173,  0.639841557
    524,  0.671765566,   0.21095258
    525,   0.78308028,  0.677428722
    526,  0.796743095,  0.512185395
    527,  0.497309208,  0.203706369
    528,   0.78886193,  0.599929214
    529,  0.548684537,  0.791032732
    530,  0.772892773,   0.43787694
    531,  0.473849028,  0.228250787
    532,  0.213353589,  0.557723522
    533,   0.78920716,  0.627886951
    534,  0.604742348,  0.202272639
    535,  0.192224219,  0.372376353
    536,  0.637070775,  0.206021994
    537,  0.206954464,  0.670106947
    538,  0.403477311,  0.789634824
    539,  0.707762539,  0.218551978
    540,  0.775620818,  0.713000119
    541,  0.197545558,  0.405173063
    542,  0.491060883,  0.786126554
    543,  0.422030777,  0.766413093
    544,  0.203747019,  0.441056043
    545,   0.63987869,  0.790003657
    546,  0.206986859,  0.479229003
    547,  0.763055384,  0.474749982
    548,  0.516291261,  0.786686003
    549,  0.236031383,  0.786894143
    550,  0.213238552,  0.761229694
    551,  0.257607907,  0.192666233
    552,  0.223850563,  0.214615956
    553,  0.756090581,  0.288647145
    554,  0.213312387,  0.714744806
    555,  0.739769876,  0.779744327
    556,  0.705179632,  0.783040047
    557,  0.773531377,  0.778248608
    558,  0.811237454,  0.285961837
    559,  0.258837134,  0.241668314
    560,  0.745663583,    0.2303745
    561,   0.77720356,  0.811731458
    562,   0.81864053,  0.842911601
    563,  0.837553263,  0.199736223
    564,   0.20787102,  0.251486063
    565,  0.260215223,   0.75794816
    566,  0.213332847,  0.341444522
    567,   0.35159412,  0.750688672
    568,   0.22890158,  0.316979378
    569,  0.306609362,  0.752738595
    570,  0.775709748,  0.400181085
    571,  0.644664049,   0.73445648
    572,  0.399425238,  0.255255699
    573,   0.74308902,  0.401763678
    574,  0.370138735,  0.234557196
    575,  0.221472204,   0.36362192
    576,  0.601794899,  0.736086488
    577,  0.728371084,  0.575207412
    578,  0.549112856,  0.253002614
    579,  0.251021057,  0.614340603
    580,  0.766928375,  0.530299485
    581,  0.252283007,  0.569179952
    582,  0.581214309,  0.235229358
    583,  0.449207455,  0.251544714
    584,  0.642922342,  0.765955269
    585,  0.760771334,  0.628948033
    586,  0.662547231,  0.264807463
    587,  0.762478709,  0.655844808
    588,  0.227600455,  0.394560963
    589,  0.504323244,  0.253792465
    590,  0.394727111,  0.749026775
    591,  0.697148204,  0.249579176
    592,  0.776585579,  0.354103863
    593,  0.253861636,  0.662646532
    594,  0.740542948,  0.661061466
    595,  0.628982604,  0.240320176
    596,  0.767397165,  0.507743955
    597,  0.744444549,  0.431771636
    598,  0.531558335,  0.763444126
    599,  0.465389103,  0.746918619
    600,  0.236630768,  0.471261293
    601,  0.271700054,  0.549723268
    602,  0.314455092,  0.239367023
    603,   0.49798733,  0.756068647
    604,  0.214326665,  0.521317899
    605,  0.232648492,  0.689279079
    606,  0.667047858,  0.752668023
    607,  0.236673534,  0.736592352
    608,  0.237593293,   0.26877436
    609,  0.285538435,  0.214033157
    610,  0.250948906,   0.34755975
    611,  0.345473021,  0.299015254
    612,  0.598906815,  0.714211702
    613,  0.302069008,  0.369174421
    614,  0.349746644,  0.706667781
    615,  0.666252851,   0.72155571
    616,  0.575234652,  0.267363638
    617,  0.732770085,  0.371445537
    618,  0.273691982,  0.590226114
    619,  0.426202714,  0.274656206
    620,  0.729515314,  0.604054689
    621,  0.371358991,  0.728443623
    622,   0.59824115,  0.256825536
    623,     0.286192,  0.383943021
    624,  0.343315274,  0.268404752
    625,  0.276837885,  0.637268245
    626,  0.717409372,  0.410102129
    627,   0.56639576,  0.726977646
    628,  0.287733436,  0.421201766
    629,  0.291183501,  0.564167082
    630,  0.733573973,  0.633463979
    631,  0.433490515,  0.744047225
    632,  0.684264004,  0.282158881
    633,  0.638076901,  0.272685051
    634,  0.714871168,  0.672645032
    635,  0.734664381,  0.456586599
    636,  0.695951343,  0.714184523
    637,   0.48320359,  0.720007479
    638,  0.506459475,  0.727469504
    639,  0.258030385,  0.528130531
    640,  0.279165745,  0.685541511
    641,  0.741533697,  0.323842198
    642,  0.282405585,  0.732045293
    643,  0.728366852,  0.261789799
    644,  0.306843758,  0.292366117
    645,  0.727675498,  0.703319371
    646,  0.724823117,  0.302228749
    647,  0.258941114,  0.293404102
    648,  0.299952656,  0.343400329
    649,  0.325453669,  0.685972095
    650,  0.626141787,  0.680438995
    651,  0.698544145,  0.387969136
    652,  0.675800741,  0.414319068
    653,  0.571116984,  0.693824708
    654,    0.3432827,  0.333117455
    655,  0.722512066,  0.548800349
    656,  0.374849945,  0.681902647
    657,  0.544894397,   0.28864029
    658,  0.336722881,  0.390990585
    659,  0.304136187,   0.61045444
    660,  0.308498353,  0.579903722
    661,  0.303116739,   0.39909786
    662,  0.696339488,  0.608319581
    663,  0.466303706,  0.314355284
    664,  0.425377667,   0.71547997
    665,  0.679357708,  0.652125597
    666,  0.273278385,  0.448828608
    667,  0.608861446,  0.283223808
    668,   0.51210469,  0.285914004
    669,  0.713130772,  0.342379361
    670,  0.700743616,  0.423265129
    671,  0.705987275,   0.64179194
    672,  0.740762472,  0.515424132
    673,  0.533941746,  0.700854957
    674,  0.300510526,  0.662534654
    675,  0.651862681,   0.29891178
    676,  0.441689402,  0.707077324
    677,  0.288828015,  0.539903641
    678,  0.323552907,  0.315891385
    679,  0.268110067,  0.491448015
    680,  0.303976476,  0.708196342
    681,  0.696990073,  0.314055115
    682,  0.278969079,  0.318874896
    683,  0.611189306,  0.654106677
    684,  0.669799447,  0.397178382
    685,  0.663962126,  0.574380577
    686,  0.327554017,  0.355239779
    687,  0.344843298,  0.665522277
    688,  0.371916175,  0.334051311
    689,  0.582070589,  0.313925356
    690,  0.649820387,  0.632911205
    691,   0.41729176,  0.333804995
    692,  0.354398578,  0.624750018
    693,  0.679173648,  0.357748568
    694,  0.622987688,  0.354770422
    695,  0.382174015,  0.650779843
    696,  0.554926634,  0.668246627
    697,  0.537986398,  0.321776927
    698,  0.666386366,  0.436734796
    699,  0.692791224,   0.53659606
    700,  0.337524921,  0.419819623
    701,  0.337212294,  0.560585201
    702,  0.434007734,  0.649960637
    703,  0.497789174,  0.317646295
    704,  0.310506582,  0.434401184
    705,  0.714549005,  0.502639472
    706,  0.494345725,   0.67194283
    707,  0.472628176,  0.690199852
    708,   0.28654936,  0.476394325
    709,  0.630691946,  0.637559056
    710,  0.624129355,  0.385026902
    711,  0.373966336,  0.633246362
    712,  0.652660847,  0.354032159
    713,  0.347135037,  0.367191494
    714,  0.321441829,  0.643882155
    715, 0.0386565365, 0.0792291537
    716,  0.691282809,  0.510457516
    717,  0.611225128,  0.401382744
    718,  0.497878909,  0.349105537
    719,  0.396862388,  0.396076232
    720,  0.330828905,  0.496748686
    721,  0.380819529,  0.605675101
    722,  0.496637106,  0.648187459
    723,  0.701816738,  0.578359604
    724,  0.577379107,  0.288417131
    725,  0.320650548,   0.41095835
    726,  0.435579985,  0.689733863
    727,  0.408251107,  0.675518036
    728,  0.672804713,  0.590227187
    729,   0.61793375,  0.314235389
    730,  0.343501151,  0.407137752
    731,  0.437529176,   0.72829318
    732,  0.253473133,  0.380089611
    733,  0.604941964,  0.224975258
    734,  0.240393773,  0.431734115
    735,   0.39170593,  0.709224105
    736,  0.653425097,   0.69188267
    737,  0.713447154,  0.282167792
    738,  0.785393476,  0.541640103
    739,  0.757997751,  0.684844851
    740,  0.806788385,  0.443907648
    741,  0.149207532,  0.794889629
    742,  0.257958233,  0.710731208
    743,  0.851104915,  0.378829628
    744,  0.702883542,  0.747137368
    745,  0.285554886,  0.266985506
    746,  0.814849615,  0.660784245
    747,   0.74268949,  0.738703072
    748,  0.461575359,  0.822687566
    749,  0.170378491,   0.74998033
    750,  0.265141875,  0.805773437
    751,  0.599502325,  0.509964168
    752,  0.597898364,  0.520393848
    753,  0.595016003,  0.531176209
    754,  0.584766984,  0.553052366
    755,   0.57714355,   0.56363076
    756,  0.555343926,  0.583288968
    757,  0.520540476,  0.597867727
    758,  0.477895617,  0.597526371
    759,  0.443853945,   0.58275038
    760,  0.422709703,  0.563452423
    761,  0.415368825,   0.55326879
    762,  0.405446887,  0.532553136
    763,  0.402522475,   0.52231884
    764,  0.400759846,  0.512304187
    765,  0.400245458,  0.492997974
    766,  0.401452839,  0.483016014
    767,  0.403827727,  0.472597599
    768,  0.412800878,  0.451047838
    769,  0.419710487,  0.440387964
    770,  0.439311087,  0.420521349
    771,  0.453031331,    0.4117167
    772,  0.488426417,  0.400671989
    773,  0.527892053,  0.403968573
    774,  0.560330391,  0.420248866
    775,  0.579415202,  0.439228088
    776,  0.586161792,  0.449244261
    777,  0.595318556,  0.469761342
    778,  0.597984314,  0.480023235
    779,  0.599512637,  0.490139395
    780,  0.539952636,           0.
    781,           1.,  0.459466457
    782,  0.659545839,           1.
    783,           0.,  0.660093784
    784,  0.385278404,  0.503280342
    785,  0.387133479,  0.514672041
    786,  0.615374863,  0.488063127
    787,  0.617121041,  0.500264883
    788,  0.384429097,  0.491275966
    789,  0.389998436,   0.52581048
    790,  0.612600446,  0.476472497
    791,  0.617188752,  0.513288379
    792,  0.608731568,  0.465157002
    793,  0.393829048,  0.536823571
    794,  0.385329545,  0.478549331
    795,  0.603867352,  0.454086363
    796,  0.614128768,  0.526387691
    797,  0.398662567,  0.547816098
    798,  0.389438719,  0.466002584
    799,  0.598223269,  0.443171918
    800,  0.609461725,  0.538905263
    801,  0.404578328,  0.558886349
    802,  0.395135701,  0.453846365
    803,  0.592166364,  0.432184041
    804,  0.603574157,  0.550925553
    805,  0.411504209,   0.57007587
    806,  0.586441815,  0.420772851
    807,  0.401879579,  0.442013115
    808,   0.59644413,  0.563299477
    809,  0.409819007,  0.430195034
    810,  0.419226855,  0.581641972
    811,  0.587939322,  0.576221943
    812,  0.582504749,  0.408300549
    813,  0.419377476,  0.418444812
    814,  0.427140027,  0.593986034
    815,  0.577059627,  0.589390934
    816,  0.431087792,  0.406805813
    817,  0.567239463,  0.388052106
    818,  0.433496416,  0.607228935
    819,   0.56297344,  0.600936532
    820,  0.445488542,  0.395367563
    821,  0.462983757,  0.384171277
    822,  0.551017046,  0.385856867
    823,  0.457728624,  0.623139679
    824,   0.48523578,   0.37234515
    825,  0.545808434,  0.612473249
    826,  0.531794012,  0.382318676
    827,  0.477185398,  0.623037279
    828,  0.499253273,   0.62381804
    829,  0.609405398,  0.373089641
    830,  0.370290756,   0.50510323
    831,  0.368231982,  0.491247386
    832,  0.634465754,  0.498830348
    833,   0.37312156,  0.517794311
    834,  0.631740391,  0.484770685
    835,  0.637087107,   0.51625526
    836,  0.366717607,  0.473979264
    837,  0.376857251,  0.529882431
    838,  0.627821147,  0.472003132
    839,  0.622769833,  0.459750116
    840,  0.629975915,  0.533138216
    841,   0.38133809,  0.541516185
    842,  0.375571072,  0.458536446
    843,  0.616979659,  0.448168874
    844,  0.624260902,  0.547399282
    845,  0.386538297,  0.552915752
    846,   0.38291046,  0.445322782
    847,  0.610963762,  0.437173665
    848,  0.616822064,  0.559826255
    849,  0.392445028,  0.564335465
    850,  0.390551388,  0.432810664
    851,  0.605261147,  0.426469058
    852,  0.608813763,  0.572799087
    853,  0.398786634,  0.575809538
    854,  0.399063617,  0.420061797
    855,  0.600322366,  0.586999416
    856,  0.598354816,  0.403831869
    857,  0.408892095,  0.406974912
    858,  0.410215288,   0.60027945
    859,   0.59034133,  0.605518222
    860,  0.420656979,  0.393564463
    861,  0.584802806,  0.387611091
    862,  0.413347453,  0.614077747
    863,  0.572724581,  0.617855549
    864,  0.434605032,  0.379823059
    865,  0.622102797,  0.407464027
    866,  0.603499949,  0.343557507
    867,  0.573826075,  0.363809049
    868,  0.450450629,  0.365745634
    869,  0.435490519,  0.627714574
    870,  0.556838512,  0.631156147
    871,  0.650290728,  0.577377498
    872,  0.466667265,  0.350785285
    873,  0.351359606,  0.494349986
    874,  0.652680218,  0.494274825
    875,  0.655490756,   0.50846684
    876,  0.349220514,  0.480257601
    877,  0.362868339,  0.534745216
    878,  0.649808466,  0.479647309
    879,  0.650165558,   0.52825135
    880,  0.644062281,  0.466151685
    881,  0.367820799,  0.546834409
    882,  0.354862243,  0.460181206
    883,  0.630587161,  0.441139966
    884,  0.644775331,  0.541114986
    885,  0.373359531,  0.558395922
    886,  0.363161981,  0.448775172
    887,  0.624009788,  0.430322617
    888,  0.379397452,  0.569920003
    889,  0.641771495,  0.558197141
    890,  0.617733002,  0.420630127
    891,  0.370411277,  0.435791224
    892,  0.385461986,  0.581243157
    893,  0.396584988,  0.616256356
    894,  0.387310296,  0.410160452
    895,  0.609092593,  0.608098507
    896,  0.579717219,  0.339570522
    897,  0.600643873,  0.388609141
    898,  0.638151109,  0.397831649
    899,   0.40793997,  0.381011605
    900,  0.555063665,  0.362402499
    901,  0.595632613,  0.624819279
    902,  0.569665611,  0.648298204
    903,  0.660568357,  0.558545113
    904,   0.51624167,  0.357322484
    905,  0.434916615,  0.348914266
    906,  0.610866547,  0.622867584
    907,  0.628477752,  0.601728559
    908,  0.673239768,  0.490834862
    909,   0.62914896,  0.412407339
    910,  0.661329448,  0.520472467
    911,  0.612981319,  0.411376506
    912,  0.342079699,  0.466838688
    913,  0.378668904,  0.423387527
    914,  0.659726977,  0.534854531
    915,  0.374189347,  0.400829673
    916,  0.359171718,  0.564744353
    917,  0.644722044,  0.432557851
    918,     0.675448,  0.543086588
    919,  0.370961368,  0.589199722
    920,  0.382349342,  0.616881371
    921,   0.65105772,  0.409611583
    922,  0.382626742,  0.385665089
    923,  0.349999815,  0.439889848
    924,  0.391646683,  0.591960847
    925,  0.405018538,  0.352080077
    926,  0.521916926,  0.339588463
    927,   0.34305349,   0.52716428
    928,  0.353053153,  0.553219855
    929,  0.651887178,  0.445033103
    930,    0.5857054,  0.660625815
    931,  0.541820526,  0.644889474
    932,  0.557823777,  0.339737415
    933,   0.60105747,  0.636684179
    934,  0.621508658,   0.58163929
    935,  0.355759978,   0.42473188
    936,   0.67286253,  0.505657911
    937,  0.672048032,   0.51598686
    938,  0.393039644,  0.369406879
    939,  0.322486103,  0.520933747
    940,  0.334930539,  0.452776074
    941,  0.355972826,  0.589927197
    942,  0.614253998,  0.594180167
    943,  0.343404651,   0.57483995
    944,  0.640736997,  0.613852262
    945,  0.508962095,  0.332749516
    946,  0.358780086,  0.393738836
    947,   0.53883189,  0.340566576
    948,  0.613710463,  0.637993813
    949,  0.697630465,  0.491388261
    950,  0.331355393,  0.546860218
    951,  0.655174255,  0.600036025
    952,  0.355739146,  0.408983201
    953,   0.31354779,  0.507848561
    954,  0.328103602,  0.472806245
    955,  0.687103152,  0.451074451
    956,  0.376598477,  0.358974427
    957,  0.669781804,  0.530573249
    958,  0.312851906,  0.553310215
    959,  0.481687188,  0.333220333
    960,  0.521535397,  0.324889421
    961,   0.32451874,  0.580156088
    962,  0.387731165,  0.340862185
    963,  0.315241843,  0.482613087
    964,  0.335803688,  0.483362645
    965,   0.70194906,   0.46228072
    966,  0.337607801,  0.513220847
    967,  0.320451975,  0.567691624
    968,  0.431093007,  0.314345002
    969,  0.682987273,   0.43118158
    970,  0.678994834,  0.557907343
    971,  0.395996243,  0.320544451
    972,  0.359131515,  0.347854733
    973,  0.301985115,   0.51892966
    974,  0.394365221,  0.631679952
    975,  0.515825868,  0.307863861
    976,  0.365282506,  0.605685353
    977,  0.303990841,  0.466419369
    978,  0.349611223,  0.612841904
    979,    0.3675071,  0.312541187
    980,  0.409809232,  0.652870834
    981,   0.40814656,  0.297751516
    982,  0.486364037,  0.297473848
    983,  0.657487929,  0.381030589
    984,   0.28246814,  0.514585972
    985,  0.513299763,  0.674597085
    986,  0.631379247,  0.658307135
    987,   0.36158821,  0.635469079
    988,  0.332944334,  0.436043531
    989,  0.533166766,  0.674909413
    990,  0.332476676,  0.613121927
    991,  0.583050191,  0.706079185
    992,  0.380171537,  0.282559067
    993,  0.471732706,   0.27415663
    994,  0.710769355,  0.443805456
    995,  0.383590937,  0.627364516
    996,  0.490968823,  0.695542634
    997,  0.511340559,  0.699868858
    998,  0.475144655,  0.669543982
    999,  0.595065355,  0.688003778
   1000,  0.576705337,  0.677206933
   1001,  0.455174863,  0.668719888
   1002,  0.555542409,  0.697718382
   1003,  0.962330222,  0.961796463
   1004, 0.0394057557,  0.960136712
   1005, 0.0390205123, 0.0396543965
   1006,  0.503534138, 0.0246518254
   1007,  0.510319054,  0.377967745
   1008,  0.524179518,  0.625226557
   1009,  0.600772202,  0.415536553
   1010,  0.476443678,  0.647176564
   1011,  0.405085564,  0.587646306
   1012,  0.529968798,  0.656098545
   1013,  0.926059723,  0.923801601
   1014,  0.077832222, 0.0799298137
   1015,  0.390265167,  0.928189874
   1016,  0.611164629,  0.391890407
   1017,  0.637461364,  0.453046888
   1018,  0.629815638,   0.56943804
   1019,   0.64011395,   0.36871177
   1020,  0.395060062,  0.603828371
   1021,  0.433320075,  0.670942187
   1022,  0.358276397,   0.52194941
   1023,  0.354176998,  0.508404613
   1024,  0.467053622,  0.890976191
   1025,  0.594635248,  0.646570385
   1026,  0.660156965,  0.458198935
   1027,  0.639193416,  0.579523206
   1028,  0.621609688,  0.610158324
   1029,  0.626210093,  0.621329129
   1030,  0.380971611,  0.596003115
   1031,  0.556504846,  0.316309154
   1032,  0.641132295,  0.336357892
   1033,   0.45464465,  0.687067032
   1034,  0.414346009,  0.696900308
   1035,  0.448474497,  0.294280529
   1036,  0.356603354,  0.647130191
   1037,  0.623169959,  0.398340672
   1038,  0.895964205,  0.848401785
   1039,  0.116741039,  0.121324256
   1040,  0.604692221,  0.671038091
   1041,  0.680000722,  0.574726045
   1042,  0.299612015,  0.494749308
   1043,  0.319391966,  0.456991374
   1044,  0.454089493,  0.701116025
   1045,  0.410185188,  0.729800403
   1046,  0.532746971,  0.306109101
   1047,  0.667302907,  0.325248003
   1048,   0.53426528,  0.730380595
   1049,  0.327820688,  0.729588866
   1050,  0.376603961,  0.771602333
   1051,  0.339690834,  0.632583618
   1052,  0.327296853,  0.532987416
   1053,  0.682066143,  0.523383617
   1054,  0.147779763,   0.16714941
   1055,  0.142756835,  0.204060733
   1056,   0.69092387,  0.475402385
   1057,  0.770813465,  0.751842082
   1058,  0.365905523,  0.376269192
   1059,  0.368753791,  0.619669199
   1060,  0.613429189,  0.700128198
   1061,  0.699816048,  0.555225432
   1062,   0.65433991,  0.658891916
   1063,  0.671183228,   0.44841367
   1064,  0.659613073,  0.422898501
   1065,  0.355225831,  0.580567598
   1066,  0.540984392,  0.218152046
   1067,  0.514371455,  0.225046098
   1068,  0.452902049,  0.723148644
   1069,  0.309104711,   0.53423351
   1070,  0.295791715,  0.449927568
   1071,  0.761646569,  0.567075133
   1072,  0.562544882,  0.757318556
   1073,  0.309807658,  0.796092629
   1074,   0.35574472,  0.599188805
   1075,  0.344974071,  0.603332102
   1076,  0.341881931,  0.591561615
   1077,   0.42784977,  0.801297843
   1078,   0.32595849,  0.596954107
   1079,   0.19436793,   0.73386091
   1080,  0.466173708,  0.709270835
   1081,  0.629263401,  0.715859592
   1082,  0.691690028,  0.408941776
   1083,  0.718337595,  0.475241899
   1084,  0.734220266,    0.4923774
   1085,  0.258137017,  0.470470697
   1086,  0.713099182,   0.52308017
   1087,  0.686476111,  0.682982981
   1088,  0.665753245,  0.240877628
   1089,  0.273903668,  0.137417048
   1090,  0.588216484,  0.763596594
   1091,  0.582204163,  0.784570575
   1092,  0.759871721,  0.600331664
   1093,  0.244045317,  0.503830492
   1094,   0.72465688,  0.428501636
   1095,   0.78866905,   0.31043309
   1096,  0.671417296,  0.787391782
   1097,  0.670726657,  0.624059319
   1098,  0.317742616,  0.377992153
   1099,  0.624302924,  0.754364431
   1100,  0.181109473,  0.175439656
   1101,  0.245425761,  0.168062195
   1102,  0.747667968,  0.540513992
   1103,  0.267188549,  0.404486746
   1104,  0.235728577,  0.544809818
   1105,   0.27271831,  0.363887757
   1106,  0.221012726,  0.289097369
*Element, type=CPE3
 1, 1038,  417,  340
 2,  449,  592,  463
 3,  537,  489,  459
 4, 1095,  558,  498
 5,  571,  615,  606
 6,  551, 1101,  496
 7,  587,  739,  594
 8, 1104,  532,  604
 9,  646,  553,  641
10,  601,  677,  629
11, 1078,  990,  659
12, 1041,  728,  685
13,  732,  610, 1105
14, 1079,  489,  554
15,  952,  125,  935
16,  960,  926,  945
17,  955,  994,  965
18,  660,  967,  961
19,  898, 1037,  710
20,  990, 1075,  978
21, 1069,  939, 1052
22, 1073,  448,  472
23, 1090,  515, 1091
*Element, type=CPE4
  24,  812,  806,   12,  774
  25,  861,  897,  856,  812
  26,  185,  184,  237,  242
  27,   27,   26,  161,  134
  28,  824,  718,  904, 1007
  29,   11,  822,  817,  774
  30,  164, 1006,   32,  780
  31,  165,   33,   32, 1006
  32,  798,  842,  846,  802
  33,  891,  886,  923,  935
  34,  238, 1014,  715, 1005
  35,  305,  233,  715, 1014
  36,  148,  102,  101,  147
  37,  102,  148,  149,  103
  38,  793,  841,  837,  789
  39,  841,  845,  885,  881
  40,  205,  108,  107,  204
  41,  108,  205,  206,  783
  42,  325,  260,  221,  326
  43,  823,  869,  818,    4
  44,  869,  702,  980,  126
  45,  142,   78,   77,  141
  46,   78,  142,  143,   79
  47,  863,  870,  825,  819
  48,  902,  696,  931,  870
  49,  398,  399,  317,  328
  50,  808,  811,  755,  754
  51,  808,  852,  855,  811
  52,  796,  840,  844,  800
  53,  884,  889,  844,  840
  54,  839,  838,  790,  792
  55,  929, 1017,  883,  917
  56,  194,   84,   83,  193
  57,   84,  194,  195,  782
  58,  813,  857,  860,  816
  59,  816,  820,  771,  770
  60,   21,   15,   68,  192
  61,  192,  219,   22,   21
  62,   24,   23,  159,  160
  63,   25,   24,  160,  133
  64,  133,  161,   26,   25
  65,  134,  162,   28,   27
  66,  162,  163,   29,   28
  67,  136,  135,  256,  217
  68,  135,  136,   31,   30
  69,  136,  164,  780,   31
  70,   33,  165,  166,   34
  71,   34,  166,  167,   35
  72,  166,  165,  269,  239
  73,  374,  356,  265,  231
  74,   36,  168,  169,   37
  75,  270,  240,  168,  167
  76,   37,  169,  170,   38
  77,   39,  171,  172,   40
  78,   40,  172,  173,   41
  79,  174,   42,   41,  173
  80,   92, 1003,   45,   17
  81, 1003,   92,   91,  202
  82,   46,  203,  220,   47
  83,  203,   46,   45, 1003
  84,  200,  199,  241,  292
  85,   48,  175,  176,   49
  86,  175,   48,   47,  220
  87,   49,  176,  177,   50
  88,   52,  178,  138,   53
  89,  178,   52,   51,  137
  90,  137,   51,   50,  177
  91,   54,  179,  180,   55
  92,  179,   54,   53,  138
  93,  316,  312,  413,  415
  94,  139,   56,   55,  180
  95,   56,  139,  140,   57
  96, 1056,  965, 1083,  949
  97,  140,  139,  218,  259
  98,  182,   58,  781,  181
  99,  401,  329,  334,  418
 100,  184,   60,   59,  183
 101,  185,   61,   60,  184
 102,  189,  188,  243,  285
 103,  188,   64,   63,  187
 104,   66,  190,  191,   67
 105,   67,  191,  192,   68
 106,  116, 1004,   69,   18
 107, 1004,  116,  115,  213
 108,  214, 1004,  213,  300
 109,  209,  297,  298,  210
 110,  234,   71,   70,  214
 111,   71,  234,  235,   72
 112,   72,  235,  216,   73
 113,  207,  245,  296,  208
 114,  357,  264,  232,  372
 115,   74,  153,  154,   75
 116,  153,   74,   73,  216
 117,  221,  260,  141,  155
 118,  142,  141,  260, 1015
 119,  141,   77,   76,  155
 120,   79,  143,  144,   80
 121,   80,  144,  145,   81
 122,  722,  124,  985,  706
 123,  989,  985,  124, 1012
 124,  223,  246,  144,  143
 125,  146,   82,   81,  145
 126,   82,  146,  193,   83
 127,  196,   85,  782,  195
 128,  196,  195,  247,  248
 129,  198,   87,   86,  197
 130,  199,   88,   87,  198
 131,   90,  201,  202,   91
 132,  203, 1003,  202, 1013
 133,   93,   16,   44, 1005
 134,   43,  238, 1005,   44
 135,  170,  272,  273,  171
 136,   95,  233,  236,   96
 137,  233,   95,   94,  715
 138,   96,  236,  215,   97
 139,  156,   98,   97,  215
 140,   98,  156,  157,   99
 141,  147,  222,  262,  148
 142,  262,  222,  324,  321
 143,  147,  101,  100,  158
 144,  103,  149,  150,  104
 145,  104,  150,  151,  105
 146,  785,  784,    7,  764
 147,  833,  785,  789,  837
 148,  250,  150,  149,  225
 149,  152,  106,  105,  151
 150,  106,  152,  204,  107
 151,  207,  109,  783,  206
 152,  205,  294,  251,  206
 153,  208,  110,  109,  207
 154,  210,  112,  111,  209
 155,  211,  113,  112,  210
 156,  114,  212,  213,  115
 157,  815,  819,  756,    2
 158,  863,  819,  815,  859
 159,  801,  797,    6,  761
 160,  801,  849,  845,  797
 161,  862,  858,  814,  818
 162,  814,  810,    5,  759
 163,  794,  798,  767,  766
 164,  784,  830,  831,  788
 165,  823,  827, 1010,  121
 166,  757, 1008,  828,   19
 167,  821,  868,  872,  824
 168,  821,  824,  772,   10
 169,  252,  204,  152,  263
 170,  261,  253,  193,  146
 171,  254,  169,  168,  240
 172,  807,  850,  854,  809
 173,  807,  809,  769,  768
 174,  223,  308, 1024,  246
 175,  310,  308,  223, 1015
 176,  995,  974,  695,  711
 177,  126,  974,  893,  862
 178,   35,  167,  168,   36
 179,  868,  821,  820,  864
 180,  868,  905,  122,  872
 181,  796,  800,  753,  752
 182,  787,  832,  835,  791
 183,  183,   59,   58,  182
 184,  799,  795,   13,  776
 185,  799,  847,  843,  795
 186,  323,  269,  313,  412
 187,  257,  313,  269,  165
 188,  867,  817,  822,  900
 189,  896,  867,  900,  932
 190,  786,  834,  832,  787
 191,  779,  778,  790,  786
 192,  255,  279,  316,  322
 193,   57,  140,  181,  781
 194,  186,   62,   61,  185
 195,  163,  162,  267,  268
 196,   30,   29,  163,  135
 197,  217,  257,  164,  136
 198,  197,   86,   85,  196
 199,  180,  179,  278,  258
 200,  155,   76,   75,  154
 201,  143,  142, 1015,  223
 202,  246,  224,  145,  144
 203,  224,  261,  146,  145
 204,  158,  100,   99,  157
 205,  225,  149,  148,  262
 206,  306,  311,  250,  225
 207,  226,  151,  150,  250
 208,  263,  152,  151,  226
 209,  209,  111,  110,  208
 210,  232,  264,  154,  153
 211,  155,  154,  264,  221
 212,   38,  170,  171,   39
 213,  157,  231,  265,  158
 214,   23,   22,  219,  159
 215,   65,  189,  190,   66
 216,  187,   63,   62,  186
 217,  187,  186,  282,  266
 218,  133,  160,  283,  281
 219,  227,  228,  134,  161
 220,  341,  362,  227,  281
 221,  318,  313,  257,  217
 222,  402,  323,  412,  483
 223,  270,  167,  166,  239
 224,  356,  374,  421,  384
 225,  215,  303,  271,  156
 226,  270,  355,  367,  240
 227,  344,  337,  274,  273
 228,  273,  274,  172,  171
 229,  174,  173,  275,  249
 230,  174,  249, 1014,  238
 231,  305, 1014,  249, 1039
 232,   42,  174,  238,   43
 233,   89,  200,  201,   90
 234,  177,  288,  229,  137
 235,  230,  178,  137,  229
 236,  178,  230,  277,  138
 237,  360,  288,  290,  340
 238,  317,  312,  259,  218
 239,  181,  140,  259,  279
 240,  255,  322,  353,  280
 241,  183,  182,  255,  280
 242,  237,  280,  353,  366
 243,  186,  185,  242,  282
 244,  378,  330,  416,  339
 245,  284,  283,  160,  159
 246,   64,  188,  189,   65
 247,  285,  330,  378,  286
 248,  301,  191,  190,  286
 249,  219,  192,  191,  301
 250,  287,  253,  319,  354
 251,  253,  261,  314,  319
 252,  289,  276,  198,  197
 253,  176,  290,  288,  177
 254,  197,  196,  248,  289
 255,  331,  417, 1038,  379
 256,  290,  176,  175,  291
 257,   88,  199,  200,   89
 258,  331,  379,  293,  292
 259,  302, 1013,  293,  379
 260,  202,  201,  293, 1013
 261, 1013,  302,  220,  203
 262,  251,  294,  352,  369
 263,  245,  207,  206,  251
 264,  357,  372,  420,  389
 265,  153,  216,  295,  232
 266,  304,  295,  216,  235
 267,  345,  426,  741,  338
 268,  345,  338,  298,  297
 269,  113,  211,  212,  114
 270,  234,  214,  300,  376
 271,  212,  244,  300,  213
 272,  214,   70,   69, 1004
 273,  256,  135,  163,  268
 274,  404,  402,  456,  390
 275,  468,  456,  402,  483
 276,  180,  258,  218,  139
 277,  413,  486,  740,  415
 278,  486,  547,  530,  740
 279,  403,  407,  308,  310
 280,  158,  265,  222,  147
 281,  409,  405,  306,  321
 282,  465,  414,  484,  529
 283,  484,  414,  410,  482
 284,  422,  410,  307, 1024
 285,  314,  307,  410,  414
 286,  311,  306,  405,  408
 287,  294,  252,  320,  352
 288,  394,  358,  371,  393
 289,  161,  133,  281,  227
 290,  358,  394,  418,  334
 291,  228,  267,  162,  134
 292,  397,  335,  359,  396
 293,  156,  271,  231,  157
 294,  169,  254,  272,  170
 295,  208,  296,  297,  209
 296,  715,   94,   93, 1005
 297,  376,  300,  244,  380
 298,  377,  305, 1039,  382
 299,  184,  183,  280,  237
 300,  563,  427,  499,  505
 301,  257,  165, 1006,  164
 302,  327,  355,  270,  239
 303,  421,  374,  375,  446
 304,  199,  198,  276,  241
 305,  266,  243,  188,  187
 306,  281,  283,  339,  341
 307,  376,  304,  235,  234
 308,  211,  299,  244,  212
 309,  420,  372,  373,  491
 310,  224,  246, 1024,  307
 311,  195,  194,  287,  247
 312,  247,  287,  354,  368
 313,  428,  561,  504,  562
 314,  173,  172,  274,  275
 315,  263,  315,  320,  252
 316,  315,  309,  423,  411
 317,  204,  252,  294,  205
 318,  309,  315,  263,  226
 319,  194,  193,  253,  287
 320,  307,  314,  261,  224
 321,  337,  344,  425,  429
 322,  182,  181,  279,  255
 323,  312,  316,  279,  259
 324,  217,  256,  329,  318
 325,  277,  278,  179,  138
 326,  258,  328,  317,  218
 327,  325,  310, 1015,  260
 328,  321,  306,  225,  262
 329,  311,  309,  226,  250
 330,  346,  342,  243,  266
 331,  228,  227,  362,  371
 332,  269,  323,  327,  239
 333,  367,  364,  254,  240
 334,  337,  332,  275,  274
 335,  303,  377,  382,  445
 336,  347,  343,  241,  276
 337,  229,  370,  359,  230
 338,  348,  346,  266,  282
 339,  444,  505,  502,  443
 340,  301,  284,  159,  219
 341,  286,  190,  189,  285
 342,  243,  342,  330,  285
 343,  286,  378,  284,  301
 344,  349,  347,  276,  289
 345,  442,  504,  501,  441
 346,  504,  561,  557,  501
 347,  220,  302,  291,  175
 348,  292,  293,  201,  200
 349,  292,  241,  343,  331
 350,  291,  302,  379, 1038
 351,  351,  345,  297,  296
 352,  338,  333,  299,  298
 353,  210,  298,  299,  211
 354,  376,  380,  381,  304
 355,  215,  236,  377,  303
 356,  275,  332, 1039,  249
 357, 1039,  332, 1054,  382
 358,  244,  299,  333,  380
 359,  233,  305,  377,  236
 360,  538, 1077,  476,  473
 361,  476, 1077,  480,  748
 362,  541,  544,  475,  478
 363,  403,  310,  325,  406
 364,  392,  386,  450,  460
 365, 1049,  680,  649,  614
 366,  524,  458,  487,  539
 367,  258,  278,  336,  328
 368,  334,  329,  256,  268
 369,  400,  412,  313,  318
 370,  370,  360,  442,  441
 371,  459,  438,  391,  455
 372,  438,  459,  489,  436
 373,  222,  265,  356,  324
 374,  409,  383,  451,  479
 375,  355,  467,  437,  367
 376,  383,  409,  321,  324
 377,  357,  326,  221,  264
 378,  326,  385,  406,  325
 379,  350,  344,  273,  272
 380,  277,  335,  336,  278
 381,  419,  398,  328,  336
 382,  329,  401,  400,  318
 383,  284,  378,  339,  283
 384,  340,  290,  291, 1038
 385,  549,  491,  493,  550
 386,  371,  358,  267,  228
 387, 1067, 1066,  578,  589
 388,  582,  578, 1066,  522
 389,  268,  267,  358,  334
 390,  230,  359,  335,  277
 391,  364,  367,  437,  432
 392,  503,  432,  437,  467
 393,  436,  433,  351,  365
 394,  330,  342,  563,  416
 395,  331,  343,  562,  417
 396,  370,  229,  288,  360
 397,  272,  254,  364,  350
 398,  390,  453,  467,  355
 399,  296,  245,  365,  351
 400,  472,  448,  385,  389
 401,  282,  242,  361,  348
 402,  439,  434,  348,  361
 403,  289,  248,  363,  349
 404,  440,  435,  363,  368
 405,  361,  242,  237,  366
 406,  366,  353,  743,  395
 407,  368,  354,  392,  440
 408,  450,  465, 1091,  515
 409,  682,  644,  678,  648
 410,  369,  352,  391,  438
 411,  750,  472,  389,  420
 412,  352,  320,  388,  391
 413,  743,  353,  322,  387
 414,  354,  319,  386,  392
 415,  390,  355,  327,  404
 416,  231,  271,  375,  374
 417,  295,  373,  372,  232
 418,  349,  363,  435,  431
 419,  449,  511,  570,  592
 420,  443,  362,  341,  444
 421,  368,  363,  248,  247
 422,  384,  421,  471,  447
 423,  369,  365,  245,  251
 424,  431,  428,  347,  349
 425,  362,  443,  393,  371
 426,  389,  385,  326,  357
 427,  295,  304,  381,  373
 428,  384,  383,  324,  356
 429,  303,  445,  375,  271
 430,  552,  490, 1100,  492
 431,  380,  333,  430,  381
 432,  333,  338,  741,  430
 433,  429,  509,  332,  337
 434,  566,  575,  535,  510
 435,  566,  510,  507,  568
 436,  344,  350, 1089,  425
 437,  432, 1089,  350,  364
 438,  448,  452,  406,  385
 439,  512,  473,  452,  448
 440,  319,  314,  414,  386
 441,  465,  529,  513, 1091
 442,  322,  316,  415,  387
 443,  320,  315,  411,  388
 444,  532,  466,  485,  604
 445,  466,  388,  411,  485
 446,  493,  491,  430,  741
 447,  404,  327,  323,  402
 448,  518,  514,  456,  468
 449,  391,  388,  466,  455
 450,  487,  393,  443,  502
 451,  481,  401,  418,  469
 452,  366,  395,  439,  361
 453,  370,  441,  396,  359
 454,  528,  533,  585, 1092
 455,  587,  585,  533,  470
 456,  419,  336,  335,  397
 457,  398,  454,  457,  399
 458,  399,  457,  424,  317
 459,  457,  454,  528,  516
 460,  312,  317,  424,  413
 461, 1088,  595,  536,  524
 462,  453,  390,  456,  514
 463,  478,  475,  408,  405
 464,  508,  512,  448, 1073
 465,  407,  422, 1024,  308
 466,  466,  532,  521,  455
 467,  581,  521,  532, 1104
 468,  408,  423,  309,  311
 469,  447,  451,  383,  384
 470,  465,  450,  386,  414
 471,  464,  412,  400,  461
 472,  672, 1102,  655, 1086
 473,  486,  413,  424,  526
 474,  339,  416,  444,  341
 475,  342,  346,  427,  563
 476,  442,  360,  340,  417
 477,  343,  347,  428,  562
 478,  394,  458,  469,  418
 479,  488,  540,  462,  396
 480,  429,  425, 1101,  492
 481,  429,  492, 1100,  509
 482,  476,  407,  403,  473
 483,  423,  408,  475,  477
 484,  351,  433,  426,  345
 485,  346,  348,  434,  427
 486,  427,  434,  558,  499
 487,  494,  500,  431,  435
 488, 1055, 1054, 1100,  490
 489,  445,  382, 1054, 1055
 490,  393,  487,  458,  394
 491,  540,  739,  525,  462
 492,  439,  395,  463,  498
 493, 1101,  425, 1089,  496
 494,  440,  392,  460,  495
 495,  744,  747,  555,  556
 496,  438,  436,  365,  369
 497,  455,  521,  579,  523
 498,  574,  520,  453,  514
 499,  449,  463,  395,  743
 500,  500,  561,  428,  431
 501, 1055,  446,  375,  445
 502,  373,  381,  430,  491
 503,  451,  447,  507,  510
 504,  387,  415,  740,  511
 505,  646,  641,  669,  681
 506,  576, 1081,  571, 1099
 507, 1081,  576,  612, 1060
 508,  535,  541,  478,  479
 509,  512,  508,  567, 1050
 510,  473,  403,  406,  452
 511,  467,  453,  520,  503
 512,  398,  419,  474,  454
 513,  580,  738, 1071, 1102
 514, 1071,  516,  528, 1092
 515,  483,  412,  464,  527
 516,  624,  574,  572,  992
 517,  573,  597, 1094,  626
 518,  526,  424,  457,  738
 519,  524,  536,  469,  458
 520,  569,  508, 1073,  519
 521,  668,  589,  578,  657
 522,  461,  400,  401,  481
 523,  587,  470,  525,  739
 524,  462,  746,  397,  396
 525,  422,  748,  482,  410
 526,  627,  576, 1090, 1072
 527,  601,  629,  618,  581
 528,  517,  507,  447,  471
 529,  531,  468,  483,  527
 530,  474,  746,  470,  533
 531,  421,  446,  506,  471
 532,  436,  489,  497,  433
 533,  600, 1085,  679, 1093
 534,  639, 1093,  679,  984
 535,  407,  476,  748,  422
 536,  541,  588,  734,  544
 537,  588,  541,  535,  575
 538,  479,  478,  405,  409
 539,  479,  451,  510,  535
 540,  542,  482,  748,  480
 541,  631,  731, 1068,  599
 542,  543,  631,  599,  480
 543,  522, 1066,  464,  461
 544,  548,  484,  482,  542
 545,  477,  485,  411,  423
 546,  485,  477,  546,  604
 547,  526,  596,  547,  486
 548,  738,  457,  516, 1071
 549,  441,  501,  488,  396
 550,  680, 1049,  569,  642
 551,  508,  569, 1049,  567
 552,  446, 1055,  490,  506
 553,  433,  497,  749,  426
 554,  559,  552,  551,  609
 555,  552,  559,  608,  564
 556,  749,  497,  489, 1079
 557,  550,  493,  749, 1079
 558,  434,  439,  498,  558
 559,  494,  435,  440,  495
 560,  450,  515,  545,  460
 561,  432,  503,  496, 1089
 562,  564,  517,  471,  506
 563,  459,  455,  523,  537
 564, 1088,  524,  539,  591
 565,  560,  499,  553,  643
 566,  555,  557,  561,  500
 567,  417,  562,  504,  442
 568,  416,  563,  505,  444
 569,  507,  517, 1106,  568
 570,  505,  499,  560,  502
 571,  506,  490,  552,  564
 572,  549,  750,  420,  491
 573, 1073,  472,  750,  519
 574,  623, 1103,  732, 1105
 575,  732,  588,  575,  610
 576,  669,  617,  651,  693
 577,  511,  449,  743,  387
 578, 1050,  567,  621,  590
 579,  621,  567, 1049,  614
 580,  538,  473,  512, 1050
 581,  723,  577,  620,  662
 582, 1092,  620,  577, 1071
 583,  556,  555,  500,  494
 584,  454,  474,  533,  528
 585,  496,  503,  609,  551
 586,  583,  518,  468,  531
 587,  750,  549,  565,  519
 588,  554,  489,  537,  605
 589,  514,  518,  572,  574
 590,  659,  625,  579,  618
 591,  461,  481,  534,  522
 592,  992,  572,  619,  981
 593,  642,  569,  519,  565
 594,  534,  733,  582,  522
 595,  616,  578,  582,  622
 596,  918,  970,  903,  131
 597,  918,  699, 1061,  970
 598,  462,  525,  470,  746
 599,  530,  570,  511,  740
 600,  573,  570,  530,  597
 601, 1072,  513,  529,  598
 602, 1099,  515, 1090,  576
 603,  531,  527, 1067,  589
 604,  579,  521,  581,  618
 605,  585,  630,  620, 1092
 606,  630,  585,  587,  594
 607,  536,  534,  481,  469
 608,  684,  983,  693,  651
 609,  554,  607,  550, 1079
 610,  631,  543,  590, 1045
 611,  590,  543,  538, 1050
 612,  502,  560,  539,  487
 613, 1095,  498,  463,  592
 614,  557, 1057,  488,  501
 615,  606, 1096,  545,  584
 616,  495,  460,  545, 1096
 617,  542,  480,  599,  603
 618, 1080, 1044, 1033,  707
 619, 1033, 1044,  676,  726
 620,  546,  600, 1093,  604
 621,  600,  546,  544,  734
 622,  477,  475,  544,  546
 623, 1099,  584,  545,  515
 624,  596,  526,  738,  580
 625,  529,  484,  548,  598
 626,  548,  542,  603,  598
 627,  617,  592,  570,  573
 628,  523,  579,  625,  593
 629,  742,  640,  680,  642
 630,  494,  495, 1096,  556
 631,  744,  556, 1096,  606
 632,  641,  592,  617,  669
 633,  602,  520,  574,  624
 634,  608,  559,  745,  647
 635,  549,  550,  607,  565
 636,  613,  623, 1105,  648
 637,  609,  503,  520,  602
 638,  642,  565,  607,  742
 639,  593,  605,  537,  523
 640,  993,  982,  663, 1035
 641,  993,  583,  531,  589
 642,  597,  530,  547,  635
 643,  573,  626,  651,  617
 644,  651, 1082,  652,  684
 645,  992,  979,  611,  624
 646,  623,  613, 1098,  661
 647,  991,  999, 1060,  612
 648,  653, 1000,  999,  991
 649,  664, 1045,  735, 1034
 650,  621,  735, 1045,  590
 651,  622,  582,  733,  595
 652,  981,  619, 1035,  968
 653,  670,  969,  652, 1082
 654,  660,  659,  618,  629
 655,  967,  660,  629,  958
 656,  534,  536,  595,  733
 657,  947,  697, 1031,  932
 658,  724,  689, 1031,  657
 659,  572,  518,  583,  619
 660, 1081, 1060,  650,  736
 661, 1103,  623,  661,  628
 662,  588,  732, 1103,  734
 663,  657,  578,  616,  724
 664,  653,  991,  627, 1002
 665, 1002,  696, 1000,  653
 666,  539,  560,  643,  591
 667, 1095,  592,  641,  553
 668,  593,  625,  674,  640
 669,  645,  747,  744,  636
 670,  594,  739,  645,  634
 671,  622,  595,  633,  667
 672,  576,  627,  991,  612
 673,  701,  967,  958,  950
 674,  745,  559,  609,  602
 675,  598,  603,  638, 1048
 676,  603,  599,  637,  638
 677, 1085,  666,  708,  679
 678,  666,  734, 1103,  628
 679,  605,  742,  607,  554
 680,  615,  636,  744,  606
 681,  636,  615,  736, 1087
 682,  558, 1095,  553,  499
 683,  553,  646,  737,  643
 684,  602,  624,  644,  745
 685,  678,  644,  624,  611
 686, 1106,  608,  647,  568
 687,  686,  648,  678,  654
 688,  566,  568,  610,  575
 689,  568,  647,  682,  610
 690,  687,  649,  674,  714
 691,  729,  689,  724,  667
 692,  907,  128,  951,  944
 693,  614,  649,  687,  656
 694,  681,  669,  693, 1047
 695,  714,  674,  625,  659
 696,  925,  691,  905,  127
 697,  971,  691,  925,  962
 698,  620,  630,  671,  662
 699,  687,  714, 1051, 1036
 700,  633,  586,  632,  675
 701,  586,  633,  595, 1088
 702,  667,  633,  675,  729
 703,  713,  658, 1098,  686
 704,  946,  658,  713, 1058
 705,  654,  678,  611,  979
 706,  668,  982,  993,  589
 707,  982,  668,  975,  703
 708, 1084, 1083,  635,  547
 709, 1084,  672, 1086,  705
 710,  628,  661,  725,  704
 711, 1104,  639,  601,  581
 712,  594,  634,  671,  630
 713, 1062,  665, 1087,  736
 714, 1062,  690, 1097,  665
 715,  676, 1068,  731,  664
 716,  632,  586, 1088,  591
 717,  737,  632,  591,  643
 718,  632,  737,  646,  681
 719, 1087,  634,  645,  636
 720, 1040,  650, 1060,  999
 721,  709,  986,  683,  948
 722,  708, 1042,  984,  679
 723,  571,  606,  584, 1099
 724, 1048,  627, 1072,  598
 725,  627, 1048,  673, 1002
 726,  677,  601,  639,  984
 727,  593,  640,  742,  605
 728,  745,  644,  682,  647
 729,  747,  645,  739,  540
 730,  613,  648,  686, 1098
 731, 1036,  987,  711,  695
 732,  987,  692, 1059,  711
 733,  710, 1019,  983,  898
 734,  983,  684,  921,  898
 735,  671,  665, 1097,  662
 736,  652, 1064,  921,  684
 737,  696,  902,  930, 1000
 738,  683, 1040,  930, 1025
 739,  866,  694,  829,  118
 740,  866,  729, 1032,  694
 741,  616,  622,  667,  724
 742,  914,  957,  918,  131
 743,  716, 1053,  937,  936
 744,  980,  695,  974,  126
 745,  695,  980,  727,  656
 746,  926,  960,  697,  947
 747,  960,  945,  703,  975
 748,  730,  952,  935,  700
 749,  916,  119, 1065,  943
 750, 1074,  976,  978, 1075
 751,  730,  700,  725,  658
 752,  725,  661, 1098,  658
 753,  690,  709, 1029,  944
 754,  727, 1021,  726, 1034
 755,  726,  676,  664, 1034
 756,  665,  671,  634, 1087
 757,  964,  954,  912,  876
 758,  708,  977,  963, 1042
 759,  675,  632,  681, 1047
 760, 1032,  712, 1019,  694
 761,  675, 1047, 1032,  729
 762, 1031,  697, 1046,  657
 763,  697,  960,  975, 1046
 764,  649,  680,  640,  674
 765,  998,  707, 1033, 1001
 766,  707,  998,  706,  996
 767, 1068,  676, 1044, 1080
 768,  610,  682,  648, 1105
 769, 1070,  666,  628,  704
 770, 1043,  977, 1070,  704
 771,  997,  996,  706,  985
 772,  906,  948,  933,  901
 773,  948,  683, 1025,  933
 774,  911,  890,  851, 1009
 775,  865, 1037,  898,  909
 776,  654,  979,  688,  972
 777,  956,  972,  688,  962
 778,  899,  127,  864,  860
 779,  922,  938,  899,  719
 780,  959,  703,  945,  718
 781,  919,  119,  888,  892
 782,  721,  976,  919, 1030
 783, 1078,  659,  660,  961
 784,  712, 1032, 1047,  693
 785,  723, 1061,  655,  577
 786,  923,  988,  700,  935
 787,  120,  940,  988,  923
 788,  966,  939,  953,  720
 789,  726, 1021, 1001, 1033
 790,  985,  989,  673,  997
 791, 1029, 1028,  907,  944
 792,  895,  942,  907, 1028
 793, 1016,  710, 1037,  717
 794,  710,  829,  694, 1019
 795,  915,  946, 1058,  922
 796,  125,  915,  894,  913
 797,  727, 1034,  735,  656
 798,  723,  662,  728, 1041
 799,  638,  997,  673, 1048
 800,  996,  997,  638,  637
 801,  614,  656,  735,  621
 802,  596,  672, 1084,  547
 803,  672,  596,  580, 1102
 804,  493,  741,  426,  749
 805, 1057,  747,  540,  488
 806,  557,  555,  747, 1057
 807,  746,  474,  419,  397
 808,  122,  663,  959,  872
 809,  698,  969,  955, 1063
 810,  973, 1069,  677,  984
 811,  952,  730,  658,  946
 812,  786,  787,   14,  779
 813,  787,  791,  751,   14
 814,  791,  796,  752,  751
 815,  800,  804,    1,  753
 816,  804,  808,  754,    1
 817,  811,  815,    2,  755
 818,  819,  825,    3,  756
 819,   19,  828,  827,  758
 820,  818,  814,  759,    4
 821,  810,  805,  760,    5
 822,  805,  801,  761,  760
 823,  797,  793,  762,    6
 824,  793,  789,  763,  762
 825,  789,  785,  764,  763
 826,  765,    7,  784,  788
 827,  788,  794,  766,  765
 828,  798,  802,    8,  767
 829,  802,  807,  768,    8
 830,  809,  813,    9,  769
 831,  813,  816,  770,    9
 832,  820,  821,   10,  771
 833, 1007,  826,  773,   20
 834,  812,  774,  817,  861
 835,  806,  803,  775,   12
 836,  803,  799,  776,  775
 837,  795,  792,  777,   13
 838,  792,  790,  778,  777
 839,  831,  873,  876,  836
 840,  833, 1022, 1023,  830
 841,  879,  835,  875,  910
 842,  788,  831,  836,  794
 843,  785,  833,  830,  784
 844,  878,  834,  838,  880
 845,  791,  835,  840,  796
 846,  790,  838,  834,  786
 847,  794,  836,  842,  798
 848, 1017,  929, 1026,  880
 849,  889,  884,  131,  903
 850,  877,  837,  841,  881
 851,  882,  886,  842,  836
 852,  795,  843,  839,  792
 853,  800,  844,  848,  804
 854,  797,  845,  841,  793
 855,  802,  846,  850,  807
 856,  890,  911,  865,  909
 857,  848,  852,  808,  804
 858,  849,  853,  892,  888
 859,  803,  851,  847,  799
 860,  913,  894,  854,  850
 861,  942,  855,  852,  934
 862,  813,  809,  854,  857
 863,  805,  853,  849,  801
 864,  859,  815,  811,  855
 865,  858,  862,  893, 1020
 866,  820,  816,  860,  864
 867,  822,   11,  773,  826
 868,  861,  817,  867,  118
 869,  823,    4,  758,  827
 870,  862,  818,  869,  126
 871,  864,  127,  905,  868
 872,  869,  823,  121,  702
 873,  826, 1007,  904,  130
 874,   20,  772,  824, 1007
 875,  124,  722,  828, 1008
 876,  757,    3,  825, 1008
 877,  826,  130,  900,  822
 878,  722, 1010,  827,  828
 879,  897,  861,  118,  829
 880,  728,  951,  871,  685
 881,  873,  831,  830, 1023
 882,  832,  874,  875,  835
 883,  833,  837,  877, 1022
 884,  908,  874,  878,  132
 885,  910,  875,  936,  937
 886,  882,  836,  876,  912
 887,  927, 1022,  877,  123
 888,  834,  878,  874,  832
 889,  846,  842,  886,  891
 890,  698,  929,  917, 1064
 891,  871,  889,  903,  685
 892,  701,  928,  916,  943
 893,  803,  806, 1009,  851
 894,  890,  887,  847,  851
 895, 1027,  128,  934, 1018
 896,  805,  810, 1011,  853
 897,  911, 1009,  856,  717
 898,  855,  942,  895,  859
 899, 1011,  810,  814,  858
 900,  924,  892,  853, 1011
 901,  857,  854,  894,  719
 902,  812,  856, 1009,  806
 903,  860,  857,  719,  899
 904, 1020,  924, 1011,  858
 905,  863,  859,  901,  117
 906,  863,  117,  902,  870
 907,  896,  866,  118,  867
 908,  689,  729,  866,  896
 909,  825,  870,  931, 1008
 910,  942,  934,  128,  907
 911,  718,  824,  872,  959
 912,  873,  720,  964,  876
 913, 1022,  927,  966, 1023
 914, 1023,  966,  720,  873
 915,  936,  875,  874,  908
 916,  880,  838,  839, 1017
 917,  884,  879,  914,  131
 918,  840,  835,  879,  884
 919,  839,  843,  883, 1017
 920,  132,  878,  880, 1026
 921,  928,  881,  885,  916
 922,  123,  877,  881,  928
 923,  886,  882,  120,  923
 924,  887,  883,  843,  847
 925,  887,  129,  917,  883
 926,  888,  885,  845,  849
 927,  916,  885,  888,  119
 928,  913,  891,  935,  125
 929,  871, 1027, 1018,  889
 930,  844,  889, 1018,  848
 931,  129,  887,  890,  909
 932,  850,  846,  891,  913
 933,  892,  924, 1030,  919
 934,  920,  893,  974,  995
 935,  721, 1020,  893,  920
 936,  915,  125,  952,  946
 937,  901,  859,  895,  906
 938, 1016,  897,  829,  710
 939,  717,  856,  897, 1016
 940,  909,  898,  921,  129
 941,  915,  922,  719,  894
 942,  922, 1058,  956,  938
 943,  932,  900,  130,  947
 944,  117,  901,  933, 1025
 945,  930,  902,  117, 1025
 946, 1012,  931,  696,  989
 947,  926,  904,  718,  945
 948,  122,  905,  691,  968
 949,  951,  128, 1027,  871
 950,  949,  908,  132, 1056
 951,  716,  936,  908,  949
 952,  957,  910,  937, 1053
 953,  911,  717, 1037,  865
 954,  720,  963,  954,  964
 955,  120,  882,  912,  940
 956,  914,  879,  910,  957
 957,  928,  701,  950,  123
 958,  721,  920, 1059,  976
 959,  976, 1074,  941,  919
 960, 1059,  920,  995,  711
 961,  721, 1030,  924, 1020
 962,  938,  925,  127,  899
 963,  971,  962,  688,  979
 964,  130,  904,  926,  947
 965, 1052,  927,  123,  950
 966,  939,  966,  927, 1052
 967, 1000,  930, 1040,  999
 968,  124, 1008,  931, 1012
 969,  896,  932, 1031,  689
 970,  934,  852,  848, 1018
 971, 1086,  716,  949,  705
 972,  938,  956,  962,  925
 973, 1069, 1052,  950,  958
 974,  973,  984, 1042,  953
 975,  988,  940, 1043,  704
 976, 1075,  990, 1078, 1076
 977,  941, 1065,  119,  919
 978,  961,  943, 1076, 1078
 979, 1029,  709,  948,  906
 980, 1058,  713,  972,  956
 981, 1056,  132,  955,  965
 982, 1064,  917,  129,  921
 983, 1097,  951,  728,  662
 984, 1053,  716, 1086,  699
 985,  954,  963,  977, 1043
 986,  940,  912,  954, 1043
 987,  963,  720,  953, 1042
 988,  132, 1026, 1063,  955
 989,  955,  969,  670,  994
 990, 1064,  652,  969,  698
 991,  918,  957, 1053,  699
 992,  677, 1069,  958,  629
 993,  961,  967,  701,  943
 994,  122,  968, 1035,  663
 995,  703,  959,  663,  982
 996, 1070,  977,  708,  666
 997,  981,  968,  691,  971
 998,  626,  670, 1082,  651
 999,  723, 1041,  970, 1061
1000,  685,  903,  970, 1041
1001,  992,  981,  971,  979
1002,  713,  686,  654,  972
1003,  975,  668,  657, 1046
1004,  692,  978,  976, 1059
1005, 1076,  943, 1065,  941
1006,  978,  692, 1051,  990
1007,  980,  702, 1021,  727
1008,  712,  693,  983, 1019
1009,  986,  709,  690, 1062
1010,  656,  687, 1036,  695
1011,  994,  635, 1083,  965
1012,  704,  725,  700,  988
1013,  989,  696, 1002,  673
1014, 1051,  692,  987, 1036
1015,  714,  659,  990, 1051
1016,  619,  583,  993, 1035
1017,  994,  670,  626, 1094
1018,  121, 1010,  998, 1001
1019,  722,  706,  998, 1010
1020,  986,  650, 1040,  683
1021,  702,  121, 1001, 1021
1022, 1063, 1026,  929,  698
1023,  906,  895, 1028, 1029
1024, 1045,  664,  731,  631
1025,  973,  953,  939, 1069
1026, 1080,  707,  996,  637
1027, 1054,  332,  509, 1100
1028, 1061,  699, 1086,  655
1029,  944,  951, 1097,  690
1030, 1062,  736,  650,  986
1031,  464, 1066, 1067,  527
1032, 1102, 1071,  577,  655
1033,  941, 1074, 1075, 1076
1034, 1077,  538,  543,  480
1035, 1080,  637,  599, 1068
1036, 1081,  736,  615,  571
1037,  705,  949, 1083, 1084
1038, 1085,  600,  734,  666
1039,  513, 1072, 1090, 1091
1040, 1093,  639, 1104,  604
1041,  635,  994, 1094,  597
1042, 1106,  517,  564,  608
1043,  551,  552,  492, 1101
*Nset, nset=ALL_ELEM, generate
    1,  1106,     1
*Elset, elset=ALL_ELEM, generate
    1,  1043,     1
** Section: PlateSec
*Solid Section, elset=ALL_ELEM, material=Steel
1.,
*End Part
**  
**
** ASSEMBLY
**
*Assembly, name=Assembly
**  
*Instance, name=PLATE-1, part=PLATE
*End Instance
**  
*End Assembly
** 
** MATERIALS
** 
*Material, name=Steel
*Elastic
210000., 0.3
** ----------------------------------------------------------------
** 
** STEP: Step-1
** 
*Step, name=Step-1, nlgeom=NO
*Static
1., 1., 1e-05, 1.
** 
** OUTPUT REQUESTS
** 
*Restart, write, frequency=0
** 
** FIELD OUTPUT:  from REMESHING RULE: RR_HOLE_50
** Plate with Hole Remeshing Rule errorTarget=5.0%
** 
*Output, field
*Element Output, elset=PLATE-1.ALL_ELEM, directions=YES
MISESERI, MISESAVG, S, EVOL
** 
** FIELD OUTPUT: F-Output-1
** 
*Output, field, variable=PRESELECT
** 
** HISTORY OUTPUT: H-Output-1
** 
*Output, history, variable=PRESELECT
*End Step
