*Heading
 Adapted Plate Hole errorTarget=3.0%
** Job name: PLATE_HOLE_ADAPTED_ERR_30PCT Model name: PLATE_HOLE_ERR_30
** Generated by: Abaqus/CAE 2023
*Preprint, echo=NO, model=NO, history=NO, contact=NO
**
** PARTS
**
*Part, name=PLATE
*Node
      1,  0.591465831,  0.540422738
      2,  0.570892096,  0.570528805
      3,  0.541456342,  0.591002047
      4,  0.458273053,  0.590878308
      5,  0.429381698,  0.570802927
      6,  0.407150418,   0.53713429
      7,  0.400009364,  0.498632073
      8,  0.406918108,  0.463451952
      9,  0.429927588,  0.428656757
     10,  0.459276021,  0.408667862
     11,  0.538843393,  0.407852352
     12,  0.569274008,  0.427881271
     13,  0.592083037,  0.461003631
     14,  0.600000024,          0.5
     15,           1.,           0.
     16,           0.,           0.
     17,           1.,           1.
     18,           0.,           1.
     19,  0.506068349,  0.599815726
     20,  0.504199922,  0.400088251
     21,  0.961133778,           0.
     22,  0.922455192,           0.
     23,  0.883982778,           0.
     24,  0.845651925,           0.
     25,  0.807409286,           0.
     26,  0.769225657,           0.
     27,  0.731104374,           0.
     28,  0.693067431,           0.
     29,  0.655090392,           0.
     30,  0.617049694,           0.
     31,  0.578740597,           0.
     32,  0.500659704,           0.
     33,  0.461200595,           0.
     34,  0.422098041,           0.
     35,  0.383684874,           0.
     36,  0.345901906,           0.
     37,  0.308347404,           0.
     38,  0.270629585,           0.
     39,  0.232624769,           0.
     40,  0.194364071,           0.
     41,  0.155876577,           0.
     42,  0.117167294,           0.
     43, 0.0782296658,           0.
     44,  0.039144814,           0.
     45,           1.,  0.961093068
     46,           1.,  0.922276616
     47,           1.,  0.883520126
     48,           1.,  0.844792366
     49,           1.,  0.806127846
     50,           1.,  0.767571867
     51,           1.,  0.729125142
     52,           1.,  0.690726817
     53,           1.,  0.652287245
     54,           1.,  0.613707423
     55,           1.,  0.574965537
     56,           1.,  0.536203742
     57,           1.,  0.497652173
     58,           1.,  0.421601057
     59,           1.,  0.383850813
     60,           1.,  0.346031964
     61,           1.,  0.308079481
     62,           1.,  0.269984543
     63,           1.,  0.231750429
     64,           1.,  0.193407655
     65,           1.,  0.154979825
     66,           1.,   0.11644268
     67,           1., 0.0777359605
     68,           1., 0.0388975739
     69, 0.0388327464,           1.
     70,  0.077715449,           1.
     71,  0.116717957,           1.
     72,  0.155832127,           1.
     73,  0.194964349,           1.
     74,  0.233996332,           1.
     75,  0.272792965,           1.
     76,  0.311273366,           1.
     77,  0.349532813,           1.
     78,  0.387796313,           1.
     79,  0.426286757,           1.
     80,  0.465188116,           1.
     81,  0.504525483,           1.
     82,  0.544009686,           1.
     83,  0.583174348,           1.
     84,  0.621696472,           1.
     85,  0.696928501,           1.
     86,  0.734137475,           1.
     87,  0.771399379,           1.
     88,  0.808833003,           1.
     89,  0.846509993,           1.
     90,  0.884492934,           1.
     91,  0.922819197,           1.
     92,    0.9613657,           1.
     93,           0., 0.0394138098
     94,           0., 0.0788507164
     95,           0.,  0.118378557
     96,           0.,  0.157981724
     97,           0.,  0.197545096
     98,           0.,   0.23692432
     99,           0.,  0.275946051
    100,           0.,   0.31448403
    101,           0.,  0.352564096
    102,           0.,  0.390355915
    103,           0.,  0.428133905
    104,           0.,  0.466214001
    105,           0.,  0.504827797
    106,           0.,  0.543933988
    107,           0.,  0.583149612
    108,           0.,  0.621977031
    109,           0.,  0.697468638
    110,           0.,  0.734321713
    111,           0.,  0.771008015
    112,           0.,  0.807893872
    113,           0.,  0.845255852
    114,           0.,  0.883214772
    115,           0.,  0.921743333
    116,           0.,  0.960731685
    117,  0.573569298,  0.629363298
    118,  0.580064714,  0.387657255
    119,  0.374458283,  0.579232633
    120,  0.354104191,   0.46251002
    121,  0.455830455,  0.640477777
    122,  0.480941296,  0.355133921
    123,  0.348145127,  0.531574607
    124,  0.524621129,  0.651971996
    125,  0.376016885,  0.418084949
    126,  0.418982327,  0.629970014
    127,  0.417070776,  0.364933431
    128,  0.629580855,  0.587470055
    129,  0.623435318,  0.423683822
    130,  0.544142008,  0.354015231
    131,  0.647583842,  0.538833857
    132,  0.650651455,  0.474245697
    133,  0.806483746, 0.0387655795
    134,  0.729860663, 0.0376369543
    135,  0.613599241, 0.0354586765
    136,  0.574418187,  0.033833351
    137,  0.962009072,  0.733571351
    138,  0.960220814,  0.657042444
    139,  0.958673179,  0.538475752
    140,  0.959368408,  0.498950303
    141,  0.350331336,  0.963142276
    142,  0.388839841,  0.963596165
    143,  0.427348107,  0.963873684
    144,  0.465931475,  0.964230955
    145,  0.504829407,  0.964672744
    146,  0.544134021,  0.964935422
    147, 0.0341618769,  0.349208057
    148, 0.0350430161,  0.386788934
    149, 0.0363482684,  0.424645424
    150, 0.0379818641,  0.463122159
    151, 0.0396140851,  0.502330363
    152, 0.0403163284,  0.541796803
    153,  0.234282449,  0.960434973
    154,  0.273056418,  0.961458802
    155,  0.311763078,  0.962449133
    156, 0.0341582522,  0.235210076
    157, 0.0336615629,  0.273608714
    158, 0.0336455815,  0.311568052
    159,  0.883292854, 0.0393281095
    160,  0.844825149, 0.0391045138
    161,  0.768229783, 0.0382146128
    162,  0.691364467, 0.0369719006
    163,  0.652639568, 0.0362861119
    164,  0.535854399, 0.0304799546
    165,  0.477253437, 0.0433263741
    166,   0.42734924, 0.0397692323
    167,  0.385709494, 0.0367099158
    168,  0.346897155, 0.0349855646
    169,  0.309063375, 0.0343529098
    170,  0.271375149, 0.0347185209
    171,  0.233366072, 0.0360516086
    172,  0.194842055, 0.0380019248
    173,  0.156117484, 0.0396648496
    174,   0.11721541, 0.0401111692
    175,  0.964913845,  0.846857011
    176,  0.964745641,   0.80916518
    177,  0.963499486,  0.771380067
    178,  0.960920393,  0.695551038
    179,  0.959706604,  0.617886186
    180,   0.95908761,  0.578123689
    181,  0.960564077,  0.459659576
    182,  0.961634398,  0.420994341
    183,  0.962359309,  0.382866114
    184,  0.962621927,  0.345048994
    185,  0.962464869,  0.307206959
    186,  0.962026656,  0.269270122
    187,  0.961488426,  0.231396571
    188,  0.961005628,  0.193478286
    189,  0.960710704,  0.155310437
    190,   0.96063906,  0.116843216
    191,  0.960737467,  0.078097187
    192,  0.960909307, 0.0391562134
    193,  0.583400548,  0.964701116
    194,  0.622246623,  0.963978291
    195,  0.660448432,  0.963036597
    196,  0.698350251,  0.962208629
    197,  0.736217976,  0.961616218
    198,  0.774012089,  0.961269677
    199,  0.811646104,  0.961221337
    200,   0.84909451,  0.961475194
    201,   0.88660562,  0.961815476
    202,  0.924464583,   0.96196723
    203,  0.963256538,  0.923345268
    204, 0.0393144563,   0.58152324
    205, 0.0375209861,  0.620876431
    206, 0.0359787643,   0.65931493
    207, 0.0351642594,  0.696827769
    208, 0.0351516716,  0.733866811
    209,  0.035803102,  0.770809233
    210, 0.0367820226,  0.807774067
    211, 0.0377861522,  0.845025778
    212, 0.0385907963,  0.882826388
    213, 0.0390262604,  0.921339393
    214,  0.078256011,  0.960041702
    215, 0.0350912288,  0.196356311
    216,  0.195544779,  0.959730506
    217,  0.568446398, 0.0673149899
    218,  0.917648494,    0.5404194
    219,  0.922013998, 0.0392946303
    220,  0.964168429,  0.885000587
    221,  0.313022882,  0.925729454
    222, 0.0680452734,  0.345459521
    223,   0.42848289,  0.927708626
    224,  0.505499482,  0.929428279
    225, 0.0718225539,  0.419829637
    226, 0.0789189637,   0.49850145
    227,   0.76694268, 0.0760209709
    228,  0.728363931, 0.0744669437
    229,  0.923461854,  0.739217937
    230,  0.921557665,  0.701158762
    231, 0.0673521906,  0.271680385
    232,  0.235369891,  0.920710027
    233,  0.037531361,  0.118080273
    234,  0.117484085,  0.959656835
    235,  0.156652793,  0.959496021
    236, 0.0363129303,  0.157193184
    237,  0.925867736,  0.344001025
    238, 0.0780029073, 0.0398596302
    239,  0.425366104, 0.0743618086
    240,  0.346628249, 0.0679393485
    241,  0.814628243,   0.92217809
    242,  0.925373137,  0.306591272
    243,  0.921614289,  0.193803176
    244, 0.0775372088,  0.881619692
    245, 0.0691269189,  0.696905136
    246,  0.466926187,  0.928138077
    247,  0.660939813,  0.926544964
    248,  0.699374974,  0.924992502
    249,  0.117165774, 0.0804096535
    250, 0.0749209896,    0.4583413
    251, 0.0706074089,  0.660129488
    252,  0.078165479,  0.581751108
    253,  0.583637178,  0.930319607
    254,   0.30953753, 0.0672817454
    255,  0.924654722,  0.419334412
    256,  0.609769881, 0.0698870122
    257,  0.525577486, 0.0611329749
    258,  0.919680178,  0.581778049
    259,  0.919939995,  0.498914748
    260,  0.351509243,  0.927217007
    261,  0.544587612,  0.930568159
    262, 0.0694780201,  0.382389098
    263, 0.0815378949,   0.53988266
    264,  0.274286151,  0.923449695
    265, 0.0672423095,  0.308668733
    266,  0.922665536,  0.231395841
    267,  0.689438522, 0.0728834197
    268,  0.650030732,  0.071379602
    269,  0.470241874, 0.0826322213
    270,  0.384676427,  0.069960393
    271, 0.0682696551,  0.234251216
    272,  0.272771835, 0.0681737587
    273,  0.235576302, 0.0708793551
    274,   0.19703275, 0.0754556432
    275,  0.157298356, 0.0801951066
    276,  0.776502669,  0.922786176
    277,  0.921144962,  0.662241518
    278,  0.921012759,  0.622563899
    279,  0.922856808,   0.45834586
    280,  0.925694466,  0.381309986
    281,  0.805397809,  0.077196762
    282,  0.924129128,  0.268891007
    283,  0.843867958, 0.0779863596
    284,  0.882633209, 0.0783252195
    285,  0.921218455,  0.155691445
    286,  0.921297312,  0.117145121
    287,  0.622549653,  0.928720474
    288,  0.926513433,  0.776653469
    289,  0.738022625,  0.923806906
    290,  0.929631829,  0.813002229
    291,  0.930077195,  0.848414779
    292,  0.852016628,  0.922430098
    293,  0.888892472,  0.923319519
    294, 0.0736887828,  0.621963084
    295,  0.196538791,   0.91878289
    296, 0.0691859275,  0.733283937
    297, 0.0708732009,  0.769903898
    298, 0.0733789951,  0.806633592
    299, 0.0758101791,  0.843750596
    300, 0.0782599747,  0.920516789
    301,   0.92164737, 0.0782869458
    302,  0.928099513,  0.885683477
    303, 0.0701826736,  0.196183965
    304,  0.157411471,  0.918582082
    305, 0.0757936686,  0.118537366
    306,  0.106155038,  0.413777292
    307,  0.507225275,   0.89475894
    308,  0.429245651,  0.891611457
    309,  0.116655163,  0.491701186
    310,  0.390648454,  0.892813206
    311,  0.110215239,  0.451495677
    312,  0.882992625,  0.496037841
    313,  0.516767144, 0.0956583172
    314,  0.545723557,  0.897718191
    315,  0.127246872,  0.538428843
    316,    0.8875947,   0.45527795
    317,  0.874189913,  0.542215288
    318,  0.563070536,  0.101083204
    319,  0.583732188,  0.897679448
    320,  0.114643246,   0.58598417
    321,  0.103287905,  0.377269953
    322,  0.889445722,  0.416699678
    323,  0.460774869,   0.11696256
    324,  0.101535372,  0.341401726
    325,  0.352846205,  0.892669261
    326,  0.315179646,   0.89059931
    327,   0.41947946,  0.106163442
    328,  0.883305848,  0.586892843
    329,  0.606539607,  0.103285685
    330,  0.881526232,  0.155923292
    331,  0.855757773,  0.882123053
    332,  0.160189077,  0.124718487
    333,   0.11457549,  0.841039538
    334,  0.647634387,  0.105177566
    335,  0.882662117,  0.666785061
    336,  0.884534657,  0.626982987
    337,  0.202650845,  0.110655695
    338,   0.10984537,  0.803913891
    339,  0.842823148,  0.116763085
    340,  0.895408511,   0.81861043
    341,  0.804116488,  0.115432754
    342,  0.881803215,  0.194285348
    343,  0.817696035,  0.882625878
    344,  0.239592582,  0.103594631
    345,  0.104807287,   0.76779145
    346,  0.883338749,  0.231940702
    347,  0.778616965,  0.884713411
    348,  0.886470795,  0.269224703
    349,  0.739484608,  0.886766553
    350,  0.274734974,  0.100055091
    351,  0.101538524,  0.732281446
    352,  0.107616894,  0.625750482
    353,  0.889976084,  0.379255146
    354,  0.622074366,  0.894600093
    355,  0.381724119,  0.101576082
    356,  0.100651659,  0.305798233
    357,  0.277044237,  0.886573732
    358,  0.687376916,  0.107574098
    359,  0.881019473,   0.70710367
    360,  0.889136434,  0.784422755
    361,  0.889320731,   0.30653441
    362,  0.765403748,  0.113226891
    363,  0.700140953,  0.888303757
    364,  0.309772223, 0.0987904072
    365,  0.101578645,   0.69770658
    366,  0.890030742,  0.342858851
    367,  0.345483869, 0.0993627757
    368,  0.660858154,  0.890061378
    369,  0.103515379,  0.662619114
    370,  0.884372473,  0.746295631
    371,  0.726547241,  0.110365413
    372,  0.237966135,  0.880970001
    373,  0.198140621,  0.876098931
    374,  0.100720145,  0.270127594
    375,  0.101909079,  0.234084472
    376,  0.117774494,  0.919452071
    377, 0.0729430169,  0.157400042
    378,   0.88204658,  0.117134817
    379,  0.891722143,   0.88485992
    380,  0.117065132,  0.879628301
    381,  0.157560676,  0.877141058
    382,  0.109276399,  0.159251004
    383,  0.134807676,  0.337048292
    384,  0.133871749,  0.302827805
    385,  0.318338305,   0.85755825
    386,  0.612675786,  0.835783958
    387,  0.855903029,  0.413873881
    388,  0.147430956,   0.59740591
    389,  0.282091379,   0.85212189
    390,   0.41125989,   0.13478674
    391,  0.139659777,  0.632347941
    392,  0.659328699,  0.851411104
    393,  0.724042356,  0.145408913
    394,  0.685081184,  0.140905812
    395,  0.854011297,  0.341149747
    396,  0.377800852,  0.132648394
    397,  0.835945964,  0.712452173
    398,  0.846242249,  0.667658985
    399,  0.850121319,   0.59453392
    400,  0.846093595,  0.565837145
    401,  0.561055779,  0.135060951
    402,   0.60505265,  0.135460556
    403,   0.47405234,  0.166779891
    404,  0.390111059,  0.859717607
    405,  0.444535762,  0.146325171
    406,  0.139580965,  0.406576306
    407,  0.354086876,   0.86007154
    408,  0.427778184,  0.856802166
    409,   0.14433673,  0.442098856
    410,  0.136466503,  0.371602446
    411,  0.522364974,  0.833485603
    412,  0.165195629,  0.511567473
    413,  0.508291483,  0.137221456
    414,  0.849898517,  0.487912148
    415,  0.583293617,  0.867601812
    416,  0.161355332,  0.563495278
    417,   0.85505724,  0.450764656
    418,  0.841827691,  0.155548841
    419,  0.862074375,  0.837243736
    420,  0.645812154,  0.137434125
    421,  0.850695074,  0.629874289
    422,  0.244351357,  0.842803597
    423,  0.133789837,  0.268737376
    424,  0.470899016,  0.849718809
    425,  0.152158216,  0.478037804
    426,  0.838231444,  0.524033844
    427,  0.245218769,  0.134324148
    428,  0.136685267,  0.763418198
    429,  0.842515945,  0.233742565
    430,  0.779574335,  0.847743928
    431,  0.213711306,  0.141413644
    432,  0.155022249,  0.836189926
    433,  0.740640104,  0.851041198
    434,  0.276954532,  0.130675375
    435,  0.131156087,  0.730791569
    436,  0.849827111,  0.271398157
    437,   0.30948326,   0.12894927
    438,  0.701537848,  0.852680206
    439,   0.13338156,  0.699690461
    440,  0.343602329,  0.130112022
    441,  0.135361329,  0.666685104
    442,  0.855764389,  0.307271868
    443,  0.846534312,  0.755663395
    444,  0.853278816,  0.795453727
    445,   0.76329124,  0.150109693
    446,  0.802583098,  0.153811559
    447,  0.104527168,  0.197367966
    448,  0.134953946,  0.234432906
    449,  0.167109221,  0.299541086
    450,  0.298431784,   0.79235661
    451,  0.820590913,  0.376228303
    452,   0.63346374,  0.799673438
    453,  0.167787284,  0.332493097
    454,  0.355024576,   0.82907778
    455,  0.376097471,  0.167110458
    456,  0.819016337,  0.597247183
    457,  0.177402899,  0.609935284
    458,  0.424571276,  0.171153724
    459,  0.816272259,  0.559095562
    460,  0.682341218,  0.172686026
    461,  0.170602202,  0.640488982
    462,  0.670084119,  0.817938983
    463,  0.566143394,  0.168347061
    464,  0.803030252,   0.69243145
    465,  0.813670754,  0.334668577
    466,  0.582429111,  0.814593852
    467,  0.188015193,  0.581180573
    468,  0.340103745,   0.15955022
    469,  0.446755469,  0.188936323
    470,  0.644530654,  0.168543905
    471,  0.778131783,  0.652371168
    472,  0.166705474,  0.267072618
    473,  0.289723903,  0.820705056
    474,  0.387915432,  0.828417182
    475,  0.820153713,   0.62990582
    476,  0.177029505,  0.431571126
    477,  0.421006709,   0.82458961
    478,  0.184742317,  0.463436842
    479,  0.172140136,  0.398755729
    480,  0.169211254,  0.365651995
    481,  0.439782828,  0.788520277
    482,  0.605912387,  0.166747108
    483,  0.496508539,  0.821034133
    484,  0.493690819,  0.192988068
    485,  0.555713892,   0.81177038
    486,  0.184733599,  0.537458837
    487,  0.820598185,  0.479339778
    488,   0.72046423,   0.17868036
    489,  0.798942029,  0.738855779
    490,  0.168477729,  0.706252098
    491,  0.172377631,  0.201029405
    492,  0.201058477,   0.82740581
    493,  0.223488554,  0.168066278
    494,  0.179772764,  0.786723316
    495,  0.704904377,  0.818264842
    496,  0.250173569,  0.163553759
    497,  0.154412925,  0.730316699
    498,  0.829221845,  0.307534993
    499,  0.796563745,   0.23873806
    500,  0.741541326,  0.816577196
    501,  0.810397089,  0.769512534
    502,  0.759840906,  0.186471865
    503,   0.27909413,  0.161068201
    504,  0.816282213,  0.805194497
    505,  0.800446928,  0.193621948
    506,  0.167165831,  0.235221073
    507,  0.200469762,  0.327883571
    508,  0.355320454,  0.799735785
    509,  0.185203776,  0.154922768
    510,   0.20141767,   0.35984236
    511,  0.824928999,  0.412438571
    512,  0.384898394,  0.798175752
    513,  0.590358019,  0.790951788
    514,   0.40157935,  0.189193487
    515,  0.644650638,  0.760819137
    516,  0.781122088,  0.576573491
    517,  0.200226411,  0.295760185
    518,  0.419211984,  0.235778913
    519,  0.306498617,  0.767972648
    520,   0.33014372,  0.187372282
    521,  0.210405841,  0.593275607
    522,  0.572979391,   0.19943969
    523,  0.203006193,  0.651629508
    524,  0.679213524,  0.202456027
    525,   0.78097254,  0.680502713
    526,  0.810849547,   0.50970453
    527,  0.539144456,  0.206577882
    528,  0.787379861,  0.605800629
    529,  0.557011545,  0.781922281
    530,  0.797789872,  0.443648547
    531,  0.464798361,  0.210766062
    532,  0.204672366,  0.558474422
    533,  0.795416892,  0.628682315
    534,    0.6081177,  0.197227314
    535,   0.20373258,  0.391103268
    536,  0.643781424,  0.198230609
    537,  0.199857831,  0.694559991
    538,  0.413663447,  0.794707716
    539,  0.715092957,  0.209388301
    540,  0.778227508,  0.717767954
    541,  0.207638443,   0.42159453
    542,  0.482496083,  0.795079172
    543,  0.432066619,  0.769295216
    544,  0.214046881,  0.450734913
    545,  0.667284608,  0.784339786
    546,  0.196317762,  0.492480725
    547,  0.794176459,  0.472393453
    548,  0.508020818,  0.800699532
    549,  0.791156411,  0.298350126
    550,  0.229350492,  0.792161167
    551,  0.308301061,  0.179282069
    552,  0.207046807,  0.766366541
    553,  0.215037763,  0.201981962
    554,  0.198945418,  0.235463232
    555,   0.76983881,  0.268099874
    556,  0.211761191,  0.720545888
    557,  0.742398202,  0.782518506
    558,  0.707056403,  0.784971237
    559,  0.775798917,  0.780479908
    560,  0.816395223,  0.279406697
    561,  0.234933972,  0.224830762
    562,  0.752895594,  0.220383108
    563,  0.778628826,  0.812701464
    564,  0.819411337,  0.842940629
    565,  0.841266036,  0.194680572
    566,  0.200095043,  0.264140159
    567,  0.250604361,  0.764649928
    568,  0.232729465,  0.354529351
    569,  0.348667055,  0.743834972
    570,  0.232065678,  0.323581755
    571,  0.308956921,  0.742651939
    572,  0.791531265,  0.381519884
    573,  0.606573105,  0.759324491
    574,  0.405893445,  0.264320046
    575,  0.772298038,  0.415883183
    576,  0.382507712,   0.20996356
    577,  0.234729409,   0.38420105
    578,  0.592088521,  0.744678438
    579,  0.745998204,  0.562880397
    580,  0.381248534,  0.769280434
    581,  0.522838473,  0.243322536
    582,  0.227237269,  0.622413874
    583,  0.757193327,  0.530382633
    584,  0.221535653,  0.576017916
    585,  0.580987215,  0.252406985
    586,  0.447712451,  0.243180215
    587,  0.667019486,  0.735663116
    588,  0.755377948,  0.621698916
    589,  0.675811231,  0.230385184
    590,  0.236617893,  0.413402885
    591,  0.508569121,  0.219549567
    592,  0.410060555,  0.763376594
    593,  0.707888603,  0.237431258
    594,  0.776730418,  0.347195059
    595,  0.230172604,  0.679345965
    596,  0.747768939,  0.671014309
    597,  0.643452704,  0.226412237
    598,  0.775665581,  0.516035438
    599,  0.750811219,  0.440377235
    600,  0.533649147,  0.761660814
    601,   0.46191293,  0.773623943
    602,  0.248241544,  0.465297014
    603,  0.300139427,  0.235335559
    604,  0.498126656,  0.766757131
    605,   0.21129176,  0.517770767
    606,  0.230785668,  0.707730711
    607,  0.680712521,  0.757201791
    608,  0.767175972,  0.312528342
    609,   0.23004818,  0.744532168
    610,  0.751035571,  0.287917376
    611,   0.23360306,   0.25954783
    612,  0.283605993,  0.195346385
    613,  0.262421757,  0.349470794
    614,  0.327765435,  0.724152803
    615,  0.737870336,  0.380331874
    616,  0.383681178,  0.281856269
    617,  0.609714925,  0.694913447
    618,  0.287940681,  0.364212155
    619,  0.372498453,  0.722251475
    620,  0.726740122,  0.590332866
    621,  0.638399065,  0.724556267
    622,  0.577744067,  0.273563802
    623,  0.756432056,  0.369253814
    624,  0.261369139,  0.600282192
    625,  0.443749934,  0.280345708
    626,  0.724895597,  0.613066614
    627,  0.391437203,  0.716005802
    628,  0.612301171,  0.256364912
    629,  0.263487667,  0.408932954
    630,  0.354222745,  0.259948194
    631,  0.270842105,  0.646399796
    632,  0.713163733,  0.423135042
    633,  0.553930879,  0.726783335
    634,  0.288617462,   0.44892174
    635,  0.283412576,  0.568347752
    636,  0.732471406,  0.649252534
    637,   0.48685056,   0.27635029
    638,  0.445525497,  0.756189585
    639,  0.700148225,  0.263954818
    640,  0.629639626,  0.278064996
    641,  0.722081661,  0.688748002
    642,  0.741307855,  0.481698871
    643,  0.702167392,  0.726192772
    644,  0.478116274,  0.752982676
    645,  0.518222868,  0.723293781
    646,  0.272370607,  0.504979134
    647,  0.266751021,  0.697538018
    648,  0.742492795,  0.318302929
    649,  0.269970626,  0.740770578
    650,  0.740037084,  0.248731896
    651,  0.301766127,  0.283390224
    652,  0.733327389,  0.714088619
    653,  0.737994313,  0.300464422
    654,  0.266082108,  0.289125711
    655,  0.310292214,  0.321472734
    656,  0.311456591,  0.700752199
    657,  0.629038215,  0.685240149
    658,  0.701291203,  0.368201464
    659,  0.437513411,  0.305994064
    660,  0.679193914,  0.407571405
    661,  0.595927179,  0.687078536
    662,   0.73735851,  0.542113006
    663,  0.374006659,  0.680085242
    664,  0.535528779,  0.265412688
    665,  0.319411606,  0.378754288
    666,   0.29170993,  0.629615188
    667,  0.310687065,  0.589636683
    668,  0.287318528,  0.409956992
    669,  0.702288151,  0.606184125
    670,  0.407473326,  0.693123877
    671,  0.680562019,  0.662554443
    672,  0.279024631,  0.475120425
    673,  0.607059956,  0.305646926
    674,  0.516278207,  0.274956495
    675,  0.722053707,   0.33817485
    676,  0.694489777,  0.461932927
    677,  0.710644245,  0.667695165
    678,  0.727499723,  0.524605811
    679,  0.534905851,  0.694168031
    680,  0.290403754,  0.689000428
    681,   0.64300853,  0.315566719
    682,  0.314960361,  0.533956468
    683,   0.32458055,  0.303973526
    684,  0.289126664,  0.491496056
    685,  0.486071825,   0.70718503
    686,  0.289238662,  0.721129596
    687,   0.69099623,  0.318859607
    688,  0.302887678,  0.304738522
    689,  0.598238826,  0.655249119
    690,  0.648010135,  0.388896406
    691,  0.661411285,  0.568467855
    692,  0.342427433,  0.342403799
    693,  0.334653288,  0.673587978
    694,  0.392620414,  0.340993911
    695,  0.572191894,  0.352148771
    696,  0.658294976,  0.655426681
    697,  0.452962667,  0.338267118
    698,  0.647001743,  0.615113139
    699,  0.335550994,  0.608315766
    700,  0.666031897,  0.354522884
    701,  0.604699373,  0.356069058
    702,  0.362216562,   0.38734147
    703,  0.547386408,  0.668006718
    704,  0.536169767,  0.308534622
    705,  0.659608006,  0.437660456
    706,  0.694105089,  0.540052474
    707,  0.339857429,  0.423212111
    708,  0.427670211,  0.654498696
    709,  0.513732672,  0.300748616
    710,  0.320205301,   0.46184817
    711,  0.702693045,  0.519421101
    712,  0.485897601,  0.679458857
    713,  0.460923433,  0.676680326
    714,  0.312671512,  0.496811628
    715,   0.62733072,  0.634694517
    716,  0.622299612,  0.364370227
    717,  0.366023242,  0.631115198
    718,  0.683497369,  0.636964142
    719,  0.651617348,  0.349304974
    720,  0.376075745,  0.367620885
    721,  0.317595273,  0.645535409
    722, 0.0383873843,  0.078916356
    723,  0.648044705,  0.495616555
    724,  0.601382077,  0.407910168
    725,   0.51660949,  0.356399536
    726,  0.403672069,  0.397288144
    727,  0.351870686,    0.4965913
    728,  0.395826042,  0.600235939
    729,  0.486253351,  0.635445237
    730,  0.600564599,  0.608944893
    731,  0.701088667,  0.572577298
    732,  0.567978024,  0.310924441
    733,  0.316949725,  0.445410788
    734,  0.436827302,  0.676543236
    735,  0.404531866,  0.663938522
    736,  0.663816273,  0.600607395
    737,  0.609516084,  0.337573707
    738,  0.342588276,  0.398672879
    739,  0.506231666,    0.6904549
    740,  0.417189419,  0.726803124
    741,  0.266784221,  0.378620714
    742,  0.610510826,  0.226401985
    743,  0.240682527,  0.440695614
    744,  0.386191368,   0.69510901
    745,  0.667173266,  0.686709106
    746,  0.727371097,  0.272923797
    747,  0.794081926,  0.534601808
    748,  0.760410488,  0.696079612
    749,  0.825185478,  0.446560174
    750,  0.145885751,  0.798267901
    751,  0.250079513,  0.722055137
    752,  0.854813337,  0.376904786
    753,  0.709027112,  0.753339887
    754,  0.264573336,  0.257761657
    755,  0.813779294,   0.66134876
    756,  0.746895611,  0.744473636
    757,  0.453097731,  0.815137625
    758,  0.165330753,  0.754290044
    759,  0.250208557,  0.193080887
    760,   0.25805521,  0.809690893
    761,  0.599913478,  0.504158258
    762,  0.599645138,  0.508417308
    763,  0.599181116,  0.512771368
    764,  0.598507345,  0.517213345
    765,  0.597609401,  0.521734953
    766,  0.596472442,  0.526326239
    767,  0.595081508,  0.530975938
    768,  0.593421578,  0.535670817
    769,  0.589164734,  0.545273066
    770,  0.586467803,  0.550232708
    771,  0.583334506,  0.555275321
    772,  0.579722822,  0.560367823
    773,  0.575589716,  0.565469027
    774,  0.565401733,   0.57564795
    775,  0.558801353,  0.580885112
    776,  0.550888836,  0.586083233
    777,   0.53061527,  0.595198214
    778,   0.51874578,  0.598227262
    779,  0.493071675,  0.599759698
    780,  0.480534494,  0.598087192
    781,   0.46886605,  0.595029891
    782,  0.449067414,  0.586057365
    783,   0.44130969,  0.580965698
    784,  0.434808642,  0.575829327
    785,  0.424739957,  0.565847754
    786,  0.420665473,  0.560877204
    787,  0.417108387,   0.55593729
    788,  0.414022475,  0.551067293
    789,  0.411363155,  0.546298087
    790,  0.409088105,  0.541653693
    791,  0.405490696,  0.532680154
    792,  0.404072464,  0.528247297
    793,  0.402885169,   0.52384764
    794,  0.401918024,  0.519491673
    795,   0.40116024,  0.515188932
    796,  0.400601089,  0.510947764
    797,  0.400229812,  0.506775677
    798,  0.400035888,   0.50267899
    799,  0.400148988,  0.494543135
    800,  0.400466532,  0.490351856
    801,  0.400975883,  0.486063659
    802,  0.401691467,  0.481685191
    803,  0.402628154,  0.477224529
    804,  0.403801143,  0.472691029
    805,  0.405225903,  0.468095899
    806,  0.408910483,  0.458736181
    807,   0.41125682,  0.453906119
    808,  0.414005995,  0.448960513
    809,  0.417200714,  0.443926126
    810,  0.420885623,  0.438836992
    811,  0.425106525,  0.433735609
    812,   0.43554762,  0.423541576
    813,  0.442207545,  0.418390989
    814,  0.450064063,  0.413360506
    815,  0.469633281,  0.404722184
    816,  0.480704218,  0.401879281
    817,  0.492295146,  0.400297254
    818,  0.516095936,  0.401303887
    819,  0.527720451,  0.403918892
    820,  0.548725724,  0.412674159
    821,  0.556929946,  0.417786956
    822,  0.563702524,  0.422915697
    823,  0.573972046,  0.432708532
    824,  0.578085601,  0.437528878
    825,  0.581711054,  0.442351848
    826,  0.584886551,  0.447139144
    827,  0.587649822,  0.451859444
    828,  0.590037048,  0.456487536
    829,   0.59384191,  0.465450138
    830,  0.595357418,  0.469884276
    831,  0.596642554,  0.474305362
    832,  0.597705722,  0.478702337
    833,  0.598555624,  0.483065009
    834,  0.599201024,  0.487384081
    835,   0.59965086,  0.491651177
    836,  0.599914193,  0.495858729
    837,  0.539952636,           0.
    838,           1.,  0.459466457
    839,  0.659545839,           1.
    840,           0.,  0.660093784
    841,  0.395078868,  0.498518467
    842,   0.39521122,   0.49410516
    843,  0.395161033,   0.50291419
    844,  0.604282975,  0.499707431
    845,  0.604174078,  0.504127204
    846,  0.395479172,   0.50730896
    847,  0.395589232,   0.48961249
    848,  0.604216993,  0.495303422
    849,  0.603879333,  0.508599937
    850,  0.395995706,  0.511702359
    851,  0.603965759,  0.490863025
    852,  0.396178335,  0.484996319
    853,  0.603528142,   0.48637718
    854,  0.396688938,    0.5161075
    855,  0.603401721,  0.513142049
    856,   0.39693284,  0.480281293
    857,  0.602897465,  0.481845587
    858,  0.397557855,  0.520544112
    859,  0.602733672,  0.517762184
    860,  0.602064073,  0.477269083
    861,  0.398614645,  0.525031745
    862,  0.397816747,  0.475466281
    863,  0.601016343,   0.47264728
    864,  0.601861119,  0.522463262
    865,  0.399873942,  0.529577255
    866,   0.39882946,  0.470509887
    867,  0.599739075,  0.467979163
    868,  0.600767553,  0.527243137
    869,  0.401348144,  0.534177125
    870,  0.598212123,  0.463262647
    871,  0.399994135,  0.465331376
    872,  0.599436402,  0.532097638
    873,  0.403051198,  0.538825095
    874,  0.401389241,  0.459837317
    875,  0.596406519,   0.45849064
    876,  0.597849667,  0.537026525
    877,  0.403257251,  0.454193652
    878,  0.595984757,  0.542047381
    879,  0.405013978,  0.543550313
    880,  0.594283879,  0.453634769
    881,  0.593819201,  0.547203541
    882,  0.406107157,  0.449130654
    883,  0.407277972,  0.548404694
    884,    0.5918082,  0.448666871
    885,  0.591341376,  0.552552104
    886,  0.409513921,  0.444042116
    887,  0.588950753,  0.443583578
    888,  0.409870923,   0.55342412
    889,  0.588541329,    0.5581761
    890,  0.413214266,  0.438873082
    891,  0.585674644,   0.43839255
    892,   0.41280669,   0.55865413
    893,  0.585360706,  0.564202011
    894,  0.417231023,  0.433594704
    895,  0.581930995,  0.433108211
    896,  0.416103631,  0.564189494
    897,  0.581595123,   0.57074517
    898,  0.421678722,  0.428175092
    899,  0.577646434,  0.427749604
    900,  0.419833899,  0.570204675
    901,  0.576774776,  0.577549338
    902,  0.426706284,  0.422610521
    903,  0.424251556,  0.576904178
    904,  0.572685182,  0.422320753
    905,  0.570218325,  0.583562791
    906,  0.432517231,  0.416881412
    907,   0.42998457,  0.584006011
    908,  0.439325988,   0.41097337
    909,  0.562544167,  0.589470029
    910,  0.566814005,  0.416780829
    911,  0.437419921,  0.589975119
    912,  0.447328269,  0.404926479
    913,  0.553919077,  0.595477641
    914,  0.559780955,  0.411118925
    915,  0.456788659,  0.398874819
    916,  0.446082652,   0.59538573
    917,  0.544052541,  0.601489425
    918,   0.55137527,  0.405449867
    919,  0.467906594,  0.393570155
    920,   0.45592773,  0.600294948
    921,  0.480105907,  0.390735656
    922,  0.532468498,  0.607091606
    923,  0.492996126,  0.389121652
    924,  0.541483283,  0.400045753
    925,   0.50610894,  0.389092535
    926,  0.530443847,  0.395427555
    927,  0.518582225,  0.391831785
    928,  0.466943979,  0.604618073
    929,  0.519421101,  0.611233294
    930,  0.479033172,  0.608139932
    931,  0.505850911,  0.611879706
    932,  0.492099434,  0.610658705
    933,  0.389986157,  0.498430401
    934,  0.390176684,  0.503201246
    935,  0.390621334,  0.507905722
    936,  0.390101612,  0.493674397
    937,  0.608588994,  0.499449849
    938,   0.60855341,  0.494817972
    939,  0.608470857,  0.504090965
    940,  0.391253352,  0.512515783
    941,  0.608339131,  0.490155369
    942,  0.390630484,  0.488870323
    943,  0.392049551,  0.517074287
    944,  0.608177304,  0.508754611
    945,  0.607940137,  0.485455543
    946,  0.391381443,  0.483945459
    947,  0.607346356,  0.480715573
    948,   0.39301604,  0.521634996
    949,  0.607714295,  0.513464332
    950,   0.60654372,  0.475930542
    951,  0.392192185,  0.478973448
    952,  0.394166678,   0.52624023
    953,  0.607079566,  0.518243551
    954,  0.605514765,  0.471091866
    955,  0.395506948,  0.530913532
    956,  0.392995864,  0.473927885
    957,  0.604236424,   0.46618852
    958,  0.606260836,  0.523107529
    959,  0.397037357,  0.535660565
    960,  0.602681458,  0.461210817
    961,  0.393802464,  0.468720853
    962,  0.605242133,    0.5280599
    963,   0.39875713,  0.540468216
    964,  0.600821555,  0.456148803
    965,  0.394605696,  0.463197917
    966,  0.604008019,   0.53309989
    967,  0.395397156,  0.457042813
    968,  0.400697947,  0.545360208
    969,  0.602542341,  0.538232923
    970,    0.5986287,  0.450984716
    971,  0.396267682,  0.449357986
    972,  0.600827694,  0.543476641
    973,  0.402910113,  0.550388694
    974,  0.596078277,  0.445699513
    975,  0.598850727,  0.548869133
    976,  0.401066571,   0.44411236
    977,  0.593146086,   0.44028163
    978,  0.405417144,   0.55558902
    979,   0.59661305,  0.554478884
    980,  0.405267447,  0.439070463
    981,  0.589795351,  0.434723973
    982,  0.408212394,  0.561023772
    983,  0.594129622,  0.560438693
    984,     0.409318,  0.433892906
    985,  0.585969448,  0.429024071
    986,  0.411285669,    0.5668419
    987,   0.59139061,  0.567007899
    988,  0.413499743,  0.428513616
    989,  0.581579685,  0.423179954
    990,  0.414658993,   0.57333684
    991,  0.588289499,  0.574656367
    992,  0.418030739,  0.422865093
    993,  0.418458521,  0.581161916
    994,  0.576486468,  0.417177379
    995,  0.584377527,  0.584663689
    996,  0.423103631,  0.416916996
    997,  0.423217565,  0.592194676
    998,  0.575018108,  0.591106415
    999,  0.570496261,  0.410981029
   1000,  0.428907424,  0.410639554
   1001,  0.433072746,  0.599105656
   1002,  0.435628712,  0.404004335
   1003,  0.566593468,  0.597378492
   1004,  0.563406944,  0.404566079
   1005,  0.443454683,  0.396990627
   1006,  0.442686707,  0.605132699
   1007,  0.557820857,  0.604270399
   1008,  0.555030406,   0.39797765
   1009,  0.452790201,  0.389444917
   1010,  0.453068495,  0.610513628
   1011,  0.548009753,   0.61178118
   1012,  0.464974731,  0.380399764
   1013,  0.545264661,  0.391445726
   1014,  0.479755223,  0.379147619
   1015,  0.464351565,  0.615248144
   1016,   0.49358812,  0.377359688
   1017,  0.534354985,  0.385844529
   1018,  0.509375453,     0.375505
   1019,  0.522480726,  0.382076114
   1020,  0.535945833,  0.619252026
   1021,  0.476613462,  0.619266391
   1022,  0.520860732,  0.628000855
   1023,  0.489953816,  0.622656524
   1024,  0.504374743,  0.625485778
   1025,  0.384993255,  0.503622711
   1026,  0.385562688,  0.508614004
   1027,  0.612977266,  0.499242008
   1028,  0.612848639,  0.504068136
   1029,  0.386277348,  0.513414443
   1030,  0.385533482,  0.487966537
   1031,  0.612982213,   0.49440971
   1032,  0.612569273,  0.508893907
   1033,  0.387151062,  0.518108308
   1034,  0.612826347,  0.489537418
   1035,  0.386597037,  0.482785463
   1036,  0.612495005,  0.484626383
   1037,  0.388217866,  0.522786081
   1038,  0.612140477,  0.513742507
   1039,   0.38746658,  0.477688789
   1040,  0.611966074,  0.479675859
   1041,  0.389489532,  0.527494907
   1042,  0.611563921,  0.518654048
   1043,  0.611213982,  0.474679679
   1044,  0.390939593,  0.532269478
   1045,  0.388160437,  0.472558141
   1046,  0.610213459,  0.469626874
   1047,  0.610832512,  0.523657799
   1048,  0.392526835,  0.537136316
   1049,  0.608932316,  0.464493424
   1050,  0.388752669,  0.467287362
   1051,  0.609934628,  0.528759837
   1052,  0.394208461,  0.542066634
   1053,  0.607338846,   0.45926404
   1054,  0.389253527,  0.461773574
   1055,  0.608859837,  0.533957303
   1056,   0.39606607,  0.547089875
   1057,  0.389555544,  0.455898643
   1058,  0.605413616,  0.453932345
   1059,  0.607593536,   0.53926146
   1060,  0.389188021,  0.449599087
   1061,   0.60611254,  0.544692218
   1062,  0.398194522,  0.552273214
   1063,  0.603144705,  0.448485821
   1064,  0.604389608,  0.550276995
   1065,  0.392417192,  0.441614836
   1066,  0.400607169,  0.557617486
   1067,  0.600520909,  0.442908674
   1068,  0.602422535,  0.556063294
   1069,  0.397030264,  0.438387513
   1070,  0.597526431,  0.437184602
   1071,  0.403271705,  0.563155472
   1072,  0.600263596,  0.562162697
   1073,  0.401346684,    0.4339827
   1074,  0.594127655,  0.431292504
   1075,  0.406122148,  0.569046557
   1076,  0.598031759,  0.568834722
   1077,  0.405452967,  0.428992689
   1078,  0.590266824,  0.425212771
   1079,   0.40907234,  0.575527906
   1080,  0.596012831,  0.576392174
   1081,  0.409607977,  0.423596174
   1082,  0.585855663,  0.418925047
   1083,  0.411853284,  0.583036184
   1084,   0.59495765,  0.584712386
   1085,  0.414077938,  0.417778999
   1086,  0.413425207,  0.591832817
   1087,  0.580769539,  0.412391394
   1088,  0.587319374,  0.594997525
   1089,  0.419045568,  0.411524177
   1090,  0.419989347,  0.604163527
   1091,  0.424654365,  0.404781997
   1092,   0.57894665,  0.599210024
   1093,  0.574855626,  0.405555665
   1094,  0.429028004,  0.609512627
   1095,  0.431043953,   0.39748463
   1096,  0.570898175,  0.604812086
   1097,  0.567966878,  0.398361325
   1098,  0.438308209,  0.389682472
   1099,  0.438829035,  0.615665376
   1100,  0.553940654,  0.621970177
   1101,  0.559952796,  0.390742242
   1102,  0.454759032,  0.372644275
   1103,  0.449459612,  0.621692359
   1104,  0.469706148,  0.366393358
   1105,  0.542040706,  0.629715323
   1106,  0.480667651,  0.367057115
   1107,  0.550664723,  0.382578313
   1108,  0.505010962,  0.362386703
   1109,  0.473002374,  0.631527185
   1110,  0.521893919,  0.366153657
   1111,  0.539412081,  0.373399079
   1112,  0.460800558,  0.627122283
   1113,  0.532145679,  0.639494002
   1114,  0.512946844,   0.64457643
   1115,  0.378898472,  0.498707891
   1116,  0.379573643,  0.504259467
   1117,  0.617337644,  0.504080653
   1118,  0.617490828,  0.499108225
   1119,  0.377828032,  0.492324769
   1120,  0.380211502,  0.509468913
   1121,  0.617089808,  0.509033442
   1122,  0.380931735,  0.514420211
   1123,  0.380443662,  0.486552626
   1124,  0.617541075,  0.494097441
   1125,  0.616711378,  0.513981521
   1126,  0.381858319,  0.519240558
   1127,  0.617471457,  0.489030778
   1128,  0.381896347,  0.481392831
   1129,  0.617250562,  0.483910799
   1130,  0.383065283,  0.524052978
   1131,  0.616214037,  0.518984616
   1132,  0.616831839,  0.478739589
   1133,  0.382722229,  0.476393044
   1134,   0.38453418,  0.528856218
   1135,  0.615606487,  0.524092436
   1136,  0.616167486,  0.473523617
   1137,   0.38616547,  0.533676147
   1138,  0.615214825,  0.468251228
   1139,  0.383214414,  0.471302867
   1140,  0.387824029,  0.538597107
   1141,  0.613926113,  0.462879151
   1142,  0.614892006,  0.529307723
   1143,  0.383523941,  0.466060817
   1144,   0.38932094,   0.54359448
   1145,  0.614064097,  0.534618318
   1146,  0.612271607,  0.457394451
   1147,  0.383676589,  0.460651815
   1148,  0.613089442,  0.540059268
   1149,  0.383651108,  0.455172002
   1150,  0.391013831,  0.548723936
   1151,  0.611921608,  0.545662045
   1152,  0.610255122,  0.451803595
   1153,  0.387078106,  0.443030477
   1154,  0.610516131,  0.551436186
   1155,  0.393061161,  0.554072261
   1156,  0.607891619,  0.446095318
   1157,  0.608849883,  0.557366312
   1158,  0.389399022,  0.435979009
   1159,  0.397921741,  0.565135539
   1160,  0.605188251,  0.440251589
   1161,  0.606997132,  0.563444555
   1162,   0.39365539,  0.433144599
   1163,  0.602142215,  0.434253335
   1164,   0.40051204,  0.570967972
   1165,  0.598725796,  0.428062916
   1166,  0.605157256,  0.569922805
   1167,  0.397632897,  0.429144681
   1168,  0.403016716,  0.577156246
   1169,  0.603957534,  0.577033162
   1170,  0.594888389,  0.421640754
   1171,  0.401504695,  0.424313933
   1172,  0.405007452,  0.583913445
   1173,  0.603831291,  0.584426463
   1174,  0.405454546,   0.41890192
   1175,  0.590550244,  0.414956778
   1176,  0.405744195,  0.591079593
   1177,  0.596150935,  0.593120992
   1178,  0.409737706,  0.412936628
   1179,  0.411750376,  0.600818694
   1180,  0.444558948,  0.633756399
   1181,  0.590269029,  0.603580296
   1182,  0.414469063,  0.406443745
   1183,  0.585609376,  0.407958061
   1184,  0.415335536,  0.614454329
   1185,  0.419715673,  0.399373055
   1186,  0.582689464,    0.6072523
   1187,  0.579963386,  0.400559485
   1188,   0.42554009,  0.391533315
   1189,  0.424272627,  0.620144904
   1190,  0.568961859,  0.617764473
   1191,  0.481531113,  0.649058521
   1192,  0.566288054,  0.384228975
   1193,  0.506847203,  0.658590555
   1194,  0.438688397,  0.373855531
   1195,  0.434057981,  0.626692474
   1196,  0.555193424,  0.632309318
   1197,  0.460984528,  0.361757398
   1198,  0.558441222,  0.375033468
   1199,  0.491198063,   0.35326615
   1200,  0.527435064,  0.349413872
   1201,  0.549047768,  0.638820887
   1202,  0.499888062,  0.639632642
   1203,  0.468207061,  0.645210743
   1204,  0.622127831,  0.499057412
   1205,  0.622001171,  0.504156232
   1206,  0.622242272,  0.493911803
   1207,   0.37316376,  0.487727582
   1208,  0.374451041,  0.510432959
   1209,  0.621793985,  0.509191811
   1210,  0.374984711,  0.515517592
   1211,  0.622300267,   0.48867783
   1212,  0.372896582,  0.482226461
   1213,  0.621476173,  0.514189482
   1214,  0.375979424,  0.520517588
   1215,  0.622257769,  0.483355969
   1216,  0.377909482,  0.475165844
   1217,  0.622031689,  0.477950037
   1218,  0.377452284,  0.525555313
   1219,  0.621060848,  0.519224942
   1220,  0.621531129,  0.472492129
   1221,  0.378078043,  0.470197588
   1222,  0.379267365,  0.530473351
   1223,  0.620657146,  0.466976911
   1224,  0.619330764,   0.46132943
   1225,  0.383068234,  0.539972663
   1226,  0.620600045,  0.524381161
   1227,  0.383887976,  0.544938624
   1228,  0.617562175,  0.455563396
   1229,  0.378038228,  0.465014249
   1230,  0.620141804,  0.529655159
   1231,  0.377801269,  0.459624201
   1232,  0.385422468,  0.550250828
   1233,  0.619643867,  0.535026491
   1234,  0.615403533,  0.449719071
   1235,  0.377520561,  0.454206258
   1236,  0.619029403,  0.540575206
   1237,  0.383293003,  0.449655503
   1238,   0.61823976,  0.546346366
   1239,  0.387507349,  0.555819213
   1240,  0.612912178,  0.443772256
   1241,  0.617246747,  0.552357554
   1242,  0.384371847,  0.437139869
   1243,  0.389761627,   0.56140554
   1244,  0.610118091,  0.437688917
   1245,  0.615989149,  0.558553338
   1246,  0.387505472,  0.431635767
   1247,  0.607034624,  0.431454003
   1248,  0.392095923,  0.567047298
   1249,  0.603633046,  0.425014108
   1250,  0.396752208,  0.578584433
   1251,   0.59988898,  0.418294251
   1252,  0.614339471,  0.564614832
   1253,  0.390316278,  0.428717554
   1254,  0.398463607,  0.584599793
   1255,  0.393849105,  0.424795151
   1256,    0.6119802,  0.583814323
   1257,  0.397317171,  0.420009643
   1258,   0.59572655,  0.411268473
   1259,   0.39917022,  0.590578139
   1260,  0.604931295,  0.592045665
   1261,   0.40093261,  0.414524525
   1262,  0.404492646,  0.598109484
   1263,  0.598363221,  0.601330519
   1264,  0.591063201,  0.403891981
   1265,  0.477049947,  0.663149297
   1266,  0.404943883,  0.408381641
   1267,  0.575540543,  0.611888349
   1268,  0.407619983,  0.609158933
   1269,  0.593321621,  0.611323714
   1270,  0.409340352,  0.401683122
   1271,  0.573911846,   0.37855649
   1272,  0.585855663,  0.396047413
   1273,  0.574303925,  0.622078478
   1274,  0.448014826,  0.657353461
   1275,    0.5506621,  0.365065277
   1276,  0.494533181,  0.653449953
   1277,  0.472653031,  0.356512725
   1278,  0.419344813,  0.386550069
   1279,  0.511818826,   0.34642458
   1280,  0.499662727,  0.339256734
   1281,  0.518448591,  0.665302038
   1282,  0.428116947,  0.637010098
   1283,   0.53350395,  0.360347033
   1284,  0.439079016,  0.357932806
   1285,  0.437341303,  0.645738304
   1286,  0.542279184,  0.648576677
   1287,   0.55831635,  0.645774961
   1288,  0.489640146,  0.340419173
   1289,  0.373179704,  0.499824256
   1290,  0.373902649,     0.505144
   1291,  0.626824141,  0.504287541
   1292,   0.62692374,  0.499114931
   1293,  0.371502817,  0.494715124
   1294,  0.626742244,  0.509376824
   1295,  0.369762123,  0.483674407
   1296,  0.627085984,   0.49389261
   1297,  0.626512468,  0.514390469
   1298,  0.627311528,  0.488547891
   1299,  0.372780859,  0.478612155
   1300,  0.626132071,  0.519387841
   1301,  0.369318187,  0.522051454
   1302,  0.627545714,  0.483056098
   1303,  0.372764051,  0.474154919
   1304,  0.627662778,   0.47741273
   1305,   0.37135005,  0.527496457
   1306,  0.625251889,  0.459797442
   1307,  0.626736522,  0.465808898
   1308,  0.625774682,  0.524504602
   1309,  0.378843695,  0.540866017
   1310,  0.627500236,  0.471655726
   1311,  0.376364678,   0.53729099
   1312,  0.372625053,  0.469277084
   1313,  0.379435539,  0.551807106
   1314,   0.62566638,  0.529753983
   1315,  0.623270214,  0.453703821
   1316,  0.372313976,  0.464173913
   1317,  0.625602603,  0.535110533
   1318,  0.371739805,  0.458777547
   1319,  0.381629854,  0.557612658
   1320,  0.372553498,  0.447279871
   1321,  0.625415325,  0.540736973
   1322,  0.620885015,   0.44761914
   1323,   0.62504679,  0.546640277
   1324,  0.592509687,  0.392070979
   1325,  0.586449444,  0.615216017
   1326,  0.377816021,  0.444932252
   1327,  0.624557972,   0.55286938
   1328,    0.3837367,  0.563305438
   1329,  0.618217826,   0.44147554
   1330,  0.624002039,  0.559578478
   1331,  0.378789634,  0.438456506
   1332,   0.59717685,  0.400197178
   1333,   0.61532408,  0.435187012
   1334,   0.38588053,  0.568991423
   1335,  0.608868659,  0.422141075
   1336,  0.612236977,   0.42875123
   1337,   0.39035967,  0.580207884
   1338,  0.623223305,  0.567109585
   1339,  0.382431954,  0.430225462
   1340,  0.408557266,  0.624350548
   1341,   0.39224726,   0.58565563
   1342,  0.393403023,   0.59094137
   1343,   0.61874944,  0.576419592
   1344,   0.61990124,  0.582656562
   1345,  0.613437831,  0.591025412
   1346,  0.390018046,  0.421229184
   1347,  0.392709345,  0.416225851
   1348,  0.605315387,  0.415180475
   1349,  0.395957172,   0.41056484
   1350,  0.413731575,  0.639293492
   1351,  0.606875539,  0.599927545
   1352,  0.596541822,  0.617963135
   1353,  0.398550183,  0.596004963
   1354,  0.399683952,  0.404210567
   1355,  0.466467112,  0.348775774
   1356,  0.414135218,  0.394476622
   1357,  0.537775457,  0.342418075
   1358,   0.58754164,  0.383318782
   1359,  0.400973111,  0.604498446
   1360,  0.447805166,   0.67711705
   1361,  0.553083777,  0.656500578
   1362,  0.501199603,  0.326612055
   1363,  0.561224878,  0.358181685
   1364,  0.582386613,  0.373895794
   1365,  0.429149747,  0.365317822
   1366,  0.452816427,  0.357482642
   1367,  0.562573433,  0.635681331
   1368,   0.53591013,  0.660180748
   1369,  0.555078268,  0.347326607
   1370,   0.58003062,  0.619536579
   1371,  0.501528621,  0.671576679
   1372,  0.507734597,   0.33878094
   1373,  0.478625625,  0.343140423
   1374,  0.420935452,  0.645988524
   1375,  0.367653638,  0.500908732
   1376,  0.631816924,  0.499246985
   1377,  0.366004437,  0.496308267
   1378,  0.631870031,  0.504454255
   1379,  0.368100345,   0.50584209
   1380,  0.393447876,  0.595917821
   1381,  0.632041872,  0.494079322
   1382,  0.368644923,  0.490002662
   1383,  0.632060766,  0.509558856
   1384,  0.367964149,  0.511194408
   1385,  0.365719795,  0.485453278
   1386,  0.631990552,  0.514670014
   1387,  0.632457018,  0.488733441
   1388,  0.367927551,  0.516634107
   1389,  0.361918837,  0.524223149
   1390,  0.633084536,  0.483166575
   1391,  0.367219627,  0.478517652
   1392,  0.631471813,  0.519607961
   1393,  0.631840944,  0.458133399
   1394,  0.365022689,  0.530128896
   1395,  0.633765042,  0.477339059
   1396,  0.370917708,  0.548595548
   1397,  0.629412353,  0.451674104
   1398,   0.37191236,  0.540501654
   1399,  0.367200017,  0.473471105
   1400,   0.63377589,  0.464745343
   1401,  0.634215593,  0.471200943
   1402,  0.368248194,    0.5355407
   1403,  0.630946815,  0.524463296
   1404,  0.366337419,  0.463535339
   1405,  0.373571545,  0.553951681
   1406,  0.407915384,  0.389898449
   1407,  0.626685679,  0.445405483
   1408,  0.632016361,   0.53471452
   1409,  0.395614594,  0.609821796
   1410,  0.365513682,  0.458345383
   1411,  0.370789617,  0.452759117
   1412,  0.632312059,  0.540473104
   1413,  0.368568063,  0.445966572
   1414,  0.632341325,  0.546465456
   1415,  0.412752509,  0.382504553
   1416,  0.599982798,  0.388599187
   1417,  0.632297873,  0.552656174
   1418,  0.375488132,  0.559523046
   1419,  0.623774886,  0.439160287
   1420,  0.372765809,  0.440906614
   1421,  0.632581055,  0.559211552
   1422,  0.377291918,  0.565243125
   1423,  0.620775998,  0.432721674
   1424,   0.61449331,  0.419423461
   1425,  0.602415919,  0.616072953
   1426,  0.633806407,  0.566028357
   1427,  0.376014411,  0.432034969
   1428,  0.617727101,  0.426141143
   1429,  0.394109756,  0.400616467
   1430,  0.381441832,  0.576772749
   1431,  0.386248112,    0.5876472
   1432,  0.388564795,  0.591728806
   1433,  0.607663751,  0.404830068
   1434,   0.62180239,  0.589601159
   1435,  0.626213193,  0.574342668
   1436,  0.378682435,  0.423779786
   1437,  0.401628524,  0.616038322
   1438,  0.611192822,  0.412308276
   1439,  0.386720031,  0.413097382
   1440,  0.627353966,   0.58089757
   1441,  0.386587322,  0.418615997
   1442,  0.390633553,  0.407002091
   1443,  0.608991265,  0.607838631
   1444,  0.571677685,  0.639362276
   1445,  0.504910171,   0.31274721
   1446,  0.568604589,   0.65093261
   1447,  0.615609348,  0.598736763
   1448,  0.590525031,  0.622503161
   1449,  0.407395124,  0.647645891
   1450,  0.583914042,  0.629848063
   1451,  0.577263892,   0.36350444
   1452,  0.433822393,  0.348119289
   1453,   0.42438975,  0.377157748
   1454,   0.59138006,  0.370203346
   1455,  0.412580431,  0.654003143
   1456,   0.51260978,  0.678304374
   1457,  0.492475003,  0.692193627
   1458,  0.595768452,  0.379635781
   1459,  0.512475073,  0.330050409
   1460,  0.548601568,  0.335897952
   1461,  0.529848278,  0.672910392
   1462,  0.464050293,  0.334862679
   1463,  0.406191111,  0.635047376
   1464,  0.433174342,   0.66538012
   1465,  0.463244885,  0.660433888
   1466,  0.489037663,  0.325997353
   1467,  0.541431665,  0.680851758
   1468,  0.361212313,  0.497876823
   1469,  0.636819243,  0.499440581
   1470,   0.35777539,  0.493529201
   1471,   0.36229676,  0.505722284
   1472,  0.637909651,  0.509488225
   1473,  0.360638738,  0.487034142
   1474,  0.637631357,  0.489312172
   1475,  0.382146358,  0.408059299
   1476,  0.361070037,  0.510899782
   1477,  0.358114451,  0.482101083
   1478,  0.608213603,  0.385665983
   1479,  0.638237178,  0.515147388
   1480,  0.358608484,  0.517506421
   1481,  0.638762772,  0.483901024
   1482,  0.635906816,   0.44926089
   1483,  0.354789346,  0.527746737
   1484,  0.362112969,   0.47702828
   1485,   0.64028579,  0.478101254
   1486,  0.366578311,  0.544156373
   1487,  0.638836145,  0.455936104
   1488,  0.367533386,  0.555972695
   1489,  0.632759452,  0.442912459
   1490,   0.35868445,  0.533541977
   1491,  0.641836405,  0.471647382
   1492,  0.362486184,  0.539164126
   1493,  0.642574251,  0.463645339
   1494,  0.361078233,  0.468028247
   1495,  0.637527645,  0.528036177
   1496,  0.360274941,  0.462935299
   1497,  0.368902296,  0.561291277
   1498,  0.629477084,  0.436774969
   1499,  0.639805913,  0.539818168
   1500,  0.359384775,  0.457509339
   1501,  0.366455644,  0.448184043
   1502,  0.640264452,   0.54598242
   1503,  0.640309513,  0.551973999
   1504,   0.38831225,  0.397629261
   1505,  0.640626371,  0.557953537
   1506,  0.370314449,  0.567124426
   1507,  0.617491305,  0.409739673
   1508,  0.642634869,   0.56387794
   1509,  0.369203955,   0.43344754
   1510,  0.390287161,  0.603991508
   1511,  0.620531321,  0.416856021
   1512,  0.416399479,  0.374094337
   1513,  0.380769074,  0.591228604
   1514,  0.372107625,  0.573158622
   1515,  0.636642098,  0.573677719
   1516,  0.373534888,  0.425746292
   1517,  0.614554703,  0.402108729
   1518,  0.624487936,  0.597077668
   1519,  0.385413826,  0.403450668
   1520,  0.633894503,   0.57971251
   1521,  0.595433235,  0.626840532
   1522,  0.626416504,  0.430281997
   1523,  0.618181765,  0.606968701
   1524,  0.400547504,   0.38482371
   1525,  0.610503495,  0.615599215
   1526,  0.399993449,  0.654286861
   1527,   0.38616699,  0.597111046
   1528,  0.397329897,  0.393381029
   1529,  0.394132465,    0.6210379
   1530,  0.488553494,  0.306969285
   1531,   0.58719492,  0.359782696
   1532,  0.604629815,  0.376491249
   1533,  0.398127347,  0.627553046
   1534,  0.523554444,  0.686105907
   1535,  0.425060749,  0.352903962
   1536,  0.579187334,  0.654218972
   1537,  0.420653313,   0.67362088
   1538,  0.594583809,  0.634901881
   1539,  0.581287026,  0.641977131
   1540,  0.496643186,   0.68338418
   1541,  0.442873269,  0.342489332
   1542,  0.530518115,  0.330144078
   1543,  0.559825778,  0.329891533
   1544,  0.401564807,  0.642597318
   1545,  0.448965758,  0.327084363
   1546,   0.60089916,  0.367062837
   1547,  0.564734936,  0.663287401
   1548,  0.566763341,  0.340569556
   1549,  0.553343356,  0.688626587
   1550,   0.52027452,   0.31635201
   1551,  0.473199576,  0.691946745
   1552,  0.358099282,  0.500403345
   1553,  0.348787308,  0.490396231
   1554,  0.355228812,  0.508658111
   1555,  0.636970162,  0.504490256
   1556,  0.644973099,  0.507942021
   1557,   0.35224545,  0.483251512
   1558,   0.64270097,   0.49031657
   1559,  0.351494521,  0.512875676
   1560,   0.36436516,  0.575370967
   1561,  0.378125131,  0.410621673
   1562,  0.349956602,  0.477882653
   1563,   0.64514488,  0.515768886
   1564,  0.643063545,  0.446188837
   1565,   0.64440608,  0.485527009
   1566,   0.64597255,  0.452938884
   1567,  0.360377878,  0.549599171
   1568,  0.637127697,  0.584493101
   1569,  0.356301934,  0.543257654
   1570,  0.355472773,   0.47259599
   1571,  0.647429824,  0.458470672
   1572,  0.639076293,  0.439742476
   1573,  0.644314528,  0.523958504
   1574,  0.388925195,  0.614782572
   1575,  0.626980245,  0.414456099
   1576,  0.646411598,  0.531772912
   1577,  0.358716309,  0.452142328
   1578,  0.362584174,  0.568740785
   1579,  0.359380186,  0.447526157
   1580,  0.649457872,   0.54546231
   1581,  0.601965368,  0.623547792
   1582,  0.382380664,  0.395307809
   1583,  0.624209225,  0.407467246
   1584,  0.360847533,  0.434678227
   1585,  0.611602008,  0.394095659
   1586,  0.386273801,  0.626241505
   1587,  0.622024953,  0.399920255
   1588,  0.356776088,  0.504175007
   1589,    0.6507833,  0.561054766
   1590,  0.352444112,  0.537294984
   1591,  0.646342337,  0.570140064
   1592,  0.406620771,  0.378439605
   1593,  0.635006309,  0.434262276
   1594,  0.629644513,  0.421257704
   1595,  0.380328566,  0.400567204
   1596,  0.377195686,  0.585336387
   1597,  0.390577674,  0.390879571
   1598,   0.64233917,   0.49515596
   1599,  0.374265075,  0.595318556
   1600,  0.613928318,  0.373871237
   1601,  0.620134354,  0.615415871
   1602,  0.350505143,  0.522198141
   1603,  0.646914065,  0.480340183
   1604,  0.633018613,  0.594400167
   1605,  0.371599287,  0.419986039
   1606,  0.628032923,  0.605359316
   1607,  0.410067886,   0.37290445
   1608,  0.428238869,  0.337804377
   1609,  0.604058623,  0.631891072
   1610,  0.359743863,  0.426593989
   1611,  0.378965914,  0.601825118
   1612,  0.571221292,  0.682565749
   1613,  0.391858578,  0.383469343
   1614,  0.421033829,  0.343278617
   1615,  0.390396386,  0.632201195
   1616,  0.596874118,  0.357521027
   1617,  0.569344103,  0.324368089
   1618,  0.600766122,  0.640982866
   1619,  0.501417994,  0.289247572
   1620,  0.542104244,  0.323172897
   1621,  0.589218855,  0.655001462
   1622,  0.611508548,   0.36290732
   1623,  0.472456247,  0.316483438
   1624,  0.437689483,  0.331811726
   1625,  0.497751832,  0.701374471
   1626,  0.460340351,  0.692486942
   1627,  0.583752096,  0.347463757
   1628,  0.406615406,  0.678159356
   1629,  0.516204119,    0.6995911
   1630,  0.642060995,  0.499891758
   1631,   0.34140709,   0.49129203
   1632,  0.630862176,  0.405414701
   1633,   0.34666723,  0.508134425
   1634,  0.652325511,  0.508774221
   1635,  0.345954746,  0.484579742
   1636,  0.346569836,   0.54072237
   1637,  0.350925744,  0.506174624
   1638,  0.652676523,  0.484248996
   1639,  0.376779795,  0.404901564
   1640,  0.654773772,   0.53100127
   1641,  0.645426631,  0.434425503
   1642,   0.65106678,  0.442410141
   1643,  0.351856112,  0.553043246
   1644,  0.652654886,  0.515884519
   1645,  0.656461656,    0.4807069
   1646,  0.349223524,  0.546674609
   1647,  0.370137841,  0.588806629
   1648,  0.654594183,  0.537408829
   1649,  0.639285505,    0.4316912
   1650,  0.345048815,  0.516722262
   1651,  0.354182839,  0.561004102
   1652,  0.649977505,  0.488511175
   1653,  0.383936375,  0.389175206
   1654,  0.653799832,  0.459481716
   1655,   0.35046041,  0.433424652
   1656,  0.343253195,  0.526187778
   1657,  0.342448652,  0.478895068
   1658,  0.641262591,  0.590522647
   1659,   0.61162436,  0.630156279
   1660,   0.63814038,  0.426171154
   1661,  0.366835028,  0.582173645
   1662,  0.649216473,  0.552023411
   1663,  0.375322729,  0.399217963
   1664,  0.406233341,  0.365739584
   1665,  0.647355139,  0.556871951
   1666,  0.632567167,  0.615412056
   1667,  0.350601912,  0.425342917
   1668,   0.65929383,  0.467731893
   1669,  0.347861797,   0.46732524
   1670,  0.351741612,  0.442419976
   1671,  0.398251057,  0.377752155
   1672,  0.634137988,  0.411836386
   1673,  0.348000109,  0.457160741
   1674,  0.353845835,  0.569873929
   1675,  0.625955224,  0.380999714
   1676,  0.637378871,  0.601814985
   1677,  0.384644687,  0.382409096
   1678,  0.415277004,  0.355067968
   1679,  0.620232344,  0.391725183
   1680,   0.37864539,  0.632064939
   1681,  0.371576697,  0.606551647
   1682,   0.63136524,  0.349786311
   1683,  0.381517917,  0.619948149
   1684,  0.376478136,  0.613339245
   1685,  0.590821087,  0.665508389
   1686,  0.359975964,  0.418685645
   1687,  0.554684103,  0.318185359
   1688,  0.643406808,  0.580001831
   1689,  0.416178107,  0.336832494
   1690,  0.607731521,  0.639639258
   1691,  0.464471936,  0.306010693
   1692,   0.60656321,  0.347953916
   1693,  0.578470349,  0.669411361
   1694,  0.445571721,  0.313739449
   1695,  0.580555737,  0.331818789
   1696,  0.547001541,  0.702606142
   1697,  0.527280688,  0.708466947
   1698,  0.473542541,  0.706761479
   1699,  0.582772195,  0.690096498
   1700,  0.506142914,  0.713952661
   1701,  0.416904002,  0.661658108
   1702,  0.641306758,  0.504002035
   1703,  0.342994571,  0.497169435
   1704,  0.339608788,  0.510689199
   1705,  0.662703037,  0.522433937
   1706,  0.333163023,  0.490779191
   1707,  0.658067405,  0.509388387
   1708,  0.656205356,  0.451332122
   1709,  0.650256813,  0.425083041
   1710,  0.340616465,  0.486344159
   1711,  0.344160467,  0.502626777
   1712,   0.65589726,  0.494029224
   1713,  0.341635376,  0.543123126
   1714,  0.341887802,  0.535440862
   1715,  0.376361459,  0.393818259
   1716,  0.340734571,  0.548830986
   1717,  0.359555632,  0.398162037
   1718,  0.620039582,  0.623454511
   1719,  0.644304872,  0.425791621
   1720,  0.647098899,   0.49149248
   1721,  0.652665675,  0.566248119
   1722,  0.337808192,  0.520499408
   1723,  0.636052787,  0.401753247
   1724,  0.660184741,  0.462001204
   1725,  0.368807048,  0.618601918
   1726,  0.663523376,  0.477369457
   1727,  0.658995748,  0.487065434
   1728,  0.355794251,  0.577703297
   1729,  0.661675096,  0.543357909
   1730,  0.377628922,  0.388175786
   1731,  0.631035626,  0.389692485
   1732,  0.343931228,  0.562229991
   1733,  0.366711229,  0.599758744
   1734,  0.404950708,  0.355235189
   1735,  0.611021578,  0.649928093
   1736,  0.664120853,  0.531747699
   1737,  0.391856849,  0.375117451
   1738,  0.340570927,  0.472832084
   1739,  0.393805653,  0.639020741
   1740,    0.6468907,  0.597525179
   1741,  0.642381072,  0.609214723
   1742,  0.643165767,   0.41783905
   1743,  0.342254788,  0.451734781
   1744,  0.630581737,  0.363026291
   1745,  0.340551645,  0.466801137
   1746,  0.639899015,  0.358061671
   1747,  0.599754453,  0.662735462
   1748,  0.351812631,  0.417265177
   1749,  0.599741101,  0.647698283
   1750,  0.373784959,  0.625513136
   1751,  0.363642782,  0.611781776
   1752,   0.39578864,  0.364359111
   1753,  0.595413506,  0.346241891
   1754,  0.621047556,  0.343063891
   1755,  0.362277597,  0.409678936
   1756,  0.648465574,  0.585247159
   1757,  0.596273303,  0.333530962
   1758,  0.340268463,  0.441843748
   1759,  0.539488196,   0.71753788
   1760,  0.413248926,  0.346392721
   1761,  0.418301523,  0.327344358
   1762,  0.552158415,  0.305993944
   1763,  0.588315964,  0.680666983
   1764,  0.393542081,  0.680268466
   1765,  0.469880074,  0.723097503
   1766,   0.53001219,   0.73222518
   1767,  0.585219324,   0.31477493
   1768,  0.654364765,   0.50202018
   1769,  0.647655368,  0.501188576
   1770,  0.335909039,  0.504322231
   1771,   0.32310462,  0.492102832
   1772,  0.358634114,  0.585393548
   1773,  0.630294979,  0.625595808
   1774,  0.372426242,  0.387769341
   1775,  0.667880952,  0.458222508
   1776,  0.657160759,  0.425257057
   1777,  0.614819229,  0.636619449
   1778,  0.666235209,  0.497293621
   1779,  0.383897394,  0.638816237
   1780,  0.369668007,  0.392115772
   1781,  0.358538628,  0.604706883
   1782,  0.334659278,  0.497960627
   1783,  0.618798137,  0.630987465
   1784,  0.676078975,  0.530584097
   1785,  0.360716164,  0.624432802
   1786,  0.644953668,  0.370230019
   1787,  0.333207041,  0.482067764
   1788,   0.36226055,  0.592750132
   1789,  0.342293054,  0.414863318
   1790,  0.639240146,  0.381950229
   1791,  0.649828136,  0.418144166
   1792,  0.651609659,  0.410440326
   1793,  0.370030403,  0.638443291
   1794,  0.376665652,  0.374877691
   1795,  0.678034782,  0.543372452
   1796,  0.394149363,  0.354515225
   1797,  0.605828047,  0.658184528
   1798,  0.652955353,  0.605572999
   1799,  0.329480916,  0.472039878
   1800,  0.331516236,  0.459729314
   1801,  0.331097782,  0.451618612
   1802,  0.329882294,  0.536376774
   1803,  0.671189129,  0.486644119
   1804,  0.626682043,  0.333582699
   1805,  0.409459203,  0.339634866
   1806,  0.325522244,  0.430870533
   1807,  0.353825659,  0.402561516
   1808,  0.387659848,  0.669309378
   1809,  0.346607029,  0.580672741
   1810,  0.660423577,  0.514788926
   1811,  0.330446422,  0.524622679
   1812,   0.57863903,  0.702466965
   1813,  0.386369407,  0.367177725
   1814,  0.668271303,  0.469878882
   1815,  0.333128273,  0.544132233
   1816,  0.656126082,  0.591872215
   1817,   0.59927386,  0.279437453
   1818,  0.642848551,  0.332109988
   1819,  0.596892774,  0.675264657
   1820,   0.67926228,   0.55768311
   1821,  0.490657598,  0.729320765
   1822,  0.440111488,   0.29500252
   1823,  0.614377737,  0.326208442
   1824,  0.661708951,  0.504663467
   1825,  0.667931795,  0.510840952
   1826,  0.375110358,  0.644881308
   1827,  0.622534275,  0.644499123
   1828,  0.322323054,  0.528458297
   1829,  0.629623055,  0.398895383
   1830,  0.353647858,  0.597147286
   1831,  0.668944955,  0.428240538
   1832,  0.326905638,  0.498861879
   1833,  0.370236874,  0.383061349
   1834,  0.646897435,  0.398991764
   1835,  0.355246544,  0.617762685
   1836,  0.389758945,  0.656271756
   1837,  0.342190236,  0.571922481
   1838,  0.358953476,  0.646022201
   1839,  0.658957422,  0.414278924
   1840,  0.613634229,  0.681628525
   1841,  0.353589237,    0.4093633
   1842,  0.671268106,  0.447518587
   1843,  0.403695494,  0.331213176
   1844,  0.624827027,  0.654223144
   1845,   0.68113476,  0.475315303
   1846,  0.352615058,   0.63165319
   1847,  0.335967839,  0.554476142
   1848,  0.349501193,  0.589182079
   1849,   0.32100296,  0.475653201
   1850,    0.6714136,  0.437331378
   1851,  0.322658926,  0.453006595
   1852,  0.665286243,  0.584395051
   1853,  0.383696079,  0.357104868
   1854,  0.657162368,  0.363353491
   1855,  0.683441222,   0.49607417
   1856,  0.362052321,  0.378752381
   1857,  0.331515282,   0.51399529
   1858,  0.411709875,  0.312692791
   1859,  0.638164222,  0.638240397
   1860,  0.681794047,  0.460673511
   1861,   0.67898947,  0.575160742
   1862,  0.326789826,  0.419493049
   1863,  0.672776699,  0.519604146
   1864,  0.644086003,  0.621271074
   1865,  0.595355332,  0.695561051
   1866,  0.621429503,  0.314493388
   1867,  0.656903446,  0.329221696
   1868,  0.424481601,  0.294647604
   1869,   0.69817096,  0.555549026
   1870,  0.377741724,  0.662735641
   1871,  0.657342374,  0.614409029
   1872,  0.689307094,  0.526367366
   1873,  0.572789788,  0.292715341
   1874,  0.656204045,  0.623918116
   1875,  0.345438868,  0.407309502
   1876,  0.349860966,  0.610472322
   1877,  0.683151662,  0.514373243
   1878,  0.684231758,   0.43503651
   1879,  0.640114069,  0.394938588
   1880,  0.675568759,  0.504421115
   1881,   0.34808597,  0.400306344
   1882,   0.33881703,   0.58434844
   1883,  0.655655563,   0.40201053
   1884,  0.353081107,  0.659581602
   1885,  0.671325088,  0.414668381
   1886,  0.320990384,  0.540915012
   1887,  0.334970653,  0.561125636
   1888,  0.325019509,  0.550443828
   1889,  0.344475061,  0.602356553
   1890,   0.36845389,  0.375751883
   1891,  0.337007701,  0.381690949
   1892,  0.692757368,  0.487237781
   1893,  0.404864222,    0.3459014
   1894,  0.633825421,  0.323683053
   1895,  0.374039114,  0.360688746
   1896,  0.378811747,  0.347057492
   1897,  0.383423448,  0.328790903
   1898,  0.338200927,  0.403306991
   1899,  0.652847767,  0.378803581
   1900,  0.717652977,  0.550369561
   1901,   0.32366091,  0.506288886
   1902,   0.67462939,  0.612301469
   1903,  0.345396459,  0.641956747
   1904,  0.308808893,  0.454223514
   1905,  0.406657994,   0.29716441
   1906,  0.634871244,  0.647265792
   1907,  0.710891545,  0.533857346
   1908,  0.651091576,  0.642966986
   1909,  0.677844048,  0.365603149
   1910,  0.424901307,  0.279616147
   1911,  0.326250464,  0.518464029
   1912,  0.346228361,  0.625174284
   1913,  0.305487186,  0.482200533
   1914,  0.603419483,  0.684305847
   1915,  0.365667492,  0.665993392
   1916,  0.683615088,    0.4484559
   1917,  0.616676629,  0.290945321
   1918,  0.396352798,  0.318700254
   1919,  0.686039329,   0.59534806
   1920,  0.307403058,  0.431967974
   1921,  0.453114122,  0.299347818
   1922,  0.589792728,  0.721407354
   1923,    0.4445436,   0.69720608
   1924,  0.324548185,  0.560776412
   1925,  0.331411421,  0.579396307
   1926,  0.355422914,  0.373847485
   1927,  0.338260621,  0.593182027
   1928,  0.664257646,  0.407199651
   1929,  0.330976129,  0.623981178
   1930,  0.370539546,  0.353604317
   1931,   0.31012544,   0.41168499
   1932,  0.314822823,   0.51701957
   1933,  0.660329759,  0.391814083
   1934,   0.33572495,  0.634396255
   1935,  0.693836272,  0.506989717
   1936,   0.36532104,  0.366097331
   1937,  0.645747662,  0.659034193
   1938,  0.665922225,  0.377208114
   1939,  0.669535816,  0.627583742
   1940,  0.708254397,  0.466296315
   1941,  0.320917189,  0.391236812
   1942,  0.675582469,  0.338534057
   1943,  0.689427137,  0.352974653
   1944,  0.357662171,   0.68777281
   1945,  0.405024529,  0.280584127
   1946,  0.698814929,  0.437512934
   1947,  0.594175875,  0.708226681
   1948,  0.426020265,  0.263915122
   1949,  0.685426533,  0.417394698
   1950,  0.432572305,   0.71384263
   1951,  0.697166085,  0.450122327
   1952,  0.662047088,   0.63789928
   1953,  0.311177135,  0.541613221
   1954,  0.374166578,  0.318994462
   1955,  0.630971253,  0.303203613
   1956,  0.570070207,   0.73291254
   1957,   0.28631106,  0.430708855
   1958,  0.385601282,  0.302748561
   1959,  0.693867803,  0.622236967
   1960,  0.344420373,  0.366801262
   1961,  0.331562132,   0.60080409
   1962,  0.670873106,  0.398362517
   1963,  0.311148763,  0.551451683
   1964,  0.327401191,  0.589187384
   1965,  0.325125098,  0.613297343
   1966,  0.357786566,  0.352481037
   1967,  0.297866106,  0.538008094
   1968,   0.32055819,  0.582846999
   1969,  0.716478884,  0.509999514
   1970,  0.337366194,  0.655728638
   1971,   0.69017756,  0.378205985
   1972,  0.671415687,  0.648497224
   1973,  0.360750794,  0.330226928
   1974,  0.309348077,  0.392580539
   1975,  0.699629545,  0.425024956
   1976,  0.370056778,  0.338862687
   1977,   0.69613409,  0.412144691
   1978,  0.361374825,  0.283740133
   1979,  0.697723806,  0.650635183
   1980,  0.614902496,  0.712268472
   1981,  0.569954813,   0.75602293
   1982,  0.646627009,  0.672068059
   1983,  0.651115775,  0.306305289
   1984,  0.625428379,  0.699209094
   1985,  0.383355379,  0.262052208
   1986,  0.447202235,  0.262696177
   1987,  0.303839982,  0.526452959
   1988,  0.365485549,  0.704061151
   1989,  0.546146512,  0.745175719
   1990,  0.703110993,   0.34222737
   1991,  0.713434994,  0.634050071
   1992,  0.337190539,  0.693776429
   1993,  0.619294107,  0.659608066
   1994,   0.36484319,   0.30108726
   1995,   0.42581141,  0.248632446
   1996,  0.301299989,  0.445305794
   1997,  0.665333629,  0.283390135
   1998,  0.409444422,    0.7098791
   1999,  0.303515822,   0.57782197
   2000,  0.321234852,  0.629209638
   2001,  0.341008395,  0.292967111
   2002,  0.689355254,  0.399796396
   2003,    0.7092821,  0.407213569
   2004,   0.30259797,  0.371488333
   2005,  0.320054352,  0.600286186
   2006,  0.280028194,  0.533017814
   2007,  0.347106427,  0.307565778
   2008,  0.729875386,  0.497645676
   2009,  0.329947531,  0.360447317
   2010,  0.713968337,   0.43837586
   2011,  0.711489916,  0.358513355
   2012,  0.647111237,  0.687773764
   2013,  0.589167237,  0.769590259
   2014,  0.313927591,  0.672247648
   2015,  0.345787376,  0.711942077
   2016,  0.468920499,   0.26562044
   2017,  0.409116745,  0.248726889
   2018,  0.296406537,  0.551095843
   2019,  0.389988154,  0.241887763
   2020,  0.341415614,  0.327382416
   2021,  0.693973899,  0.289966315
   2022,  0.513072073,  0.743376136
   2023,  0.298585624,  0.597293258
   2024,  0.712290347,  0.452959061
   2025,  0.307430476,   0.60871923
   2026,  0.329257876,  0.319661498
   2027,  0.312553614,  0.354391366
   2028,  0.731075406,  0.439204365
   2029,  0.314462006,  0.620125949
   2030,   0.72160399,  0.366916984
   2031,  0.475289881,  0.293280691
   2032,  0.729885578,  0.420901269
   2033,  0.298511863,  0.564762354
   2034,  0.663496792,  0.669629633
   2035,  0.331088126,  0.277658612
   2036,  0.322718859,    0.3386814
   2037,  0.460589319,  0.284472078
   2038,  0.291894019,  0.669914305
   2039,  0.305390805,  0.628139973
   2040,  0.279159665,  0.551025748
   2041,  0.645163059,  0.705687463
   2042,  0.285681903,  0.607056737
   2043,  0.266984433,   0.57399565
   2044,  0.669065297,  0.707917511
   2045,  0.297256708,  0.617639065
   2046,  0.725121975,  0.402215838
   2047,  0.729032099,  0.456837833
   2048,  0.292345941,  0.648347735
   2049,  0.723657727,  0.472894907
   2050,   0.31489858,  0.292091548
   2051,  0.290029615,  0.583957791
   2052,  0.259458542,  0.553439081
   2053,   0.71709305,  0.382456869
   2054,  0.311918348,  0.310434759
   2055,  0.770146132,  0.467606455
   2056,  0.744745851,  0.397781551
   2057,   0.70182389,  0.391809046
   2058,  0.239544749,  0.562605083
   2059,  0.271440059,  0.622057736
   2060,  0.249983713,  0.582597375
   2061,  0.767210066,  0.390429795
   2062,  0.773393631,   0.44183746
   2063,  0.275611371,  0.591720521
   2064,  0.226893023,  0.540641367
   2065,  0.733370721,  0.368618459
   2066,  0.740494251,  0.357685596
   2067,  0.236779809,  0.502052903
   2068,  0.745553017,  0.339850783
   2069,  0.231546283,  0.596451759
   2070,  0.704605103,  0.590476513
   2071,  0.560150385,  0.710356951
   2072,  0.291163832,  0.344528645
   2073,  0.719009221,  0.295124203
   2074,  0.459690005,  0.740073562
   2075,  0.329419702,  0.753353179
   2076,  0.258699507,  0.487173885
   2077,   0.29134506,  0.388672799
   2078,  0.254064858,  0.526297212
   2079,  0.718452573,  0.317416161
   2080,  0.749830425,  0.418551028
   2081,  0.288819164,   0.51738447
   2082,  0.666672349,  0.309117466
   2083,  0.555603802,  0.254295677
   2084,  0.269570351,  0.670106411
   2085,   0.32764852,  0.245223537
   2086,  0.787475526,  0.498135746
   2087,  0.478751928,  0.238345012
   2088,  0.248998985,  0.645987093
   2089,  0.605861843,  0.811635435
   2090,  0.672068417,  0.256699979
   2091,  0.423060149,  0.206143558
   2092,  0.439222127,  0.223753199
   2093,  0.355525583,  0.726057649
   2094,  0.644046664,  0.251422882
   2095,  0.269996732,  0.455859691
   2096,  0.223623231,  0.477537841
   2097,  0.204373896,  0.619358242
   2098,  0.357781857,  0.196680635
   2099,  0.619933128,   0.77832067
   2100,   0.79746443,  0.413347483
   2101,  0.535206556,  0.790257931
   2102,  0.530792117,  0.809456408
   2103,   0.36665839,  0.233102635
   2104,  0.248506621,  0.624613583
   2105,  0.624937415,    0.7435776
   2106,  0.322243601,  0.826991439
   2107,    0.3291201,  0.773035526
   2108,  0.444105506,  0.727009833
   2109,  0.642926097,  0.824966133
   2110,  0.376058191,  0.743815899
   2111,  0.313806325,  0.210877895
   2112,  0.548701227,  0.232435584
   2113,  0.578619123,  0.227210119
   2114,  0.405072272,  0.156830698
   2115,  0.273188949,  0.781399727
   2116,  0.354065865,  0.772167563
   2117,  0.341496795,  0.221843407
   2118,  0.398310214,  0.737881899
   2119,  0.619247735,  0.863046885
   2120,  0.962337315,  0.961767852
   2121, 0.0391057208,  0.960435688
   2122, 0.0389225595, 0.0395457409
   2123,  0.503428936, 0.0234115515
   2124,  0.384511709,  0.493129641
   2125,   0.38449496,  0.498397976
   2126,  0.926181436,  0.923714876
   2127, 0.0773211345, 0.0794745311
   2128,  0.389960885,  0.927794278
   2129,  0.446458101,  0.381505638
   2130,  0.492722839,  0.365481466
   2131,  0.562776744,  0.612002909
   2132,   0.52745229,  0.373818994
   2133,  0.468402416,  0.891065538
   2134,  0.381750375,  0.443856388
   2135,  0.431859463,  0.382799178
   2136,  0.446206778,  0.365697116
   2137,  0.896365702,  0.848344564
   2138,   0.11549098,  0.120103575
   2139,   0.50167191,  0.350742072
   2140,  0.376024127,  0.484201074
   2141,  0.377278894,  0.479779273
   2142,  0.511984468,  0.862366498
   2143,   0.54807198,   0.86739105
   2144,  0.526661396,  0.175870821
   2145,  0.395368129,  0.559568703
   2146,  0.520970583,  0.338786483
   2147,  0.573548019,   0.39267239
   2148,  0.142279312,  0.164519295
   2149,  0.137544513,  0.199849159
   2150,  0.564689815,  0.626204371
   2151,  0.377628177,  0.449056178
   2152,  0.773210168,  0.755469739
   2153,  0.363272399,  0.491695195
   2154,  0.447143972,  0.351571172
   2155,  0.489684075,  0.666815996
   2156,  0.611562431,  0.577141583
   2157,  0.612257779,  0.570626438
   2158,  0.551884055,  0.839076459
   2159,   0.58256197,  0.840193629
   2160,   0.77030015,  0.551836669
   2161,   0.39445594,  0.572784781
   2162,  0.455336958,   0.34849894
   2163,  0.363116205,  0.480854481
   2164,  0.366815001,  0.468523204
   2165,  0.386420071,  0.425300896
   2166,   0.18868649,  0.737359464
   2167,  0.559316039,  0.675609648
   2168,  0.362463742,  0.501521289
   2169,  0.354802281,  0.488593042
   2170,  0.165907189,   0.17274791
   2171,  0.476255119,  0.329790592
   2172,   0.61805737,  0.571647346
   2173,  0.474068433,  0.677640915
   2174,  0.383691937,  0.608468652
   2175,  0.501511812,  0.257635236
   2176,  0.326228827,  0.798621953
   2177,  0.752604306,  0.587721825
   2178,  0.695844352,  0.701557815
   2179,  0.518675148,  0.779102445
   2180,  0.388091177,  0.574682295
   2181,  0.399610162,  0.633536398
   2182,  0.381232142,  0.535235524
   2183,  0.567569971,  0.368635505
   2184,  0.373711199,  0.532634854
   2185,  0.165559381,  0.670952857
   2186,   0.36459595,   0.45348534
   2187,  0.199112788,  0.180611938
   2188,  0.308471829,  0.156776115
   2189,   0.36162892,  0.472744584
   2190,  0.382994294,  0.420874387
   2191,  0.590678573,   0.64481461
   2192,  0.565706968,  0.696013808
   2193,    0.3664639,  0.441455871
   2194,  0.383741558,  0.582459927
   2195,  0.403585225,   0.22301954
   2196,  0.356341004,  0.477272213
   2197,  0.460438192,  0.323380738
   2198,  0.688883722,  0.680161595
   2199,  0.723372579,  0.569122374
   2200,  0.288213402,  0.758393407
   2201,  0.195964798,  0.213514701
   2202,  0.763241291,  0.494502693
   2203,  0.531232893,  0.288490772
   2204,  0.553127527,  0.289263725
   2205,  0.611054301,  0.623064101
   2206,  0.744734406,  0.511973917
   2207,  0.363802195,  0.449874252
   2208,   0.37692067,  0.545499444
   2209,  0.426620394,  0.689204991
   2210,  0.379206926,  0.571050346
   2211,  0.354638547,  0.467626601
   2212,   0.35097307,  0.502181351
   2213,  0.401905805,  0.373292148
   2214,  0.348486125,  0.472615838
   2215,  0.353134155,  0.456731945
   2216,   0.35149911,  0.450394154
   2217,  0.362529129,  0.444199294
   2218,   0.35839653,  0.440133184
   2219,  0.380782813,  0.415672481
   2220,   0.18951039,  0.672341824
   2221,  0.484031886,  0.692541957
   2222,  0.456829131,  0.314638495
   2223,  0.429201037,  0.742875695
   2224,  0.463046432,  0.704369009
   2225,  0.455104649,  0.713167846
   2226,  0.641240001,  0.629468977
   2227,  0.574235916,   0.71634537
   2228,  0.556074739,  0.271332473
   2229,  0.431569189,  0.320499748
   2230,  0.397602886,  0.648158014
   2231,  0.385303706,  0.646078885
   2232,    0.3672719,  0.426674277
   2233,  0.653567135,  0.577052236
   2234,  0.227626339,  0.648100138
   2235,  0.396508485,  0.370749801
   2236,  0.366692454,  0.420308053
   2237,  0.372998685,  0.412571758
   2238,  0.426164508,  0.308554411
   2239,  0.229666829,  0.187933877
   2240,  0.347411335,  0.461746305
   2241,  0.748393297,  0.461920291
   2242,  0.366387308,  0.551546872
   2243,  0.423196048,  0.704734206
   2244,  0.591000021,  0.297884166
   2245,  0.605354249,  0.671094656
   2246,  0.232819259,  0.291910946
   2247,  0.391505867,  0.647386968
   2248,  0.652760446,  0.633026063
   2249,  0.584068179,  0.733150423
   2250,  0.336227715,  0.530570626
   2251,  0.384683222,  0.375148267
   2252,  0.645437777,  0.269850791
   2253,  0.247648597,  0.607107043
   2254,  0.644125581,   0.64983511
   2255,  0.629892051,  0.670233727
   2256,  0.633969903,  0.657803893
   2257,  0.300967693,  0.505553126
   2258,  0.249873579,  0.665239334
   2259,  0.264663905,  0.433932006
   2260,  0.379489869,  0.652957141
   2261,  0.671364546,  0.593410492
   2262,  0.340303212,  0.459953696
   2263,  0.339067072,  0.432190925
   2264,  0.368587285,    0.4153153
   2265,  0.361915678,   0.56243068
   2266,  0.333512038,  0.466183931
   2267,  0.661219537,  0.556304157
   2268,   0.60638392,  0.730118155
   2269,  0.600417554,  0.319773585
   2270,  0.361024231,  0.556960583
   2271,  0.644314051,  0.292804778
   2272,  0.612464845,  0.665336907
   2273,  0.618620574,  0.672672987
   2274,  0.311965793,  0.470568717
   2275,   0.33704856,   0.53959316
   2276,  0.704827726,  0.497842848
   2277,   0.27050209,  0.228194207
   2278,  0.297961831,  0.465727329
   2279,  0.312361956,  0.562310696
   2280,  0.315637887,  0.573288739
   2281,   0.34063521,  0.617263794
   2282,  0.358806849,  0.636190355
   2283,  0.377413392,  0.381965548
   2284,  0.313848615,  0.265575111
   2285,  0.290531099,  0.258250117
   2286,  0.328333884,  0.442074358
   2287,  0.604014218,   0.39689523
   2288,  0.369778305,  0.406381667
   2289,  0.653712153,  0.523416877
   2290,  0.715279698,  0.486717165
   2291,  0.617128134,  0.383201957
   2292,   0.63147068,  0.529457569
   2293,  0.639087975,  0.533592641
   2294,  0.343412369,  0.555108488
   2295,  0.724229515,  0.354334712
   2296,  0.702072322,  0.478187859
   2297,  0.368827671,  0.652451396
   2298,  0.352266192,  0.672528923
   2299,  0.332258403,   0.41031304
   2300,  0.320789188,  0.483119398
   2301,  0.368282646,  0.398908228
   2302,  0.261865348,  0.320708841
   2303,  0.616198182,  0.352440476
   2304,  0.679457128,  0.388070881
   2305,  0.286952049,  0.276051193
   2306,  0.326563597,  0.570415437
   2307,    0.3534922,  0.319631219
   2308,  0.364733785,  0.312959552
   2309,  0.334579229,  0.567571402
   2310,   0.32393834,  0.402656436
   2311,  0.333346069,  0.397005022
   2312,  0.637149513,   0.49451524
   2313,  0.692612767,  0.471521825
   2314,  0.340945542,  0.392471582
   2315,  0.635419667,  0.524351001
   2316,  0.638448179,  0.341244459
   2317,  0.625086546,  0.356946141
   2318,   0.62340188,  0.372377664
   2319,  0.308860391,  0.334177196
   2320,  0.290092975,  0.298697919
   2321,  0.689943552,  0.425723612
   2322,  0.350051165,  0.393125981
   2323,  0.351304173,  0.383920372
   2324,   0.63217324,  0.427927226
   2325,  0.637404323,  0.520556927
   2326,  0.330211669,  0.390226871
   2327,  0.289730698,  0.319295168
   2328,   0.65151304,  0.466442138
   2329,  0.632873893,  0.370715201
   2330,  0.632833183,  0.377803028
   2331,  0.636398256,  0.419090152
   2332,  0.642517507,  0.408070385
   2333,  0.677415669,  0.423726112
   2334,  0.664474547,  0.420395494
   2335,  0.657994986,  0.472769618
   2336,  0.655271113,  0.419098467
   2337,   0.66196847,  0.430421472
   2338,  0.662174463,  0.445535451
   2339,   0.65270257,  0.431061357
*Element, type=CPE3
 1, 2137,  419,  340
 2, 2109,  462,  392
 3,  466,  513, 2089
 4, 2202, 2086,  598
 5, 2200,  571,  519
 6,  548,  483,  542
 7, 2234,  595,  523
 8, 1797, 1747,  689
 9, 1581, 1352, 1425
10, 1974,  665, 1941
11, 2162, 1366, 2154
12, 2163, 1484, 1391
13, 1550, 1445,  709
14, 1701,  735, 1455
15, 1639, 1475, 1561
16, 1739, 1779, 1615
17, 2168, 1552, 1468
18, 1663, 1595, 1639
19, 2203,  674,  664
20, 1783, 1777, 1659
21, 2317, 1744,  716
22, 1727, 1638, 1645
23, 2294, 1847, 1716
24, 2233, 1756, 1688
25, 2251, 1813, 1737
26, 1762,  732, 1687
27, 1829, 1723, 1632
28, 2248, 1952, 1908
29, 1879,  690, 1834
30, 2274, 1913, 2278
31, 1915, 2298, 1884
32, 1854,  719,  700
33, 1968, 1925, 1964
34,  720, 1936, 1895
35, 1984, 1980,  617
36, 1953,  682, 1886
37, 1840,  617, 1914
38, 2017,  518, 1995
39, 2022,  645, 1766
40, 2045, 2039,  666
41, 2070,  669, 1919
42,  521,  584, 2069
43,  728, 1380, 1353
44, 2228,  664, 2083
45, 1893, 1805, 1760
46, 2236, 2264, 1605
47, 1651, 2270, 2265
48, 2295, 2030, 2011
49, 2297, 1826, 2260
50, 2275, 1815, 1802
51, 2327, 2320,  688
52, 2339, 1709, 1776
*Element, type=CPE4
  53,   12,  904,  899,  823
  54,  994,  989,  899,  904
  55,  185,  184,  237,  242
  56,   27,   26,  161,  134
  57, 1018, 1019,  927,  925
  58,   11,  924,  918,  820
  59,  164, 2123,   32,  837
  60,  165,   33,   32, 2123
  61,  871,  866,  961,  965
  62, 1318, 1411, 1235, 1231
  63,  238, 2127,  722, 2122
  64,  305,  233,  722, 2127
  65,  148,  102,  101,  147
  66,  102,  148,  149,  103
  67,  952,  948,  858,  861
  68, 1311, 2182, 1225, 1309
  69,  205,  108,  107,  204
  70,  108,  205,  206,  840
  71,  325,  260,  221,  326
  72, 1006, 1001,  911,  916
  73, 1099, 1195, 1189, 1094
  74,  142,   78,   77,  141
  75,   78,  142,  143,   79
  76, 1007, 1011,  917,  913
  77, 1196, 1201, 1105, 1100
  78,  399,  400,  317,  328
  79,  773,  897,  901,    2
  80,  979,  983,  889,  885
  81,  876,  872,  966,  969
  82, 1323, 1238, 1236, 1321
  83,  950,  947,  857,  860
  84, 1224, 1223, 1138, 1141
  85,  194,   84,   83,  193
  86,   84,  194,  195,  839
  87,  996, 1000,  906,  902
  88,  814,  912,  915,   10
  89,   21,   15,   68,  192
  90,  192,  219,   22,   21
  91,   24,   23,  159,  160
  92,   25,   24,  160,  133
  93,  133,  161,   26,   25
  94,  134,  162,   28,   27
  95,  162,  163,   29,   28
  96,  136,  135,  256,  217
  97,  135,  136,   31,   30
  98,  136,  164,  837,   31
  99,   33,  165,  166,   34
 100,   34,  166,  167,   35
 101,  166,  165,  269,  239
 102,  374,  356,  265,  231
 103,   36,  168,  169,   37
 104,  270,  240,  168,  167
 105,   37,  169,  170,   38
 106,   39,  171,  172,   40
 107,   40,  172,  173,   41
 108,  174,   42,   41,  173
 109,   92, 2120,   45,   17
 110, 2120,   92,   91,  202
 111,   46,  203,  220,   47
 112,  203,   46,   45, 2120
 113,  200,  199,  241,  292
 114,   48,  175,  176,   49
 115,  175,   48,   47,  220
 116,   49,  176,  177,   50
 117,   52,  178,  138,   53
 118,  178,   52,   51,  137
 119,  137,   51,   50,  177
 120,   54,  179,  180,   55
 121,  179,   54,   53,  138
 122,  316,  312,  414,  417
 123,  139,   56,   55,  180
 124,   56,  139,  140,   57
 125, 1712, 1652, 1638, 1727
 126, 1727, 1645, 1726, 1803
 127,  140,  139,  218,  259
 128,  182,   58,  838,  181
 129,  402,  329,  334,  420
 130,  184,   60,   59,  183
 131,  185,   61,   60,  184
 132,  189,  188,  243,  285
 133,  188,   64,   63,  187
 134,   66,  190,  191,   67
 135,   67,  191,  192,   68
 136,  116, 2121,   69,   18
 137,   69, 2121,  214,   70
 138,  214, 2121,  213,  300
 139,  209,  297,  298,  210
 140,  234,   71,   70,  214
 141,   71,  234,  235,   72
 142,   72,  235,  216,   73
 143,  207,  245,  296,  208
 144,  357,  264,  232,  372
 145,   74,  153,  154,   75
 146,  153,   74,   73,  216
 147,  221,  260,  141,  155
 148,  142,  141,  260, 2128
 149,  141,   77,   76,  155
 150,   79,  143,  144,   80
 151,   80,  144,  145,   81
 152, 1371, 1193, 1281, 1456
 153,  223,  246,  144,  143
 154,  146,   82,   81,  145
 155,   82,  146,  193,   83
 156,  196,   85,  839,  195
 157,  196,  195,  247,  248
 158,  198,   87,   86,  197
 159,  199,   88,   87,  198
 160,   90,  201,  202,   91
 161,  203, 2120,  202, 2126
 162,   93,   16,   44, 2122
 163,   43,  238, 2122,   44
 164,  170,  272,  273,  171
 165,   95,  233,  236,   96
 166,  233,   95,   94,  722
 167,   96,  236,  215,   97
 168,  156,   98,   97,  215
 169,   98,  156,  157,   99
 170,  147,  222,  262,  148
 171,  262,  222,  324,  321
 172,  147,  101,  100,  158
 173,  103,  149,  150,  104
 174,  104,  150,  151,  105
 175,  843,  798,  797,  846
 176,  934,  933,  841,  843
 177,  250,  150,  149,  225
 178,  152,  106,  105,  151
 179,  106,  152,  204,  107
 180,  207,  109,  840,  206
 181,  205,  294,  251,  206
 182,  208,  110,  109,  207
 183,  210,  112,  111,  209
 184,  211,  113,  112,  210
 185,  114,  212,  213,  115
 186,  776,  913,  917,    3
 187,  995,  998,  905,  901
 188,  791,  869,  865,  792
 189,  973,  968,  879,  883
 190,  997,  993,  903,  907
 191,    5,  903,  900,  785
 192,  871,  805,  804,  866
 193,  847,  842,  936,  942
 194,    4,  920,  916,  782
 195, 1021, 1015,  928,  930
 196, 1020, 1022,  929,  922
 197,  778,  929,  931,   19
 198, 1012, 1014,  921,  919
 199,  817,  923,  925,   20
 200,  252,  204,  152,  263
 201,  261,  253,  193,  146
 202,  254,  169,  168,  240
 203,  980,  984,  890,  886
 204,  811,  898,  902,    9
 205,  246,  223,  308, 2133
 206,  310,  308,  223, 2128
 207, 1533, 1529, 1437, 1340
 208, 1437, 1409, 1359, 1268
 209,   35,  167,  168,   36
 210, 1005, 1009,  915,  912
 211, 1194, 2136, 1102, 2129
 212,  876,  768,  767,  872
 213,  849,  845,  939,  944
 214,  183,   59,   58,  182
 215,  829,  870,  867,  830
 216,  974,  970,  880,  884
 217,  323,  269,  313,  413
 218,  257,  313,  269,  165
 219, 1008, 1004,  914,  918
 220, 1107, 1013, 1017, 1111
 221,  848,  851,  941,  938
 222,  848,  836,  835,  851
 223,  255,  279,  316,  322
 224,   57,  140,  181,  838
 225,  186,   62,   61,  185
 226,  163,  162,  267,  268
 227,   30,   29,  163,  135
 228,  217,  257,  164,  136
 229,  197,   86,   85,  196
 230,  180,  179,  278,  258
 231,  155,   76,   75,  154
 232,  143,  142, 2128,  223
 233,  246,  224,  145,  144
 234,  224,  261,  146,  145
 235,  158,  100,   99,  157
 236,  225,  149,  148,  262
 237,  306,  311,  250,  225
 238,  226,  151,  150,  250
 239,  263,  152,  151,  226
 240,  209,  111,  110,  208
 241,  232,  264,  154,  153
 242,  155,  154,  264,  221
 243,   38,  170,  171,   39
 244,  157,  231,  265,  158
 245,   23,   22,  219,  159
 246,   65,  189,  190,   66
 247,  187,   63,   62,  186
 248,  187,  186,  282,  266
 249,  133,  160,  283,  281
 250,  227,  228,  134,  161
 251,  341,  362,  227,  281
 252,  318,  313,  257,  217
 253,  323,  413,  403,  405
 254,  270,  167,  166,  239
 255,  356,  374,  423,  384
 256,  215,  303,  271,  156
 257,  270,  355,  367,  240
 258,  344,  337,  274,  273
 259,  273,  274,  172,  171
 260,  174,  173,  275,  249
 261,  174,  249, 2127,  238
 262,  305, 2127,  249, 2138
 263,   42,  174,  238,   43
 264,   89,  200,  201,   90
 265,  177,  288,  229,  137
 266,  230,  178,  137,  229
 267,  178,  230,  277,  138
 268,  360,  288,  290,  340
 269,  317,  312,  259,  218
 270,  140,  259,  279,  181
 271,  255,  322,  353,  280
 272,  183,  182,  255,  280
 273,  237,  280,  353,  366
 274,  186,  185,  242,  282
 275,  378,  330,  418,  339
 276,  284,  283,  160,  159
 277,   64,  188,  189,   65
 278,  285,  330,  378,  286
 279,  301,  191,  190,  286
 280,  219,  192,  191,  301
 281,  287,  253,  319,  354
 282,  261,  314,  319,  253
 283,  289,  276,  198,  197
 284,  176,  290,  288,  177
 285,  197,  196,  248,  289
 286,  331,  419, 2137,  379
 287,  290,  176,  175,  291
 288,   88,  199,  200,   89
 289,  331,  379,  293,  292
 290,  302, 2126,  293,  379
 291,  202,  201,  293, 2126
 292, 2126,  302,  220,  203
 293,  251,  294,  352,  369
 294,  245,  207,  206,  251
 295,  357,  372,  422,  389
 296,  153,  216,  295,  232
 297,  304,  295,  216,  235
 298,  345,  428,  750,  338
 299,  345,  338,  298,  297
 300,  113,  211,  212,  114
 301,  234,  214,  300,  376
 302,  212,  244,  300,  213
 303,  256,  135,  163,  268
 304,  469,  458,  405,  403
 305,  180,  258,  218,  139
 306,  414,  487,  749,  417
 307,  749,  487,  547,  530
 308,  404,  408,  308,  310
 309,  158,  265,  222,  147
 310,  410,  406,  306,  321
 311,  466, 2159, 2158,  485
 312,  424, 2142,  307, 2133
 313,  314,  307, 2142, 2143
 314,  311,  306,  406,  409
 315,  294,  252,  320,  352
 316,  394,  358,  371,  393
 317,  161,  133,  281,  227
 318,  358,  394,  420,  334
 319,  228,  267,  162,  134
 320,  398,  335,  359,  397
 321,  156,  271,  231,  157
 322,  169,  254,  272,  170
 323,  208,  296,  297,  209
 324,  722,   94,   93, 2122
 325,  376,  300,  244,  380
 326,  377,  305, 2138,  382
 327,  184,  183,  280,  237
 328,  565,  429,  499,  505
 329,  257,  165, 2123,  164
 330,  239,  327,  355,  270
 331,  423,  374,  375,  448
 332,  199,  198,  276,  241
 333,  266,  243,  188,  187
 334,  281,  283,  339,  341
 335,  376,  304,  235,  234
 336,  211,  299,  244,  212
 337,  422,  372,  373,  492
 338,  224,  246, 2133,  307
 339,  195,  194,  287,  247
 340,  247,  287,  354,  368
 341,  430,  563,  504,  564
 342,  173,  172,  274,  275
 343,  263,  315,  320,  252
 344,  315,  309,  425,  412
 345,  204,  252,  294,  205
 346,  309,  315,  263,  226
 347,  194,  193,  253,  287
 348,  307,  314,  261,  224
 349,  337,  344,  427,  431
 350,  182,  181,  279,  255
 351,  312,  316,  279,  259
 352,  217,  256,  329,  318
 353,  277,  278,  179,  138
 354,  258,  328,  317,  218
 355,  325,  310, 2128,  260
 356,  321,  306,  225,  262
 357,  311,  309,  226,  250
 358,  346,  342,  243,  266
 359,  228,  227,  362,  371
 360,  323,  327,  239,  269
 361,  367,  364,  254,  240
 362,  337,  332,  275,  274
 363,  303,  377,  382,  447
 364,  347,  343,  241,  276
 365,  229,  370,  359,  230
 366,  348,  346,  266,  282
 367,  446,  505,  502,  445
 368,  301,  284,  159,  219
 369,  286,  190,  189,  285
 370,  243,  342,  330,  285
 371,  286,  378,  284,  301
 372,  349,  347,  276,  289
 373,  444,  504,  501,  443
 374,  501,  504,  563,  559
 375,  220,  302,  291,  175
 376,  292,  293,  201,  200
 377,  292,  241,  343,  331
 378,  291,  302,  379, 2137
 379,  351,  345,  297,  296
 380,  338,  333,  299,  298
 381,  210,  298,  299,  211
 382,  376,  380,  381,  304
 383,  215,  236,  377,  303
 384,  275,  332, 2138,  249
 385, 2138,  332, 2148,  382
 386,  244,  299,  333,  380
 387,  233,  305,  377,  236
 388,  543,  481,  538,  592
 389,  477,  538,  481,  757
 390,  476,  541,  544,  478
 391,  541,  476,  479,  535
 392,  310,  325,  407,  404
 393,  386, 2109,  392, 2119
 394,  686,  656,  614,  571
 395,  524,  460,  488,  539
 396,  258,  278,  336,  328
 397,  334,  329,  256,  268
 398,  401,  413,  313,  318
 399,  370,  360,  444,  443
 400,  391,  461, 2185,  441
 401,  222,  265,  356,  324
 402,  410,  383,  453,  480
 403,  468,  440,  396,  455
 404,  440,  468, 2188,  437
 405,  383,  410,  321,  324
 406,  357,  326,  221,  264
 407,  326,  385,  407,  325
 408,  350,  344,  273,  272
 409,  277,  335,  336,  278
 410,  421,  399,  328,  336
 411,  329,  402,  401,  318
 412,  284,  378,  339,  283
 413,  340,  290,  291, 2137
 414,  550,  492,  494,  552
 415,  371,  358,  267,  228
 416,  527, 2112,  581,  591
 417, 2112,  527,  522, 2113
 418,  268,  267,  358,  334
 419,  230,  359,  335,  277
 420,  364,  367,  440,  437
 421,  439,  435,  351,  365
 422,  330,  342,  565,  418
 423,  331,  343,  564,  419
 424,  370,  229,  288,  360
 425,  254,  364,  350,  272
 426,  396,  390, 2114,  455
 427,  296,  245,  365,  351
 428, 2106,  473,  450, 2176
 429,  473, 2106,  385,  389
 430,  282,  242,  361,  348
 431,  442,  436,  348,  361
 432,  289,  248,  363,  349
 433,  438,  363,  368,  392
 434,  361,  242,  237,  366
 435,  366,  353,  752,  395
 436,  368,  354, 2119,  392
 437,  452, 2099,  515,  545
 438,  515, 2099,  573, 2105
 439,  355,  396,  440,  367
 440, 2054,  683, 2026,  655
 441, 2054,  688, 2050,  683
 442,  369,  352,  391,  441
 443,  389,  422,  760,  473
 444,  352,  320,  388,  391
 445,  752,  353,  322,  387
 446, 2119,  354,  319,  415
 447,  355,  327,  390,  396
 448,  231,  271,  375,  374
 449,  295,  373,  372,  232
 450,  349,  363,  438,  433
 451,  465,  451,  572,  594
 452,  451,  511, 2100,  572
 453,  445,  362,  341,  446
 454,  363,  248,  247,  368
 455,  384,  423,  472,  449
 456,  369,  365,  245,  251
 457,  433,  430,  347,  349
 458,  362,  445,  393,  371
 459,  385,  326,  357,  389
 460,  295,  304,  381,  373
 461,  384,  383,  324,  356
 462,  303,  447,  375,  271
 463, 2201,  491, 2187,  553
 464,  380,  333,  432,  381
 465,  333,  338,  750,  432
 466,  431,  509,  332,  337
 467,  510,  568,  577,  535
 468,  568,  510,  507,  570
 469,  344,  350,  434,  427
 470,  454,  508,  512,  474
 471,  319,  314, 2143,  415
 472,  485,  529,  513,  466
 473,  322,  316,  417,  387
 474,  320,  315,  416,  388
 475,  416,  315,  412,  486
 476,  486,  532,  467,  416
 477,  494,  492,  432,  750
 478,  327,  323,  405,  390
 479, 2091,  514,  458,  469
 480,  391,  388,  457,  461
 481,  488,  393,  445,  502
 482,  482,  402,  420,  470
 483,  366,  395,  442,  361
 484,  370,  443,  397,  359
 485,  588,  528,  533,  471
 486,  421,  336,  335,  398
 487,  399,  456,  459,  400
 488,  400,  459,  426,  317
 489,  516,  459,  456,  528
 490,  312,  317,  426,  414
 491,  536,  524,  589,  597
 492,  514,  455, 2114,  458
 493,  390,  405,  458, 2114
 494,  479,  476,  409,  406
 495,  508, 2176, 2107, 2116
 496,  408,  424, 2133,  308
 497,  532,  584,  521,  467
 498,  409,  425,  309,  311
 499,  449,  453,  383,  384
 500,  466, 2089,  386, 2159
 501,  467,  457,  388,  416
 502,  457,  467,  521, 2097
 503, 2144,  413,  401,  463
 504,  579,  662,  583, 2160
 505,  620, 2199,  579, 2177
 506,  414,  426,  526,  487
 507,  415, 2159,  386, 2119
 508,  339,  418,  446,  341
 509,  342,  346,  429,  565
 510,  444,  360,  340,  419
 511,  347,  430,  564,  343
 512,  394,  460,  470,  420
 513,  489,  540,  464,  397
 514,  493,  431,  427,  496
 515, 2187,  493, 2239,  553
 516,  477,  408,  404,  474
 517,  425,  409,  476,  478
 518,  364,  437,  434,  350
 519,  351,  435,  428,  345
 520,  346,  348,  436,  429
 521,  429,  436,  560,  499
 522,  495,  500,  433,  438
 523,  509, 2170, 2148,  332
 524,  447,  382, 2148, 2149
 525,  393,  488,  460,  394
 526,  540,  748,  525,  464
 527,  442,  395,  465,  498
 528,  496,  427,  434,  503
 529,  438,  392,  462,  495
 530,  753,  756,  557,  558
 531,  441,  439,  365,  369
 532,  523, 2097,  582, 2234
 533, 2097,  523,  461,  457
 534, 2117, 2098,  576, 2103
 535,  514,  576, 2098,  455
 536,  451,  465,  395,  752
 537,  500,  563,  430,  433
 538, 2149,  448,  375,  447
 539,  373,  381,  432,  492
 540,  507,  453,  449,  517
 541,  453,  507,  510,  480
 542,  387,  417,  749,  511
 543,  675, 2079,  648, 2068
 544,  653,  648, 2079, 2073
 545, 2268, 2105,  573,  578
 546,  617, 1980, 1947, 1865
 547,  535,  479,  480,  510
 548, 2116,  580,  512,  508
 549,  474,  404,  407,  454
 550,  520,  551, 2188,  468
 551,  520,  468,  455, 2098
 552,  399,  421,  475,  456
 553,  579, 2160,  516, 2177
 554,  484,  403,  413, 2144
 555, 2103, 2019, 1985,  630
 556, 2032, 2080,  599, 2028
 557,  575, 2080, 2056, 2061
 558,  526,  426,  459,  747
 559,  524,  536,  470,  460
 560,  519,  571, 2075, 2107
 561,  519,  450, 2115, 2200
 562,  674, 2175,  581,  664
 563,  463,  401,  402,  482
 564,  525,  748,  596,  471
 565,  464,  755,  398,  397
 566,  483,  424,  757,  542
 567,  483,  411, 2142,  424
 568, 1956, 1981, 1989,  633
 569,  600, 1989, 1981,  529
 570, 2040,  635, 2043, 2052
 571,  517,  449,  472,  566
 572, 2188,  503,  434,  437
 573,  551,  612,  503, 2188
 574,  484,  531,  469,  403
 575,  475,  755,  471,  533
 576,  423,  448,  506,  472
 577,  439,  490,  497,  435
 578,  490,  439,  441, 2185
 579, 2076,  672,  684,  646
 580,  408,  477,  757,  424
 581,  541,  590,  743,  544
 582,  590,  541,  535,  577
 583,  480,  479,  406,  410
 584,  542,  757,  481,  601
 585,  601,  638, 2074,  644
 586,  543,  638,  601,  481
 587,  522,  527, 2144,  463
 588,  484, 2144,  527,  591
 589, 2102,  485, 2158,  411
 590, 2102,  548, 2179, 2101
 591,  478,  546,  412,  425
 592,  486,  412,  546,  605
 593,  598, 2086,  526,  747
 594,  747,  459,  516, 2160
 595,  443,  501,  489,  397
 596,  614,  569, 2075,  571
 597,  448, 2149,  491,  506
 598, 2187,  509,  431,  493
 599,  435,  497,  758,  428
 600,  553,  561,  554, 2201
 601,  554,  561,  611,  566
 602, 2166,  758,  497,  490
 603,  552,  494,  758, 2166
 604,  436,  442,  498,  560
 605,  452,  545,  462, 2109
 606,  759,  496,  503,  612
 607,  566,  472,  506,  554
 608,  537, 2220,  523,  595
 609,  593,  589,  524,  539
 610,  562,  499,  555,  650
 611,  555,  499,  560,  549
 612,  557,  559,  563,  500
 613,  419,  564,  504,  444
 614,  418,  565,  505,  446
 615,  570,  507,  517, 2246
 616,  505,  499,  562,  502
 617,  554,  506,  491, 2201
 618,  492,  550,  760,  422
 619,  450,  519, 2107, 2176
 620, 2200, 2115,  567,  649
 621,  629,  590,  577,  741
 622,  658, 2011, 2030, 2053
 623,  675, 2295, 2011, 1990
 624,  511,  451,  752,  387
 625, 2118, 2110,  619,  627
 626,  474,  512,  538,  477
 627,  465,  594,  608,  549
 628,  558,  557,  500,  495
 629,  456,  475,  533,  528
 630, 2092,  531, 2087,  586
 631,  469,  531, 2092, 2091
 632,  760,  550,  567, 2115
 633,  490, 2185, 2220,  537
 634,  490,  537,  556, 2166
 635,  514, 2091, 2195,  576
 636,  574, 2017, 1995, 1948
 637,  624, 2059, 2104, 2253
 638,  463,  482,  534,  522
 639, 1822, 1868, 1910,  625
 640, 1868, 1905, 1945, 1910
 641,  649,  686,  571, 2200
 642,  742,  628,  585, 2113
 643, 1589, 1665, 1662, 2267
 644,  464,  525,  471,  755
 645,  575, 2100,  530, 2062
 646,  572, 2100,  575, 2061
 647,  573, 2013, 1981,  578
 648,  511,  749,  530, 2100
 649,  531,  484,  591, 2087
 650, 2060, 2069,  584, 2058
 651,  626,  588,  636, 1991
 652,  636,  588,  471,  596
 653,  536,  534,  482,  470
 654, 1933, 1938, 2304, 1962
 655, 1909, 1938, 1854,  700
 656, 2166,  556,  609,  552
 657,  543,  592, 2223,  638
 658,  502,  562,  539,  488
 659,  549,  560,  498,  465
 660,  559, 2152,  489,  501
 661,  495,  462,  545,  558
 662, 1698, 1551, 2221,  685
 663, 2173, 1551, 1626,  713
 664,  580,  592,  538,  512
 665,  602, 2096,  544,  743
 666, 2096,  546,  478,  544
 667,  621,  587,  515, 2105
 668,  532,  486,  605, 2064
 669,  583,  598,  747, 2160
 670,  600,  529, 2101, 2179
 671,  548,  542,  604, 2179
 672,  623,  594,  572, 2061
 673,  496,  759, 2239,  493
 674,  553, 2239,  759,  561
 675, 2258, 2088,  631, 2084
 676,  751,  647,  686,  649
 677,  607,  545,  515,  587
 678,  607,  753,  558,  545
 679,  623, 2066, 2068,  594
 680, 2068, 2066, 2295,  675
 681,  650,  555,  610,  746
 682,  608,  610,  555,  549
 683, 2085, 2117, 2103,  630
 684,  611,  561, 2277,  754
 685,  611,  754,  654, 2246
 686,  567,  550,  552,  609
 687, 2004,  618, 2072, 2027
 688, 2327, 2072,  613, 2302
 689, 2093,  569,  614, 2015
 690, 2111,  612,  551,  520
 691,  649,  567,  609,  751
 692,  537,  595,  606,  556
 693, 2016, 1986,  586, 2087
 694, 2062,  530,  547, 2055
 695, 1975, 1977, 2003,  632
 696, 1977, 2002, 2057, 2003
 697, 1843, 1761, 1689, 1805
 698, 1761, 1858, 2238, 2229
 699,  741,  618, 2004, 2077
 700,  629,  741, 2077,  668
 701, 2245, 1840, 1914, 1819
 702,  528,  588, 2177,  516
 703, 2243, 1998,  670, 2209
 704, 1998,  740, 2118,  627
 705, 2112, 2113,  585, 2083
 706, 1623, 2197, 2222, 1691
 707, 1878, 1916, 1842, 1850
 708, 2338, 1842, 1775, 1708
 709, 1999,  667, 2023, 2051
 710, 2033, 1999, 2051,  635
 711,  597,  742,  534,  536
 712, 1363, 1369, 1548,  695
 713, 1620, 1687, 1543, 1460
 714, 1995,  586, 1986, 1948
 715,  637, 2016, 2087, 2175
 716, 1840,  657, 1984,  617
 717,  621, 1980, 1984, 2041
 718, 1957, 2259,  629,  668
 719,  590,  629, 2259,  743
 720,  664,  581, 2112, 2083
 721, 1549, 2192, 2071, 1696
 722, 1467,  703, 2167, 1549
 723,  539,  562,  650,  593
 724,  608,  594, 2068,  648
 725, 2061, 2056,  615,  623
 726, 2258, 2084,  647,  595
 727,  666, 2048,  631, 2059
 728,  652,  756,  753,  643
 729, 2094,  628,  742,  597
 730,  640,  628, 2094, 2252
 731,  547, 2086, 2202, 2055
 732, 1865, 1947, 1812, 1699
 733, 2118,  740, 2223,  592
 734, 2118,  592,  580, 2110
 735, 1815, 1888, 1886, 1802
 736, 1924, 1888, 1847, 1887
 737, 2078, 2052, 2058, 2064
 738,  532, 2064, 2058,  584
 739,  759,  612, 2277,  561
 740, 2179,  604, 2022,  600
 741, 2022,  604,  644, 1821
 742,  604,  542,  601,  644
 743, 2095,  672, 2076,  602
 744, 2095,  634, 2278,  672
 745,  751,  609,  556,  606
 746,  621, 2041, 2044,  587
 747,  745, 2044, 2041, 2012
 748,  648,  653,  610,  608
 749,  746,  610,  653, 2073
 750, 2035, 2284, 2085,  630
 751, 2001, 2035,  630, 1978
 752, 2007, 2026,  683, 2001
 753,  613,  568,  570, 2302
 754, 2302,  570, 2246,  654
 755, 1944, 1992,  693, 2298
 756,  693, 1992,  656, 2014
 757, 1695, 1627,  695, 1548
 758, 1627, 1695, 1757, 1753
 759, 1568, 1658, 1604,  128
 760, 1520, 1568,  128, 1440
 761, 1944, 1988, 2015, 1992
 762, 1915,  663, 1944, 2298
 763, 1990, 1943, 1942,  687
 764, 1867, 1942,  700,  719
 765, 2048,  666, 2039,  721
 766, 1535, 1365,  127, 1678
 767, 1452, 1535, 1614, 1608
 768, 1991,  636,  677, 1979
 769,  663, 1915, 1870, 1808
 770, 1779, 1826, 1793, 1680
 771,  639, 2090,  589,  593
 772, 2090,  639, 2021, 1997
 773, 1866,  673, 1917, 1955
 774, 1955, 1917,  640, 2271
 775, 1891,  665, 2009, 1960
 776, 1978,  616, 1958, 1994
 777, 1958, 1954, 2308, 1994
 778,  637, 1619, 1530, 2031
 779, 2290, 2008, 1969, 2276
 780, 1892, 2276, 1935, 1855
 781, 1996, 1920,  733, 1904
 782, 1920, 1957,  668, 1931
 783, 2067, 2078, 2064,  605
 784, 2076, 2067, 2096,  602
 785,  636,  596,  641,  677
 786,  696, 2034, 1982, 1937
 787, 2034,  696, 1972,  671
 788, 2074, 2108, 2225, 1765
 789,  638, 2223, 2108, 2074
 790,  746,  639,  593,  650
 791, 2073, 2021,  639,  746
 792,  687, 2021, 2073, 2079
 793,  748,  652,  641,  596
 794, 2178,  641,  652,  643
 795, 1901, 1932, 2257,  714
 796, 1987, 2081, 2257, 1932
 797, 2028, 2010,  632, 2032
 798, 2049, 1940, 2024, 2047
 799,  607,  587,  643,  753
 800,  645, 1697, 1759, 1766
 801, 1766, 1759,  633, 1989
 802, 1765, 1821,  644, 2074
 803,  646, 2081, 2006, 2078
 804, 1987, 1967, 2006, 2081
 805,  647,  751,  606,  595
 806, 2320,  654, 2305,  651
 807, 2305,  654,  754, 2285
 808, 2285,  754, 2277,  603
 809,  756,  652,  748,  540
 810, 2319, 2036, 2027, 2072
 811,  613, 2072,  618,  741
 812, 1934, 1903, 1970,  721
 813, 1903, 1838, 1884, 1970
 814, 1786, 2329, 1744, 1746
 815,  669, 1959, 1902, 1919
 816,  736, 1902, 1871, 1798
 817,  626,  669, 2070,  620
 818, 1594, 2324, 1522,  129
 819, 1719, 1709, 2339, 1641
 820, 1367, 1444, 1446, 1287
 821, 1536, 1621, 1685, 1693
 822, 1364, 1358,  118, 1271
 823, 1454, 1531, 1616, 1546
 824, 1817,  628,  640, 1917
 825, 2244, 1817, 1917,  673
 826, 1634, 1644, 1563, 1556
 827, 1769, 1556, 1702, 1630
 828, 1449, 1526, 2230, 1544
 829, 1455, 1374,  708, 1701
 830, 1357, 1200, 2146, 1542
 831, 1542, 2146, 1459, 1550
 832, 2288, 1755, 1717, 2301
 833, 2237, 2264, 1755, 2288
 834, 1728, 1674, 1578, 1560
 835, 1674, 1728, 1809, 1837
 836,  707, 1862, 2299, 1789
 837, 1920, 1931, 1862, 1806
 838, 1859, 1906, 1827,  715
 839, 1701, 1537, 1628,  735
 840,  734, 2209, 1537, 1464
 841, 1950, 1923, 2225, 2108
 842, 2209, 1923, 1950, 2243
 843, 2034,  671, 2198,  745
 844, 1562, 1557, 1635, 1657
 845, 1631, 1553,  727, 1703
 846, 2082, 1997, 2021,  687
 847, 1804, 1754,  737, 1823
 848, 1818, 2316, 1804, 1894
 849,  674, 2203,  709, 1619
 850, 1907,  706, 1872,  711
 851, 1191, 1276, 2155, 1265
 852, 1191, 1203, 1109,  729
 853, 1765, 1698,  685, 1821
 854,  655, 2327,  688, 2054
 855, 2278, 1913,  684,  672
 856, 2300, 1913, 2274, 1849
 857, 2221,  712, 1540, 1457
 858, 1370, 1450,  117, 1273
 859, 1517, 1507, 1438, 1433
 860, 1424, 1438, 1507, 1511
 861, 1853, 1895, 1930, 1896
 862, 1796, 1853, 1896,  694
 863, 1356, 1406, 1415, 1278
 864, 1415, 1406, 1524, 1592
 865, 1972,  718, 1979,  671
 866, 1959,  718, 1939, 1902
 867, 1362, 1280, 1288, 1466
 868, 2139, 1279,  725, 1108
 869, 1513, 1431, 1432, 1527
 870, 2025, 2045, 2042, 2023
 871, 1961,  699, 1965, 2005
 872, 1974, 1931,  668, 2077
 873,  704, 1762, 1687, 1620
 874, 1762, 2204, 1873,  732
 875, 1900, 1869,  706, 1907
 876, 1900, 2199,  731, 1869
 877, 1655, 1670, 1758, 2263
 878, 1670, 2216, 1743, 1758
 879, 1633, 1559, 1650, 1704
 880, 1588, 1554, 1637, 2212
 881, 1274, 1465,  713, 1360
 882, 1851,  710, 1904,  733
 883, 1957, 1920, 1996,  634
 884, 1461, 1534, 1456, 1281
 885, 1525, 1443, 1523, 1601
 886, 1434, 1518, 1447, 1345
 887, 2147,  118, 1272, 1187
 888, 1272,  118, 1358, 1324
 889, 1528, 1524, 1406,  726
 890, 1354, 1349, 1442, 1429
 891,  663, 1808, 1764,  744
 892,  731, 1861, 1820, 1869
 893,  736, 2261, 1919, 1902
 894, 1700, 1629, 1697,  645
 895,  568,  613,  741,  577
 896, 2015, 1988,  619, 2093
 897,  627,  619, 1988,  744
 898,  598,  583, 2206, 2202
 899,  494,  750,  428,  758
 900, 2152,  756,  540,  489
 901,  559,  557,  756, 2152
 902,  755,  475,  421,  398
 903,  454,  407,  385, 2106
 904,  662,  678, 2206,  583
 905, 1952, 1972,  696, 1908
 906, 1526,  735, 1808, 1836
 907, 2162,  697, 1462, 1355
 908, 1724, 1654, 1708, 1775
 909, 1650, 1602, 1656, 1722
 910, 2303, 1622,  701, 1692
 911, 1823, 1866, 1894, 1804
 912, 1881,  738, 2314, 2322
 913,   14,  844,  845,  761
 914,  849,  762,  761,  845
 915,  855,  763,  762,  849
 916,  859,  764,  763,  855
 917,  864,  765,  764,  859
 918,  868,  766,  765,  864
 919,  872,  767,  766,  868
 920,  878,    1,  768,  876
 921,  881,  769,    1,  878
 922,  885,  770,  769,  881
 923,  889,  771,  770,  885
 924,  893,  772,  771,  889
 925,  901,  905,  774,    2
 926,  774,  905,  909,  775
 927,  909,  913,  776,  775
 928,  917,  922,  777,    3
 929,  777,  922,  929,  778
 930,   19,  931,  932,  779
 931,  780,  930,  928,  781
 932,  781,  928,  920,    4
 933,  782,  916,  911,  783
 934,  783,  911,  907,  784
 935,  784,  907,  903,    5
 936,  785,  900,  896,  786
 937,  787,  892,  888,  788
 938,  788,  888,  883,  789
 939,  789,  883,  879,  790
 940,  790,  879,  873,    6
 941,    6,  873,  869,  791
 942,  792,  865,  861,  793
 943,  793,  861,  858,  794
 944,  794,  858,  854,  795
 945,  795,  854,  850,  796
 946,  796,  850,  846,  797
 947,  798,  843,  841,    7
 948,    7,  841,  842,  799
 949,  847,  800,  799,  842
 950,  852,  801,  800,  847
 951,  856,  802,  801,  852
 952,  862,  803,  802,  856
 953,  866,  804,  803,  862
 954,  874,    8,  805,  871
 955,  877,  806,    8,  874
 956,  882,  807,  806,  877
 957,  886,  808,  807,  882
 958,  890,  809,  808,  886
 959,  894,  810,  809,  890
 960,    9,  902,  906,  812
 961,  906,  908,  813,  812
 962,  813,  908,  912,  814
 963,   10,  915,  919,  815
 964,  815,  919,  921,  816
 965,  816,  921,  923,  817
 966,   20,  925,  927,  818
 967,  819,  926,  924,   11
 968,  820,  918,  914,  821
 969,  821,  914,  910,  822
 970,  822,  910,  904,   12
 971,  823,  899,  895,  824
 972,  824,  895,  891,  825
 973,  826,  887,  884,  827
 974,  827,  884,  880,  828
 975,  828,  880,  875,   13
 976,   13,  875,  870,  829
 977,  830,  867,  863,  831
 978,  831,  863,  860,  832
 979,  832,  860,  857,  833
 980,  833,  857,  853,  834
 981,  834,  853,  851,  835
 982,  836,  848,  844,   14
 983,  842,  841,  933,  936
 984,  843,  846,  935,  934
 985,  845,  844,  937,  939
 986,  938,  937,  844,  848
 987, 1032,  944,  939, 1028
 988,  940, 1029, 1026,  935
 989, 1034,  941,  945, 1036
 990,  852,  847,  942,  946
 991,  940,  935,  846,  850
 992,  855,  849,  944,  949
 993,  856,  852,  946,  951
 994,  945,  941,  851,  853
 995,  943,  940,  850,  854
 996,  859,  855,  949,  953
 997,  947,  945,  853,  857
 998,  948,  943,  854,  858
 999,  862,  856,  951,  956
1000,  954,  950,  860,  863
1001,  864,  859,  953,  958
1002,  955,  952,  861,  865
1003,  866,  862,  956,  961
1004,  957,  954,  863,  867
1005,  868,  864,  958,  962
1006, 1044, 1041,  952,  955
1007,  950, 1043, 1040,  947
1008, 1054,  965,  961, 1050
1009,  872,  868,  962,  966
1010,  959,  955,  865,  869
1011,  874,  871,  965,  967
1012,  960,  957,  867,  870
1013, 1055,  966,  962, 1051
1014,  877,  874,  967,  971
1015,  878,  876,  969,  972
1016,  963,  959,  869,  873
1017,  887,  826,  825,  891
1018,  964,  960,  870,  875
1019,  881,  878,  972,  975
1020,  882,  877,  971,  976
1021,  892,  787,  786,  896
1022,  968,  963,  873,  879
1023,  970,  964,  875,  880
1024,  885,  881,  975,  979
1025,  886,  882,  976,  980
1026,  977,  974,  884,  887
1027,  978,  973,  883,  888
1028,  983, 1072, 1076,  987
1029, 1073, 1077,  984,  980
1030,  977, 1070, 1067,  974
1031, 1071, 1066,  978,  982
1032,  983,  987,  893,  889
1033,  772,  893,  897,  773
1034,  984,  988,  894,  890
1035,  810,  894,  898,  811
1036,  985,  981,  891,  895
1037,  986,  982,  892,  896
1038,  987,  991,  897,  893
1039,  988,  992,  898,  894
1040,  989,  985,  895,  899
1041,  990,  986,  896,  900
1042,  991,  995,  901,  897
1043,  992,  996,  902,  898
1044,  993,  990,  900,  903
1045,  999,  994,  904,  910
1046, 1088, 1092,  998,  995
1047, 1089, 1091, 1000,  996
1048, 1086,  997, 1090, 1179
1049, 1000, 1002,  908,  906
1050,  998, 1003,  909,  905
1051,  994, 1087, 1082,  989
1052, 1001,  997,  907,  911
1053, 1002, 1005,  912,  908
1054, 1003, 1007,  913,  909
1055, 1004,  999,  910,  914
1056, 1009, 2129, 1102, 1012
1057, 1010, 1006,  916,  920
1058, 1011, 1100, 1105, 1020
1059, 1008, 1101, 1097, 1004
1060, 1009, 1012,  919,  915
1061, 1006, 1099, 1094, 1001
1062, 1016, 1014, 1106, 2130
1063, 1011, 1020,  922,  917
1064, 1014, 1016,  923,  921
1065,  926,  819,  818,  927
1066, 1013, 1008,  918,  924
1067, 1017, 1013,  924,  926
1068, 1016, 1018,  925,  923
1069, 1110, 1018, 1108,  725
1070,  930,  780,  779,  932
1071, 1015, 1010,  920,  928
1072, 1024, 1022, 1114, 1202
1073, 1021, 1023,  729, 1109
1074,  932,  931, 1024, 1023
1075, 1025, 2125,  933,  934
1076,  934,  935, 1026, 1025
1077, 2124, 1119, 1123, 1030
1078,  937, 1027, 1028,  939
1079, 1031,  938,  941, 1034
1080, 1025, 1116, 1115, 2125
1081,  938, 1031, 1027,  937
1082, 1030,  942,  936, 2124
1083, 1121, 1032, 1028, 1117
1084, 1124, 1031, 1034, 1127
1085,  946,  942, 1030, 1035
1086, 1029,  940,  943, 1033
1087, 1038,  949,  944, 1032
1088, 1039,  951,  946, 1035
1089, 1037, 1033,  943,  948
1090, 1042,  953,  949, 1038
1091,  947, 1040, 1036,  945
1092, 1041, 1037,  948,  952
1093, 1045,  956,  951, 1039
1094,  954, 1046, 1043,  950
1095, 1047,  958,  953, 1042
1096, 1048, 1044,  955,  959
1097, 1043, 1136, 1132, 1040
1098, 1050,  961,  956, 1045
1099, 1051,  962,  958, 1047
1100, 1044, 1137, 1134, 1041
1101,  957, 1049, 1046,  954
1102, 1057, 1054, 1147, 1149
1103, 1148, 1059, 1055, 1145
1104, 1057,  967,  965, 1054
1105, 1052, 1048,  959,  963
1106, 1059,  969,  966, 1055
1107,  960, 1053, 1049,  957
1108, 1060,  971,  967, 1057
1109, 1061,  972,  969, 1059
1110,  888,  892,  982,  978
1111, 1056, 1052,  963,  968
1112,  887,  891,  981,  977
1113,  964, 1058, 1053,  960
1114, 1064,  975,  972, 1061
1115,  976,  971, 1065, 1069
1116,  974, 1067, 1063,  970
1117, 1062, 1056,  968,  973
1118,  979, 1068, 1072,  983
1119, 1069, 1073,  980,  976
1120,  981, 1074, 1070,  977
1121, 1075, 1071,  982,  986
1122, 1076, 1166, 1169, 1080
1123, 1167, 1171, 1077, 1073
1124, 1070, 1163, 1160, 1067
1125, 1164, 1159, 1071, 1075
1126,  987, 1076, 1080,  991
1127, 1077, 1081,  988,  984
1128,  985, 1078, 1074,  981
1129, 1079, 1075,  986,  990
1130,  991, 1080, 1084,  995
1131, 1081, 1085,  992,  988
1132, 1083, 1079,  990,  993
1133,  989, 1082, 1078,  985
1134, 1088,  995, 1084, 1177
1135, 1085, 1089,  996,  992
1136, 1086, 1083,  993,  997
1137, 1181, 1186, 1092, 1088
1138, 1087, 1183, 1175, 1082
1139, 1182, 1185, 1091, 1089
1140, 1086, 1179, 1262, 1176
1141, 1091, 1095, 1002, 1000
1142, 1092, 1096, 1003,  998
1143,  999, 1093, 1087,  994
1144, 1095, 1098, 1005, 1002
1145, 1001, 1094, 1090,  997
1146, 2131, 1100, 1011, 1007
1147, 1004, 1097, 1093,  999
1148, 1194, 2135, 1453, 1365
1149, 1195, 1180, 1285, 1282
1150, 1014, 1012, 1104, 1106
1151, 1198, 1192, 1101, 1107
1152, 1108, 2130, 1199, 2139
1153, 1010, 1103, 1099, 1006
1154, 1108, 1018, 1016, 2130
1155,  926,  927, 1019, 1017
1156, 1013, 1107, 1101, 1008
1157, 1019, 1018, 1110, 2132
1158, 1113, 1022, 1020, 1105
1159, 1023, 1021,  930,  932
1160, 1021, 1109, 1112, 1015
1161,  931,  929, 1022, 1024
1162,  729, 1023, 1024, 1202
1163, 2125, 1115, 1119, 2124
1164, 2124,  936,  933, 2125
1165, 1120, 1026, 1029, 1122
1166, 1117, 1028, 1027, 1118
1167, 1026, 1120, 1116, 1025
1168, 1123, 1119, 1207, 2140
1169, 1125, 1121, 1209, 1213
1170, 1208, 1120, 1122, 1210
1171, 1124, 1127, 1211, 1206
1172, 1035, 1030, 1123, 1128
1173, 1031, 1124, 1118, 1027
1174, 1125, 1038, 1032, 1121
1175, 1039, 1035, 1128, 1133
1176, 1033, 1126, 1122, 1029
1177, 1131, 1042, 1038, 1125
1178, 1036, 1129, 1127, 1034
1179, 1037, 1130, 1126, 1033
1180, 1045, 1039, 1133, 1139
1181, 1040, 1132, 1129, 1036
1182, 1135, 1047, 1042, 1131
1183, 1041, 1134, 1130, 1037
1184, 1058,  964,  970, 1063
1185, 1046, 1138, 1136, 1043
1186, 1050, 1045, 1139, 1143
1187, 1142, 1051, 1047, 1135
1188, 1048, 1140, 1137, 1044
1189, 1223, 1220, 1136, 1138
1190, 1054, 1050, 1143, 1147
1191, 1145, 1055, 1051, 1142
1192,  973,  978, 1066, 1062
1193, 1134, 1222, 1218, 1130
1194, 1147, 1231, 1235, 1149
1195, 1049, 1141, 1138, 1046
1196, 1151, 1148, 1236, 1238
1197, 1060, 1057, 1149, 1237
1198, 1065,  971, 1060, 1153
1199, 1151, 1061, 1059, 1148
1200, 1052, 1144, 1140, 1048
1201, 1053, 1146, 1141, 1049
1202, 1154, 1064, 1061, 1151
1203,  975, 1064, 1068,  979
1204, 1056, 1150, 1144, 1052
1205, 1063, 1156, 1152, 1058
1206, 1068, 1157, 1161, 1072
1207, 1158, 1162, 1069, 1065
1208, 1067, 1160, 1156, 1063
1209, 1243, 2145, 1159, 1248
1210, 1072, 1161, 1166, 1076
1211, 1162, 1167, 1073, 1069
1212, 1249, 1247, 1163, 1165
1213, 1168, 1164, 1075, 1079
1214, 1255, 1257, 1171, 1167
1215, 1074, 1165, 1163, 1070
1216, 2161, 1250, 1337, 2180
1217, 1080, 1169, 1173, 1084
1218, 1171, 1174, 1081, 1077
1219, 1078, 1170, 1165, 1074
1220, 1172, 1168, 1079, 1083
1221, 1084, 1173, 1260, 1177
1222, 1174, 1178, 1085, 1081
1223, 1176, 1172, 1083, 1086
1224, 1082, 1175, 1170, 1078
1225, 1088, 1177, 1263, 1181
1226, 1178, 1182, 1089, 1085
1227, 1262, 1179, 1268, 1359
1228, 1266, 1270, 1182, 1178
1229, 1096, 1092, 1186, 1267
1230, 1093, 1187, 1183, 1087
1231, 1090, 1184, 1268, 1179
1232, 1098, 1095, 1188, 2135
1233, 2131, 1190, 2150, 1100
1234, 1003, 1096, 2131, 1007
1235, 2147, 1097, 1101, 1192
1236, 1005, 1098, 2129, 1009
1237, 1103, 1010, 1015, 1112
1238, 1195, 1099, 1103, 1180
1239, 2150, 1190, 1273,  117
1240, 1271, 1192, 1198, 2183
1241, 2136, 1366, 1197, 1102
1242, 1180, 1103, 1112,  121
1243, 1106, 1104, 1277,  122
1244, 1104, 1012, 1102, 1197
1245, 1201, 1286, 1113, 1105
1246, 1106,  122, 1199, 2130
1247, 1275, 1198, 1107, 1111
1248,  121, 1112, 1109, 1203
1249, 1110,  725, 1200, 1283
1250,  130, 1275, 1111, 1283
1251, 1017, 1019, 2132, 1111
1252, 1113,  124, 1114, 1022
1253, 1193, 1114,  124, 1281
1254, 1290, 1289, 1115, 1116
1255, 1204, 1205, 1117, 1118
1256, 1118, 1124, 1206, 1204
1257, 1293, 1119, 1115, 1289
1258, 1290, 1116, 1120, 1208
1259, 1121, 1117, 1205, 1209
1260, 1207, 1119, 1293, 1382
1261, 1213, 1297, 1300, 1219
1262, 1296, 1206, 1211, 1298
1263, 2141, 1128, 1123, 2140
1264, 1126, 1214, 1210, 1122
1265, 1131, 1125, 1213, 1219
1266, 1217, 1215, 1129, 1132
1267, 1216, 1221, 1139, 1133
1268, 1130, 1218, 1214, 1126
1269, 1135, 1131, 1219, 1226
1270, 1140, 1225, 2182, 1137
1271, 1146, 1053, 1058, 1152
1272, 1220, 1217, 1132, 1136
1273, 1139, 1221, 1229, 1143
1274, 1150, 1056, 1062, 1155
1275, 1224, 1306, 1307, 1223
1276, 1226, 1230, 1142, 1135
1277, 1143, 1229, 1231, 1147
1278, 1062, 1066, 2145, 1155
1279, 1227, 1232, 1313, 2208
1280, 1230, 1233, 1145, 1142
1281, 1306, 1224, 1228, 1315
1282, 1413, 1320, 1411, 1501
1283, 1233, 1236, 1148, 1145
1284, 1227, 1225, 1140, 1144
1285, 1228, 1224, 1141, 1146
1286, 1153, 1060, 1237, 2134
1287, 1158, 1065, 1153, 1242
1288, 1151, 1238, 1241, 1154
1289, 1064, 1154, 1157, 1068
1290, 1066, 1071, 1159, 2145
1291, 1232, 1227, 1144, 1150
1292, 1240, 1234, 1152, 1156
1293, 1245, 1157, 1154, 1241
1294, 1246, 1158, 1242, 1339
1295, 1243, 1239, 1155, 2145
1296, 1244, 1240, 1156, 1160
1297, 1252, 1161, 1157, 1245
1298, 1246, 1253, 1162, 1158
1299, 1247, 1244, 1160, 1163
1300, 1336, 1247, 1249, 1335
1301, 1253, 1255, 1167, 1162
1302, 1341, 1337, 1250, 1254
1303, 1345, 1256, 1344, 1434
1304, 1251, 1249, 1165, 1170
1305, 1257, 1347, 1349, 1261
1306, 1254, 1250, 1168, 1172
1307, 1173, 1256, 1345, 1260
1308, 1257, 1261, 1174, 1171
1309, 1264, 1258, 1175, 1183
1310, 1259, 1254, 1172, 1176
1311, 1184, 1090, 1094, 1189
1312,  121, 1274, 1285, 1180
1313, 1186, 1181, 1269, 1325
1314, 1185, 1182, 1270, 1356
1315, 1183, 1187, 1272, 1264
1316, 1188, 1185, 1356, 1278
1317, 1095, 1091, 1185, 1188
1318, 1267, 1186, 1325, 1370
1319, 1096, 1267, 1190, 2131
1320, 1187, 1093, 1097, 2147
1321, 2135, 1194, 2129, 1098
1322, 1202, 1276, 1191,  729
1323, 1203, 1191, 1265, 1465
1324, 2147, 1192, 1271,  118
1325, 1193, 1276, 1202, 1114
1326, 1194, 1365, 1284, 2136
1327, 1366, 2136, 1284, 2154
1328, 1189, 1195, 1282,  126
1329, 2150, 1367, 1196, 1100
1330, 1196, 1367, 1287, 1201
1331, 1355, 1197, 1366, 2162
1332, 1451, 2183, 1363,  695
1333, 1199, 1288, 1280, 2139
1334, 1200, 1357,  130, 1283
1335,  725, 1279, 2146, 1200
1336, 1201, 1287, 1361, 1286
1337, 1291, 1205, 1204, 1292
1338, 1205, 1291, 1294, 1209
1339, 1379, 1290, 1208, 1384
1340, 1127, 1129, 1215, 1211
1341, 1382, 1385, 1295, 1207
1342, 2141, 2140, 1212, 1299
1343, 1290, 1379, 1375, 1289
1344, 1296, 1298, 1387, 1381
1345, 1295, 1212, 2140, 1207
1346, 1128, 2141, 1216, 1133
1347, 1383, 1386, 1297, 1294
1348, 1206, 1296, 1292, 1204
1349, 1299, 1303, 1216, 2141
1350, 1215, 1302, 1298, 1211
1351, 1222, 1134, 1137, 2182
1352, 1217, 1304, 1302, 1215
1353, 1303, 1312, 1221, 1216
1354, 1218, 1305, 1301, 1214
1355, 1146, 1152, 1234, 1228
1356, 1315, 1228, 1234, 1322
1357, 1227, 2208, 1309, 1225
1358, 1226, 1308, 1314, 1230
1359, 1150, 1155, 1239, 1232
1360, 1232, 1239, 1319, 1313
1361, 1312, 1316, 1229, 1221
1362, 1230, 1314, 1317, 1233
1363, 1316, 1318, 1231, 1229
1364, 1405, 1313, 1319, 1418
1365, 1233, 1317, 1321, 1236
1366, 1315, 1322, 1407, 1397
1367, 1318, 1410, 2186, 1411
1368, 1237, 1149, 1235, 2151
1369, 1323, 1414, 1417, 1327
1370, 1326, 2151, 1320, 1420
1371, 1327, 1417, 1421, 1330
1372, 2208, 1313, 1405, 1396
1373, 1327, 1241, 1238, 1323
1374, 1331, 2134, 1326, 1420
1375, 1159, 1164, 2161, 1248
1376, 1328, 1319, 1239, 1243
1377, 1240, 1329, 1322, 1234
1378, 1245, 1330, 1338, 1252
1379, 1244, 1333, 1329, 1240
1380, 1164, 1168, 1250, 2161
1381, 1334, 1328, 1243, 1248
1382, 1249, 1251, 1348, 1335
1383, 2180, 1337, 2194, 1430
1384, 1258, 1251, 1170, 1175
1385, 1348, 1251, 1258,  724
1386, 2157, 2172, 1343, 2156
1387, 1166, 1161, 1252, 2157
1388, 1253, 2165, 1346, 1255
1389, 1254, 1259, 1342, 1341
1390, 2156, 1169, 1166, 2157
1391, 1255, 1346, 1347, 1257
1392, 1256, 1173, 1169, 2156
1393, 1441, 1439, 1347, 1346
1394, 1259, 1176, 1262, 1353
1395, 1351, 1260, 1345, 1447
1396, 1354, 1266, 1261, 1349
1397, 1178, 1174, 1261, 1266
1398,  728, 1353, 1262, 1359
1399, 1263, 1177, 1260, 1351
1400, 1263,  730, 1269, 1181
1401, 1258, 1264, 1332,  724
1402, 2221, 1551, 2173,  712
1403, 1465, 1265, 2173,  713
1404,  726, 1270, 1266, 1354
1405, 1352, 1269,  730, 1425
1406, 1364, 1451, 1531, 1454
1407, 1324, 1332, 1264, 1272
1408, 1273, 1190, 1267, 1370
1409, 1367, 2150,  117, 1444
1410, 1285, 1274, 1464,  708
1411,  121, 1203, 1465, 1274
1412, 1369, 1363, 1275,  130
1413, 1340, 1184, 1189,  126
1414, 1277, 1104, 1197, 1355
1415, 1512, 1453, 1278, 1415
1416, 1279, 2139, 1280, 1372
1417, 1372, 1459, 2146, 1279
1418, 1532, 1478, 1416, 1458
1419, 1288, 1199,  122, 1373
1420, 1372, 1280, 1362, 1459
1421, 1286, 1368,  124, 1113
1422, 1540, 1371, 1456,  739
1423, 1360,  713, 1626, 1923
1424, 1374, 1282, 1285,  708
1425, 1283, 1111, 2132, 1110
1426, 1282, 1374, 1350,  126
1427, 1368, 1286, 1361,  703
1428, 1287, 1446, 1547, 1361
1429, 1373,  122, 1277, 1355
1430, 1288, 1373, 2171, 1466
1431, 1289, 1375, 1377, 1293
1432, 1384, 1208, 1210, 1388
1433, 1376, 1378, 1291, 1292
1434, 1292, 1296, 1381, 1376
1435, 1382, 1293, 1377, 2153
1436, 1378, 1383, 1294, 1291
1437, 1209, 1294, 1297, 1213
1438, 2153, 1473, 1385, 1382
1439, 1299, 1212, 1295, 1391
1440, 1472, 1479, 1386, 1383
1441, 1388, 1210, 1214, 1301
1442, 2168, 1471, 1588, 1552
1443, 1598, 2312, 1474, 1558
1444, 1295, 1385, 2163, 1391
1445, 1386, 1392, 1300, 1297
1446, 1219, 1300, 1308, 1226
1447, 1218, 1222, 2184, 1305
1448, 1304, 1217, 1220, 1310
1449, 1390, 1387, 1298, 1302
1450, 1391, 1399, 1303, 1299
1451, 1310, 1220, 1223, 1307
1452, 1395, 1390, 1302, 1304
1453, 2182, 1311, 2184, 1222
1454, 1394, 1389, 1301, 1305
1455, 1306, 1315, 1397, 1393
1456, 1307, 1306, 1393, 1400
1457, 1392, 1403, 1308, 1300
1458, 1396, 1486, 1398, 2208
1459, 1309, 2208, 1398, 1311
1460, 1400, 1401, 1310, 1307
1461, 2164, 1404, 1316, 1312
1462, 1418, 1319, 1328, 1422
1463, 1314, 2292, 1408, 1317
1464, 1404, 1410, 1318, 1316
1465, 1317, 1408, 1412, 1321
1466, 1501, 1411, 2186, 2207
1467, 2242, 1396, 1405, 1488
1468, 1509, 1420, 2193, 1584
1469, 2151, 1326, 2134, 1237
1470, 1321, 1412, 1414, 1323
1471, 1407, 1419, 1498, 1489
1472, 1414, 1502, 1503, 1417
1473, 1332, 1324, 1416, 2287
1474, 1325, 1269, 1352, 1448
1475, 2134, 1331, 1242, 1153
1476, 1421, 1505, 1508, 1426
1477, 1241, 1327, 1330, 1245
1478, 1333, 1244, 1247, 1336
1479, 1419, 1407, 1322, 1329
1480, 1330, 1421, 1426, 1338
1481, 1331, 1420, 1509, 1427
1482, 1339, 1242, 1331, 1427
1483, 1423, 1419, 1329, 1333
1484, 1336, 1335, 1424, 1428
1485, 1337, 1341, 1431, 2194
1486, 1435, 1338, 1426, 1515
1487, 1436, 1339, 1427, 1516
1488, 1253, 1246, 1339, 2165
1489, 1437, 1268, 1184, 1340
1490,  126, 1350, 1463, 1340
1491, 1432, 1431, 1341, 1342
1492, 1342, 1259, 1353, 1380
1493, 1440, 1344, 1343, 1435
1494, 2156, 1343, 1344, 1256
1495, 1434, 1344, 1440,  128
1496, 1519, 1442, 1439, 1475
1497, 2287, 1433,  724, 1332
1498, 1463, 1350, 1449, 1544
1499,  730, 1263, 1351, 1443
1500, 1618, 1538, 1609, 1690
1501, 1527, 1380,  728, 1510
1502, 1373, 1355, 1462, 2171
1503, 1270,  726, 1406, 1356
1504, 1460, 1369,  130, 1357
1505, 1454, 1458, 1358, 1364
1506, 1360,  734, 1464, 1274
1507, 1445, 1362, 1466, 1530
1508, 1459, 1362, 1445, 1550
1509, 1198, 1275, 1363, 2183
1510, 1451, 1364, 1271, 2183
1511, 1365, 1535, 1452, 1284
1512, 1284, 1452, 1541, 2154
1513, 1539, 1450, 1538, 2191
1514, 1467, 1461, 1368,  703
1515, 1281,  124, 1368, 1461
1516, 1620, 1460, 1357, 1542
1517,  712, 2155, 1371, 1540
1518, 1276, 1193, 1371, 2155
1519, 1374, 1455, 1449, 1350
1520, 1468, 1377, 1375, 2168
1521, 1378, 1376, 1469, 1555
1522, 1377, 1468, 1470, 2153
1523, 1471, 1379, 1384, 1476
1524, 1409, 1510,  728, 1359
1525, 1599, 1647, 1596, 1513
1526, 1381, 1387, 1474, 2312
1527, 2169, 1557, 1477, 1473
1528, 1473, 1477, 2163, 1385
1529, 1472, 1555, 1702, 1556
1530, 1387, 1390, 1481, 1474
1531, 1388, 1301, 1389, 1480
1532, 1471, 1476, 1554, 1588
1533, 1388, 1480, 1476, 1384
1534, 2325, 1392, 1386, 1479
1535, 1482, 1564, 1566, 1487
1536, 1482, 1487, 1393, 1397
1537, 1305, 2184, 1402, 1394
1538, 1389, 1483, 1602, 1480
1539, 1304, 1310, 1401, 1395
1540, 1485, 1481, 1390, 1395
1541, 1397, 1407, 1489, 1482
1542, 1398, 1486, 1492, 1402
1543, 1311, 1398, 1402, 2184
1544, 2189, 1494, 2164, 1399
1545, 1312, 1303, 1399, 2164
1546, 1487, 1493, 1400, 1393
1547, 1491, 1485, 1395, 1401
1548, 1394, 1490, 1483, 1389
1549, 2325, 2315, 1403, 1392
1550, 1314, 1308, 1403, 2292
1551, 1494, 1496, 1404, 2164
1552, 1497, 1488, 1405, 1418
1553, 1429, 1528,  726, 1354
1554, 1607, 1592, 2213, 1664
1555, 1408, 2293, 1499, 1412
1556, 1529, 1574, 1409, 1437
1557, 1496, 1500, 1410, 1404
1558, 1235, 1411, 1320, 2151
1559,  120, 2215, 1500, 1496
1560, 1412, 1499, 1502, 1414
1561, 1413, 1501, 2217, 2193
1562, 1420, 1320, 1413, 2193
1563,  131, 1580, 1502, 1499
1564, 1324, 1358, 1458, 1416
1565, 1731, 1829, 1587, 1679
1566, 1417, 1503, 1505, 1421
1567, 1328, 1334, 2210, 1422
1568, 1498, 1522, 2324, 1593
1569, 2210, 1430,  119, 1514
1570, 1506, 1497, 1418, 1422
1571, 1428, 1423, 1333, 1336
1572,  129, 1522, 1423, 1428
1573, 1428, 1424, 1511,  129
1574, 1335, 1348, 1438, 1424
1575, 1521, 1538, 1450, 1448
1576, 1515, 1426, 1508, 1591
1577, 1516, 1427, 1509, 2232
1578, 1528, 1597, 1613, 1524
1579, 2180, 1430, 2210, 1334
1580, 1430, 2194, 1596,  119
1581, 1380, 1527, 1432, 1342
1582, 1348,  724, 1433, 1438
1583, 2287, 1416, 1478, 1585
1584, 1523, 1447, 1518, 1606
1585, 1520, 1440, 1435, 1515
1586, 1435, 1343, 2172, 1338
1587, 2219, 2190, 1436,  125
1588, 1436, 2190, 2165, 1339
1589, 1533, 1340, 1463, 2181
1590, 1349, 1347, 1439, 1442
1591, 2219, 1439, 1441, 2190
1592, 2190, 1441, 1346, 2165
1593, 1475, 1439, 2219, 1561
1594, 1425,  730, 1443, 1525
1595, 1443, 1351, 1447, 1523
1596, 1448, 1450, 1370, 1325
1597, 1536, 1446, 1444, 1539
1598, 1518, 1434,  128, 1604
1599, 1521, 1448, 1352, 1581
1600, 1526, 1449, 1455,  735
1601, 1450, 1539, 1444,  117
1602, 1627, 1531, 1451,  695
1603, 1689, 1761, 1608, 1614
1604, 1541, 1452, 1608, 1624
1605, 1188, 1278, 1453, 2135
1606,  127, 1365, 1453, 1512
1607, 1458, 1454, 1546, 1532
1608, 1537, 1701,  708, 1464
1609,  739, 1625, 1457, 1540
1610, 1625,  685, 2221, 1457
1611, 1532, 1546, 1622, 1600
1612, 1543, 1687,  732, 1617
1613, 1534, 1461, 1467,  679
1614,  697, 1541, 1624, 1545
1615, 1466, 2171, 1623, 1530
1616, 1574, 1529, 1586, 1683
1617, 1549, 2167, 1612, 2192
1618, 1467, 1549, 1696,  679
1619, 1470, 1468, 1552,  727
1620, 1376, 1381, 2312, 1469
1621, 1555, 1472, 1383, 1378
1622, 2153, 1470, 2169, 1473
1623, 1637, 1554, 1559, 1633
1624, 1556, 1563, 1479, 1472
1625, 1557, 1562, 2196, 1477
1626, 1558, 1474, 1481, 1565
1627, 1469, 2312, 1598, 1630
1628, 1442, 1519, 1504, 1429
1629, 1476, 1480, 1559, 1554
1630, 1583, 1575, 1511, 1507
1631, 1565, 1481, 1485, 1603
1632, 1642, 1564, 1572, 1641
1633, 1490, 1394, 1402, 1492
1634, 1602, 1483,  123, 1656
1635, 2196, 1570, 2189, 1484
1636, 1399, 1391, 1484, 2189
1637, 1567, 1643, 1646, 1569
1638, 1493, 1491, 1401, 1400
1639, 2265, 2270, 1488, 1497
1640, 1572, 1489, 1498, 1593
1641, 1563, 1573, 2325, 1479
1642, 1483, 1490, 1590,  123
1643, 1491,  132, 1603, 1485
1644, 1486, 1567, 1569, 1492
1645, 1590, 1490, 1492, 1569
1646, 1487, 1566, 1571, 1493
1647, 1491, 1493, 2328,  132
1648, 1496, 1494, 2211,  120
1649, 2293, 1576,  131, 1499
1650, 2292, 1495, 2293, 1408
1651, 1560, 1578, 1506, 1514
1652, 1419, 1423, 1522, 1498
1653, 2186, 1410, 1500, 1577
1654, 1577, 1579, 2207, 2186
1655, 2207, 1579, 2217, 1501
1656, 1503, 1502, 1580, 1662
1657, 2217, 1579, 1670, 2218
1658, 1653, 1597, 1504, 1582
1659, 1514, 1506, 1422, 2210
1660, 1507, 1517, 1587, 1583
1661, 1591, 1508, 1589, 1721
1662, 1509, 1584, 1610, 2232
1663, 1574, 1683, 1684, 2174
1664, 1512, 1415, 1592, 1607
1665, 1514,  119, 1661, 1560
1666, 1520, 1515, 1688, 1568
1667, 1515, 1591, 2233, 1688
1668, 1605, 2264, 2237,  125
1669,  125, 1436, 1516, 1605
1670, 1433, 2287, 1585, 1517
1671, 1606, 1518, 1604, 1676
1672, 1595, 1519, 1475, 1639
1673, 1581, 1425, 1525, 2205
1674, 1521, 1581, 1609, 1538
1675, 1489, 1572, 1564, 1482
1676, 1752, 2235, 1737, 1813
1677, 2205, 1525, 1601, 1718
1678, 1510, 2174, 1611, 1527
1679, 1429, 1504, 1597, 1528
1680, 1586, 1529, 1533, 1615
1681,  709, 1445, 1530, 1619
1682, 1530, 1623, 1691, 2031
1683, 1531, 1627, 1753, 1616
1684, 1544, 1739, 2181, 1463
1685, 1629, 1534,  679, 1697
1686,  739, 1456, 1534, 1629
1687,  127, 1512, 1607, 1664
1688, 1621,  689, 1747, 1685
1689, 1693, 1547, 1446, 1536
1690, 1690, 1609, 1659, 1777
1691, 2191, 1621, 1536, 1539
1692, 2154, 1541,  697, 2162
1693, 1543, 1617, 1695, 1548
1694, 1369, 1460, 1543, 1548
1695, 1822, 1921, 1694,  659
1696, 2222, 1694, 1921, 1691
1697,  701, 1622, 1546, 1616
1698,  703, 1361, 1547, 2167
1699, 1812, 2227, 2071, 2192
1700, 1542, 1550,  704, 1620
1701, 1626, 1551, 1698, 2224
1702, 1470,  727, 1553, 2169
1703, 1635, 1553, 1631, 1710
1704, 1602, 1650, 1559, 1480
1705,  727, 1552, 1588, 2212
1706, 1555, 1469, 1630, 1702
1707,  723, 1769, 1630, 1598
1708, 1553, 1635, 1557, 2169
1709, 1562, 2214, 1570, 2196
1710, 1645, 1638, 1603,  132
1711, 1558, 1565, 1652, 1720
1712, 1681, 1733, 1599, 1611
1713, 1651, 2265, 1578, 1674
1714, 1519, 1595, 1582, 1504
1715, 1570, 2211, 1494, 2189
1716, 2289, 1573, 1563, 1644
1717, 1573, 1495, 2315, 2325
1718, 1654, 1571, 1566, 1708
1719, 1565, 1603, 1638, 1652
1720, 1642, 1708, 1566, 1564
1721, 1636, 1590, 1569, 1646
1722, 2242, 1567, 1486, 1396
1723, 1740, 1658, 1756, 1816
1724, 1666, 1606, 1676, 1741
1725, 2214, 1669, 2211, 1570
1726, 2328, 1493, 1571, 1654
1727, 1497, 1506, 1578, 2265
1728, 1575, 1594,  129, 1511
1729, 1572, 1593, 1649, 1641
1730, 1640, 1648,  131, 1576
1731, 1576, 1573, 2289, 1640
1732, 1611, 1599, 1513, 1527
1733, 1409, 1574, 2174, 1510
1734, 1495, 1573, 1576, 2293
1735, 2240, 1673, 2215,  120
1736, 1579, 1577, 2216, 1670
1737, 2270, 1651, 1643, 1567
1738, 1655, 1584, 2218, 1670
1739,  131, 1648, 1729, 1580
1740, 1662, 1580, 1729, 2267
1741, 1581, 2205, 1659, 1609
1742, 1780, 1715, 1663, 2301
1743, 1517, 1585, 1679, 1587
1744, 1583, 1587, 1829, 1632
1745, 2232, 2236, 1605, 1516
1746, 1600, 2291, 1478, 1532
1747, 2291, 1679, 1585, 1478
1748, 1503, 1662, 1665, 1505
1749, 1615, 1533, 2181, 1739
1750, 1683, 1586, 1680, 1750
1751, 1675, 1731, 1679, 2291
1752, 1589, 1508, 1505, 1665
1753, 1721,  691, 2233, 1591
1754, 1671, 1524, 1613, 1737
1755, 1593, 2324, 1660, 1649
1756, 1632, 1672, 1575, 1583
1757, 1431, 1513, 1596, 2194
1758, 1597, 1653, 1677, 1613
1759, 1720,  723, 1598, 1558
1760, 1647, 1599, 1733, 1788
1761,  716, 2318, 1600, 1622
1762, 1601, 1666, 1773, 1718
1763, 1636, 1714,  123, 1590
1764, 1676, 1604, 1658, 1740
1765, 2236, 2232, 1610, 1686
1766, 1755, 1841, 1807, 1717
1767, 1601, 1523, 1606, 1666
1768, 1735, 1690, 1777, 1827
1769, 1584, 1655, 1667, 1610
1770, 1686, 1610, 1667, 1748
1771,  717, 1785, 1725, 1750
1772, 1763, 1699, 1612, 1693
1773, 1612, 2167, 1547, 1693
1774, 1678,  127, 1664, 1734
1775, 1678, 1760, 1614, 1535
1776, 2247, 1739, 1544, 2230
1777, 1779, 1739, 2247, 2231
1778, 1616, 1753, 1692,  701
1779, 1767, 1695, 1617,  732
1780, 1621, 2191, 1749,  689
1781, 1618, 1749, 2191, 1538
1782, 2303, 1754, 1682, 2317
1783, 1623, 2171, 1462, 2197
1784, 1761, 2229, 1624, 1608
1785,  704, 2203, 2204, 1762
1786, 1625,  739, 1629, 1700
1787, 1923, 1626, 2224, 2225
1788, 1764, 1628,  670,  744
1789,  735, 1628, 1764, 1808
1790, 1637, 1633, 1711, 2212
1791, 1706, 1631, 1703, 1782
1792, 1791, 1709, 1719, 1742
1793, 1711, 1633, 1704, 1770
1794,  723, 1712, 1768, 1769
1795, 2289, 1644, 1810, 1705
1796, 1787, 1706, 1771, 2300
1797, 1713, 1636, 1646, 1716
1798, 1703,  727, 2212, 1711
1799, 1712,  723, 1720, 1652
1800, 1780, 2301, 1717,  702
1801, 1705, 1736, 1640, 2289
1802, 1642, 1641, 2339,  705
1803, 1642,  705, 2338, 1708
1804, 2294, 1716, 1646, 1643
1805, 1707, 1810, 1644, 1634
1806, 2328, 1668, 2335,  132
1807, 1647, 1661,  119, 1596
1808, 1648, 1640, 1736, 1729
1809, 1594, 1575, 1672, 2331
1810, 1719, 1641, 1649, 1660
1811, 1656, 2250, 1811, 1722
1812, 1728, 1560, 1661, 1772
1813, 1651, 1732, 2294, 1643
1814, 1663, 1715, 1582, 1595
1815, 1715, 1730, 1653, 1582
1816, 2328, 1654, 1724, 1668
1817, 1655, 2263,  707, 1667
1818, 1659, 2205, 1718, 1783
1819, 1636, 1713, 2275, 1714
1820, 1857, 1722, 1811, 1911
1821, 1710, 1787, 1657, 1635
1822, 2214, 1562, 1657, 1738
1823, 1658, 1568, 1688, 1756
1824, 1792, 1791, 1742, 2332
1825, 1795, 1729, 1736, 1784
1826, 1728, 1772, 1848, 1809
1827, 1715, 1780, 1774, 1730
1828, 1524, 1671, 2213, 1592
1829, 1748, 1667,  707, 1789
1830, 1814, 1668, 1724, 1775
1831, 1726, 2335, 1668, 1814
1832,  120, 2211, 1669, 2240
1833, 2216, 2215, 1673, 1743
1834, 1613, 1677, 2251, 1737
1835, 1752, 1796, 1734, 1664
1836, 2332, 1742, 2331, 1672
1837, 1738, 1745, 1669, 2214
1838, 2240, 1669, 1745, 2262
1839, 1732, 1651, 1674, 1837
1840, 1744, 2329, 2318,  716
1841, 1879, 1731, 1790,  690
1842, 1741, 1676, 1740, 1798
1843, 1730, 2283, 1677, 1653
1844, 1760, 1678, 1734, 1893
1845, 1683, 1750, 1725, 1684
1846, 1680, 1586, 1615, 1779
1847, 1681, 1751, 1781, 1733
1848, 2317,  716, 1622, 2303
1849, 1684, 1681, 1611, 2174
1850, 1685, 1747, 2245, 1819
1851, 1763, 1693, 1685, 1819
1852, 2264, 2236, 1686, 1755
1853,  704, 1550,  709, 2203
1854, 1760, 1805, 1689, 1614
1855,  689, 1749, 1735, 1797
1856, 2031, 2037, 2016,  637
1857, 1692,  737, 1754, 2303
1858, 1619,  637, 2175,  674
1859, 1545, 1624, 2229, 1694
1860, 1757, 1695, 1767, 2269
1861, 1749, 1618, 1690, 1735
1862, 1759, 1697,  679, 1696
1863, 1821, 1700,  645, 2022
1864, 2192, 1612, 1699, 1812
1865,  661, 1865, 1699, 1763
1866,  685, 1625, 1700, 1821
1867, 1711, 1770, 1782, 1703
1868, 1863, 1705, 1810, 1825
1869, 1710, 1631, 1706, 1787
1870, 1634, 1768, 1824, 1707
1871, 1771, 1706, 1782, 1832
1872, 1824, 1778, 1880, 1825
1873, 2275, 1802, 2250, 1714
1874, 1811, 2250, 1802, 1828
1875, 1656,  123, 1714, 2250
1876, 1774, 1780,  702, 1833
1877,  715, 1783, 1718, 1773
1878, 1660, 2331, 1742, 1719
1879, 1852, 1816, 1756, 2233
1880, 1901, 1857, 1911, 1932
1881, 1704, 1650, 1722, 1857
1882, 1672, 1632, 1723, 2332
1883, 2334, 1839, 1928, 1885
1884, 1864, 1666, 1741,  698
1885, 1751, 1725, 1785, 1835
1886, 1684, 1725, 1751, 1681
1887, 1727, 1803, 1778, 1712
1888, 2335, 1726, 1645,  132
1889,  676, 2313, 1845, 1860
1890, 1661, 1647, 1788, 1772
1891, 1830, 1848, 1772, 1788
1892, 1729, 1795, 1820, 2267
1893, 1813, 2251, 1794,  720
1894, 1879, 1723, 1829, 1731
1895, 1790, 2330, 2329, 1786
1896, 2294, 1732, 1887, 1847
1897, 1781, 1830, 1788, 1733
1898, 1752, 1664, 2213, 2235
1899, 2256, 2255, 1993, 1844
1900,  691, 1721, 1589, 2267
1901, 1784, 1736, 1705, 1863
1902, 2213, 1671, 1737, 2235
1903, 1798, 1740, 1816,  736
1904, 1773, 1666, 1864, 2226
1905, 1709, 1791, 2336, 1776
1906, 1800,  710, 1851, 1801
1907, 1800, 1801, 1743, 2262
1908, 2317, 1682, 1746, 1744
1909, 1787, 1799, 1738, 1657
1910, 2266, 1800, 2262, 1745
1911,  719, 1746, 1682, 2316
1912, 1841, 1755, 1686, 1748
1913, 1752, 1813, 1853, 1796
1914,  737, 1692, 1753, 1757
1915, 2316, 1682, 1754, 1804
1916, 1639, 1561, 2237, 2288
1917, 1852, 2233,  691, 1861
1918,  707, 2263, 1806, 1862
1919, 2228,  622, 1873, 2204
1920, 2231, 2260, 1826, 1779
1921, 1526, 1836, 2247, 2230
1922, 1765, 2225, 2224, 1698
1923,  600, 2022, 1766, 1989
1924, 1817, 2244, 1873,  622
1925, 2269, 1823,  737, 1757
1926, 1768, 1712, 1778, 1824
1927, 1769, 1768, 1634, 1556
1928, 1832, 1782, 1770, 1901
1929, 1799, 1787, 2300, 1849
1930, 1927, 1848, 1830, 1889
1931, 1864, 1874, 2248, 2226
1932, 2283, 1833, 1890, 1794
1933, 1850,  705, 2337, 1831
1934, 1803, 1726, 1814, 1845
1935, 1850, 1842, 2338,  705
1936, 2339, 1776, 2337,  705
1937,  715, 1827, 1777, 1783
1938, 1750, 1680, 1793,  717
1939, 1792, 2332, 1834, 1883
1940, 1830, 1781, 1876, 1889
1941, 1872, 1784, 1863, 1877
1942, 1869, 1820, 1795,  706
1943,  717, 2282, 1846, 1785
1944, 1785, 1846, 1912, 1835
1945,  719, 1854, 1786, 1746
1946,  690, 1790, 1786, 1899
1947,  710, 1799, 1849, 2274
1948, 1789, 1875, 1841, 1748
1949, 1801, 2286, 1758, 1743
1950, 1723, 1879, 1834, 2332
1951, 2330, 1790, 1731, 1675
1952, 1791, 1792, 1839, 2336
1953, 1838, 1793, 1826, 2297
1954, 1730, 1774, 1833, 2283
1955,  706, 1795, 1784, 1872
1956, 1796,  694, 1893, 1734
1957, 1827, 1844, 1993, 1735
1958, 1797, 1735, 1993, 2272
1959, 1761, 1843, 1918, 1858
1960,  698, 1741, 1798, 1871
1961,  710, 1800, 2266, 1799
1962, 1745, 1738, 1799, 2266
1963, 2286, 1806, 2263, 1758
1964, 1855, 1803, 1845, 1892
1965, 1843, 1805, 1893,  694
1966,  733, 1920, 1806, 2286
1967, 1875, 1881, 1807, 1841
1968, 1882, 1809, 1848, 1927
1969, 1707, 1824, 1825, 1810
1970, 1911, 1811, 1828, 1932
1971, 2071,  633, 1759, 1696
1972, 1853, 1813,  720, 1895
1973, 1860, 1845, 1814, 1775
1974, 1815, 1716, 1847, 1888
1975, 1828, 1802, 1886,  682
1976,  628, 1817,  622,  585
1977, 2244,  673, 2269, 1767
1978,  681, 1867, 1818, 1894
1979,  719, 2316, 1818, 1867
1980, 1914,  617, 1865,  661
1981,  661, 1763, 1819, 1914
1982,  691, 2267, 1820, 1861
1983, 1921, 1822,  625, 2037
1984, 1866, 1823, 2269,  673
1985, 1877, 1863, 1825, 1880
1986, 2247, 1836, 2260, 2231
1987, 1859,  715, 1773, 2226
1988, 1844, 1827, 1906, 2256
1989, 1885, 2333, 1831, 2334
1990, 1857, 1901, 1770, 1704
1991, 1833,  702, 1856, 1890
1992, 1839, 1792, 1883, 1928
1993, 1835, 1912, 2281, 1876
1994, 1781, 1751, 1835, 1876
1995, 2260, 1870, 1915, 2297
1996, 1887, 1732, 1837, 2309
1997, 1903, 1846, 2282, 1838
1998,  717, 1793, 1838, 2282
1999,  657, 1840, 2273, 2255
2000, 1898, 1875, 1789, 2299
2001, 1842, 1916, 1860, 1775
2002, 1897,  694, 1896, 1976
2003, 1918, 1958, 1905, 1858
2004, 1888, 1963, 1953, 1886
2005, 1913,  714, 2257,  684
2006, 1904,  710, 2274, 2278
2007, 1851,  733, 2286, 1801
2008, 1890, 1936,  720, 1794
2009, 1976, 1896, 1930, 1966
2010,  700, 1942, 1943, 1909
2011, 1935, 1877, 1880, 1855
2012, 1778, 1803, 1855, 1880
2013, 1891, 2323, 2322, 2314
2014, 1905, 1868, 2238, 1858
2015, 1717, 1807, 1881, 2322
2016, 2248, 1908, 1859, 2226
2017, 1919, 1861,  731, 2070
2018, 2261, 1852, 1861, 1919
2019, 2310, 2299, 1862, 1931
2020, 1874, 1864,  698, 1871
2021, 1812, 1947, 1922, 2227
2022,  681, 1894, 1866, 1955
2023, 1955, 2271, 1983,  681
2024, 1868, 1822,  659, 2238
2025, 1808, 1870, 2260, 1836
2026, 2297, 1915, 1884, 1838
2027, 1939, 1874, 1871, 1902
2028,  711, 1969,  678, 1907
2029,  738, 1881, 1875, 1898
2030,  699, 1889, 1876, 2281
2031,  711, 1872, 1877, 1935
2032, 2321, 1975, 1946, 1878
2033, 1916, 1878, 1946, 1951
2034, 2309, 2306, 1924, 1887
2035, 1837, 1809, 1882, 1925
2036, 1883, 1834,  690, 1933
2037,  690, 1899, 1938, 1933
2038,  693, 1970, 1884, 2298
2039, 1885,  660, 1949, 2333
2040, 2309, 1837, 1925, 2306
2041, 1963, 1888, 1924, 2279
2042, 1889,  699, 1961, 1927
2043, 1926, 1936, 1890, 1856
2044, 1960, 1926, 2323, 1891
2045,  676, 1940, 2296, 2313
2046, 1935, 2276, 1969,  711
2047, 2321, 1949, 1977, 1975
2048, 1976, 1973, 1954, 1897
2049, 1918, 1897, 1954, 1958
2050, 1843,  694, 1897, 1918
2051, 1883, 1933, 1962, 1928
2052, 1899, 1786, 1854, 1938
2053, 2199, 1900,  662,  579
2054, 1832, 1901,  714, 1771
2055, 1912, 1934, 1929, 2281
2056,  634, 1996, 1904, 2278
2057,  616, 1945, 1905, 1958
2058, 1859, 1908, 2254, 1906
2059, 2256, 1906, 2254, 1937
2060,  678,  662, 1900, 1907
2061, 1874, 1939, 1952, 2248
2062, 2254, 1908,  696, 1937
2063, 1962, 2304, 2002,  660
2064, 1948, 1910, 1945,  574
2065, 1932, 1828,  682, 1987
2066, 1846, 1903, 1934, 1912
2067,  676, 1860, 1916, 1951
2068, 1922, 2249, 1956, 2227
2069,  734, 1360, 1923, 2209
2070, 1999, 2033, 2279, 2280
2071, 1882, 1927, 1964, 1925
2072, 1936, 1926, 1960, 1966
2073, 1964, 1927, 1961, 2005
2074,  660, 1885, 1928, 1962
2075, 1929, 2000, 2029, 1965
2076,  699, 2281, 1929, 1965
2077, 1895, 1936, 1966, 1930
2078, 1973, 1976, 1966,  692
2079, 1974, 1941, 2310, 1931
2080, 1967, 1987,  682, 1953
2081, 1938, 1909, 1971, 2304
2082, 1939,  718, 1972, 1952
2083, 1940,  676, 1951, 2024
2084, 1969, 2008, 2206,  678
2085,  665, 1891, 2326, 1941
2086, 2311, 2310, 1941, 2326
2087, 1990,  687, 2079,  675
2088, 1943, 1990, 2011,  658
2089, 1909, 1943,  658, 1971
2090, 1988, 1944,  663,  744
2091, 1945,  616, 1985,  574
2092, 2333, 1949, 2321, 1878
2093, 2010, 1946, 1975,  632
2094, 1867,  681, 1983, 2082
2095, 2268, 1922, 1947, 1980
2096,  625, 1910, 1948, 1986
2097, 1977, 1949,  660, 2002
2098,  740, 1998, 2243, 1950
2099, 2209,  670, 1628, 1537
2100, 1951, 1946, 2010, 2024
2101, 1967, 1953, 1963, 2018
2102, 2307, 2308, 1954, 1973
2103, 2252, 1997, 2271,  640
2104, 2227, 1956,  633, 2071
2105, 1981, 1956, 2249,  578
2106, 2259, 1957,  634, 2095
2107, 1984,  657, 2012, 2041
2108, 1959,  669,  626, 1991
2109, 1959, 1991, 1979,  718
2110,  665, 2004, 2027, 2009
2111,  692, 1966, 1960, 2009
2112, 1999, 2280, 1968,  667
2113,  667, 1968, 1964, 2005
2114, 1934,  721, 2000, 1929
2115, 2018, 2040, 2006, 1967
2116, 1968, 2280, 2306, 1925
2117, 1970,  693, 2014,  721
2118, 2036, 2026, 2020,  692
2119, 1974, 2077, 2004,  665
2120, 2001, 1978, 1994, 2007
2121,  630, 1985,  616, 1978
2122,  671, 1979,  677, 2198
2123,  621, 2105, 2268, 1980
2124,  529, 1981, 2013,  513
2125, 2012, 1982, 2034,  745
2126,  657, 2255, 1982, 2012
2127, 2255, 2273, 2272, 1993
2128, 1994, 2308, 2307, 2007
2129, 2019, 2017,  574, 1985
2130,  586, 1995,  518, 2092
2131, 2271, 1997, 2082, 1983
2132, 1998,  627,  744,  670
2133,  667, 2005, 2025, 2023
2134, 2033, 2018, 1963, 2279
2135, 2000,  721, 2039, 2029
2136, 2035, 2001,  683, 2050
2137, 1971, 2057, 2002, 2304
2138, 2003, 2046, 2032,  632
2139, 2006, 2040, 2052, 2078
2140, 2307, 1973,  692, 2020
2141, 2206, 2008,  642, 2202
2142, 2024, 2010, 2028, 2047
2143, 2066, 2065, 2030, 2295
2144,  573, 2099,  513, 2013
2145, 2038, 2014,  656,  680
2146,  656, 1992, 2015,  614
2147, 2031, 1691, 1921, 2037
2148,  635, 2040, 2018, 2033
2149,  576, 2195, 2019, 2103
2150, 2009, 2027, 2036,  692
2151, 2051, 2063, 2043,  635
2152, 2025, 2005, 1965, 2029
2153, 2045, 2025, 2029, 2039
2154, 2026, 2007, 2307, 2020
2155, 2026, 2036, 2319,  655
2156, 2047, 2028,  599, 2241
2157, 2046, 2053,  615, 2056
2158, 2046, 2003, 2057, 2053
2159, 2032, 2046, 2056, 2080
2160, 2284, 2035, 2050,  651
2161, 2037,  625, 1986, 2016
2162,  680,  656,  686,  647
2163, 2014, 2038, 2048,  721
2164,  631, 2048, 2038, 2084
2165, 2042, 2045,  666, 2059
2166, 2178, 2044,  745, 2198
2167,  624, 2063, 2042, 2059
2168,  624, 2060, 2043, 2063
2169, 2052, 2043, 2060, 2058
2170,  643,  587, 2044, 2178
2171, 2055, 2241,  599, 2062
2172,  642, 2049, 2047, 2241
2173, 2084, 2038,  680,  647
2174, 2049,  642, 2008, 2290
2175, 2050,  688, 2320,  651
2176, 2023, 2042, 2063, 2051
2177, 2053, 2030, 2065,  615
2178, 2241, 2055, 2202,  642
2179,  615, 2065, 2066,  623
2180,  599, 2080,  575, 2062
2181, 2057, 1971,  658, 2053
2182,  631, 2088, 2104, 2059
2183, 2069, 2060,  624, 2253
2184, 2096, 2067,  605,  546
2185,  646, 2078, 2067, 2076
2186, 2253, 2104,  582, 2069
2187,  582, 2097,  521, 2069
2188,  677,  641, 2178, 2198
2189, 2070,  731, 2199,  620
2190, 2319, 2072, 2327,  655
2191, 2075,  569, 2116, 2107
2192,  646,  684, 2257, 2081
2193, 2082,  687, 1942, 1867
2194, 2083,  585,  622, 2228
2195, 2111, 2117, 2085,  603
2196, 2111,  603, 2277,  612
2197, 2175, 2087,  591,  581
2198, 2234, 2088, 2258,  595
2199,  582, 2104, 2088, 2234
2200, 2101,  529,  485, 2102
2201, 2089,  513, 2099,  452
2202, 2089,  452, 2109,  386
2203, 2252, 2094, 2090, 1997
2204,  597,  589, 2090, 2094
2205,  518, 2195, 2091, 2092
2206,  619, 2110,  569, 2093
2207, 2095,  602,  743, 2259
2208, 2102,  411,  483,  548
2209,  454, 2106, 2176,  508
2210, 2108, 2223,  740, 1950
2211, 2110,  580, 2116,  569
2212, 2117, 2111,  520, 2098
2213, 2113,  522,  534,  742
2214, 2115,  450,  473,  760
2215, 2121,  116,  115,  213
2216, 2143, 2142,  411, 2158
2217, 2149, 2148, 2170,  491
2218, 1265, 2155,  712, 2173
2219, 2172, 2157, 1252, 1338
2220,  415, 2143, 2158, 2159
2221, 2197, 1462,  697, 1545
2222, 1484, 2163, 1477, 2196
2223, 2168, 1375, 1379, 1471
2224, 2170,  509, 2187,  491
2225, 2177,  588,  626,  620
2226, 2180, 1334, 1248, 2161
2227,  487,  526, 2086,  547
2228, 2220, 2185,  461,  523
2229, 2217, 2218, 1584, 2193
2230, 2195,  518, 2017, 2019
2231, 2222, 2197, 1545, 1694
2232, 2204, 2203,  664, 2228
2233, 1577, 1500, 2215, 2216
2234, 1561, 2219,  125, 2237
2235,  659, 1694, 2229, 2238
2236, 2242, 1488, 2270, 1567
2237, 2244, 1767,  732, 1873
2238, 2272, 2245, 1747, 1797
2239, 2246,  517,  566,  611
2240,  578, 2249, 1922, 2268
2241, 1794, 2251, 1677, 2283
2242, 1937, 1982, 2255, 2256
2243, 1852, 2261,  736, 1816
2244, 2262, 1743, 1673, 2240
2245, 2272, 2273, 1840, 2245
2246, 1815, 2275, 1713, 1716
2247, 2313, 2296, 1892, 1845
2248, 2296, 2290, 2276, 1892
2249, 2279, 1924, 2306, 2280
2250, 2285, 2284,  651, 2305
2251,  603, 2085, 2284, 2285
2252, 1940, 2049, 2290, 2296
2253, 2291, 1600, 2318, 1675
2254, 2292, 1403, 2315, 1495
2255, 2300, 1771,  714, 1913
2256, 2301, 1663, 1639, 2288
2257, 2320, 2327, 2302,  654
2258, 2310, 2311, 1898, 2299
2259, 2311, 2326, 1891, 2314
2260,  738, 1898, 2311, 2314
2261,  702, 1717, 2322, 2323
2262, 2323, 1926, 1856,  702
2263, 2324, 1594, 2331, 1660
2264, 2318, 2329, 2330, 1675
2265, 2333, 1878, 1850, 1831
2266, 1831, 2337, 1776, 2334
2267, 2336, 1839, 2334, 1776
*Nset, nset=ALL_ELEM, generate
    1,  2339,     1
*Elset, elset=ALL_ELEM, generate
    1,  2267,     1
** Section: PlateSec
*Solid Section, elset=ALL_ELEM, material=Steel
1.,
*End Part
**  
**
** ASSEMBLY
**
*Assembly, name=Assembly
**  
*Instance, name=PLATE-1, part=PLATE
*End Instance
**  
*End Assembly
** 
** MATERIALS
** 
*Material, name=Steel
*Elastic
210000., 0.3
** ----------------------------------------------------------------
** 
** STEP: Step-1
** 
*Step, name=Step-1, nlgeom=NO
*Static
1., 1., 1e-05, 1.
** 
** OUTPUT REQUESTS
** 
*Restart, write, frequency=0
** 
** FIELD OUTPUT:  from REMESHING RULE: RR_HOLE_30
** Plate with Hole Remeshing Rule errorTarget=3.0%
** 
*Output, field
*Element Output, elset=PLATE-1.ALL_ELEM, directions=YES
MISESERI, MISESAVG, S, EVOL
** 
** FIELD OUTPUT: F-Output-1
** 
*Output, field, variable=PRESELECT
** 
** HISTORY OUTPUT: H-Output-1
** 
*Output, history, variable=PRESELECT
*End Step
