*Heading
** Small Mode-I Verification Model (64 Quads, 85 Nodes)
** Geometry: 1.0 x 1.0 mm, slit at y=0.5 (a0=0.5 mm)
** Material: E=210.0 kN/mm^2, nu=0.3, Gc=0.0027 kN/mm, l0=0.0075 mm, k=1.0e-7
*Preprint, echo=NO, model=NO, history=NO, contact=NO
** ==========================================================
** USER ELEMENTS (Phase U1: 1..NPHYS, Mech U2: NPHYS+1..2*NPHYS)
** ==========================================================
*USER ELEMENT, TYPE=U1, NODES=4, COORDINATES=2, PROPERTIES=6, VARIABLES=18, UNSYMM
3
*USER ELEMENT, TYPE=U2, NODES=4, COORDINATES=2, PROPERTIES=6, VARIABLES=18, UNSYMM
1, 2
** ==========================================================
** NODES
** ==========================================================
*Node
1, 0.0000000000, 0.0000000000
2, 0.1250000000, 0.0000000000
3, 0.2500000000, 0.0000000000
4, 0.3750000000, 0.0000000000
5, 0.5000000000, 0.0000000000
6, 0.6250000000, 0.0000000000
7, 0.7500000000, 0.0000000000
8, 0.8750000000, 0.0000000000
9, 1.0000000000, 0.0000000000
10, 0.0000000000, 0.1250000000
11, 0.1250000000, 0.1250000000
12, 0.2500000000, 0.1250000000
13, 0.3750000000, 0.1250000000
14, 0.5000000000, 0.1250000000
15, 0.6250000000, 0.1250000000
16, 0.7500000000, 0.1250000000
17, 0.8750000000, 0.1250000000
18, 1.0000000000, 0.1250000000
19, 0.0000000000, 0.2500000000
20, 0.1250000000, 0.2500000000
21, 0.2500000000, 0.2500000000
22, 0.3750000000, 0.2500000000
23, 0.5000000000, 0.2500000000
24, 0.6250000000, 0.2500000000
25, 0.7500000000, 0.2500000000
26, 0.8750000000, 0.2500000000
27, 1.0000000000, 0.2500000000
28, 0.0000000000, 0.3750000000
29, 0.1250000000, 0.3750000000
30, 0.2500000000, 0.3750000000
31, 0.3750000000, 0.3750000000
32, 0.5000000000, 0.3750000000
33, 0.6250000000, 0.3750000000
34, 0.7500000000, 0.3750000000
35, 0.8750000000, 0.3750000000
36, 1.0000000000, 0.3750000000
37, 0.0000000000, 0.5000000000
38, 0.1250000000, 0.5000000000
39, 0.2500000000, 0.5000000000
40, 0.3750000000, 0.5000000000
41, 0.5000000000, 0.5000000000
42, 0.6250000000, 0.5000000000
43, 0.7500000000, 0.5000000000
44, 0.8750000000, 0.5000000000
45, 1.0000000000, 0.5000000000
46, 0.0000000000, 0.6250000000
47, 0.1250000000, 0.6250000000
48, 0.2500000000, 0.6250000000
49, 0.3750000000, 0.6250000000
50, 0.5000000000, 0.6250000000
51, 0.6250000000, 0.6250000000
52, 0.7500000000, 0.6250000000
53, 0.8750000000, 0.6250000000
54, 1.0000000000, 0.6250000000
55, 0.0000000000, 0.7500000000
56, 0.1250000000, 0.7500000000
57, 0.2500000000, 0.7500000000
58, 0.3750000000, 0.7500000000
59, 0.5000000000, 0.7500000000
60, 0.6250000000, 0.7500000000
61, 0.7500000000, 0.7500000000
62, 0.8750000000, 0.7500000000
63, 1.0000000000, 0.7500000000
64, 0.0000000000, 0.8750000000
65, 0.1250000000, 0.8750000000
66, 0.2500000000, 0.8750000000
67, 0.3750000000, 0.8750000000
68, 0.5000000000, 0.8750000000
69, 0.6250000000, 0.8750000000
70, 0.7500000000, 0.8750000000
71, 0.8750000000, 0.8750000000
72, 1.0000000000, 0.8750000000
73, 0.0000000000, 1.0000000000
74, 0.1250000000, 1.0000000000
75, 0.2500000000, 1.0000000000
76, 0.3750000000, 1.0000000000
77, 0.5000000000, 1.0000000000
78, 0.6250000000, 1.0000000000
79, 0.7500000000, 1.0000000000
80, 0.8750000000, 1.0000000000
81, 1.0000000000, 1.0000000000
82, 0.0000000000, 0.5000000000
83, 0.1250000000, 0.5000000000
84, 0.2500000000, 0.5000000000
85, 0.3750000000, 0.5000000000
999999, 0.5000000000, 1.0000000000
** ==========================================================
** LAYER 1: Phase-Field User Elements (1..64)
** ==========================================================
*Element, type=U1, elset=PHASE_QUADS
1, 1, 2, 11, 10
2, 2, 3, 12, 11
3, 3, 4, 13, 12
4, 4, 5, 14, 13
5, 5, 6, 15, 14
6, 6, 7, 16, 15
7, 7, 8, 17, 16
8, 8, 9, 18, 17
9, 10, 11, 20, 19
10, 11, 12, 21, 20
11, 12, 13, 22, 21
12, 13, 14, 23, 22
13, 14, 15, 24, 23
14, 15, 16, 25, 24
15, 16, 17, 26, 25
16, 17, 18, 27, 26
17, 19, 20, 29, 28
18, 20, 21, 30, 29
19, 21, 22, 31, 30
20, 22, 23, 32, 31
21, 23, 24, 33, 32
22, 24, 25, 34, 33
23, 25, 26, 35, 34
24, 26, 27, 36, 35
25, 28, 29, 38, 37
26, 29, 30, 39, 38
27, 30, 31, 40, 39
28, 31, 32, 41, 40
29, 32, 33, 42, 41
30, 33, 34, 43, 42
31, 34, 35, 44, 43
32, 35, 36, 45, 44
33, 82, 83, 47, 46
34, 83, 84, 48, 47
35, 84, 85, 49, 48
36, 85, 41, 50, 49
37, 41, 42, 51, 50
38, 42, 43, 52, 51
39, 43, 44, 53, 52
40, 44, 45, 54, 53
41, 46, 47, 56, 55
42, 47, 48, 57, 56
43, 48, 49, 58, 57
44, 49, 50, 59, 58
45, 50, 51, 60, 59
46, 51, 52, 61, 60
47, 52, 53, 62, 61
48, 53, 54, 63, 62
49, 55, 56, 65, 64
50, 56, 57, 66, 65
51, 57, 58, 67, 66
52, 58, 59, 68, 67
53, 59, 60, 69, 68
54, 60, 61, 70, 69
55, 61, 62, 71, 70
56, 62, 63, 72, 71
57, 64, 65, 74, 73
58, 65, 66, 75, 74
59, 66, 67, 76, 75
60, 67, 68, 77, 76
61, 68, 69, 78, 77
62, 69, 70, 79, 78
63, 70, 71, 80, 79
64, 71, 72, 81, 80
** ==========================================================
** LAYER 2: Mechanical User Elements (65..128)
** ==========================================================
*Element, type=U2, elset=MECH_QUADS
65, 1, 2, 11, 10
66, 2, 3, 12, 11
67, 3, 4, 13, 12
68, 4, 5, 14, 13
69, 5, 6, 15, 14
70, 6, 7, 16, 15
71, 7, 8, 17, 16
72, 8, 9, 18, 17
73, 10, 11, 20, 19
74, 11, 12, 21, 20
75, 12, 13, 22, 21
76, 13, 14, 23, 22
77, 14, 15, 24, 23
78, 15, 16, 25, 24
79, 16, 17, 26, 25
80, 17, 18, 27, 26
81, 19, 20, 29, 28
82, 20, 21, 30, 29
83, 21, 22, 31, 30
84, 22, 23, 32, 31
85, 23, 24, 33, 32
86, 24, 25, 34, 33
87, 25, 26, 35, 34
88, 26, 27, 36, 35
89, 28, 29, 38, 37
90, 29, 30, 39, 38
91, 30, 31, 40, 39
92, 31, 32, 41, 40
93, 32, 33, 42, 41
94, 33, 34, 43, 42
95, 34, 35, 44, 43
96, 35, 36, 45, 44
97, 82, 83, 47, 46
98, 83, 84, 48, 47
99, 84, 85, 49, 48
100, 85, 41, 50, 49
101, 41, 42, 51, 50
102, 42, 43, 52, 51
103, 43, 44, 53, 52
104, 44, 45, 54, 53
105, 46, 47, 56, 55
106, 47, 48, 57, 56
107, 48, 49, 58, 57
108, 49, 50, 59, 58
109, 50, 51, 60, 59
110, 51, 52, 61, 60
111, 52, 53, 62, 61
112, 53, 54, 63, 62
113, 55, 56, 65, 64
114, 56, 57, 66, 65
115, 57, 58, 67, 66
116, 58, 59, 68, 67
117, 59, 60, 69, 68
118, 60, 61, 70, 69
119, 61, 62, 71, 70
120, 62, 63, 72, 71
121, 64, 65, 74, 73
122, 65, 66, 75, 74
123, 66, 67, 76, 75
124, 67, 68, 77, 76
125, 68, 69, 78, 77
126, 69, 70, 79, 78
127, 70, 71, 80, 79
128, 71, 72, 81, 80
** ==========================================================
** LAYER 3: Visualization CPE4 Elements (129..192)
** ==========================================================
*Element, type=CPE4, elset=VIS_QUADS
129, 1, 2, 11, 10
130, 2, 3, 12, 11
131, 3, 4, 13, 12
132, 4, 5, 14, 13
133, 5, 6, 15, 14
134, 6, 7, 16, 15
135, 7, 8, 17, 16
136, 8, 9, 18, 17
137, 10, 11, 20, 19
138, 11, 12, 21, 20
139, 12, 13, 22, 21
140, 13, 14, 23, 22
141, 14, 15, 24, 23
142, 15, 16, 25, 24
143, 16, 17, 26, 25
144, 17, 18, 27, 26
145, 19, 20, 29, 28
146, 20, 21, 30, 29
147, 21, 22, 31, 30
148, 22, 23, 32, 31
149, 23, 24, 33, 32
150, 24, 25, 34, 33
151, 25, 26, 35, 34
152, 26, 27, 36, 35
153, 28, 29, 38, 37
154, 29, 30, 39, 38
155, 30, 31, 40, 39
156, 31, 32, 41, 40
157, 32, 33, 42, 41
158, 33, 34, 43, 42
159, 34, 35, 44, 43
160, 35, 36, 45, 44
161, 82, 83, 47, 46
162, 83, 84, 48, 47
163, 84, 85, 49, 48
164, 85, 41, 50, 49
165, 41, 42, 51, 50
166, 42, 43, 52, 51
167, 43, 44, 53, 52
168, 44, 45, 54, 53
169, 46, 47, 56, 55
170, 47, 48, 57, 56
171, 48, 49, 58, 57
172, 49, 50, 59, 58
173, 50, 51, 60, 59
174, 51, 52, 61, 60
175, 52, 53, 62, 61
176, 53, 54, 63, 62
177, 55, 56, 65, 64
178, 56, 57, 66, 65
179, 57, 58, 67, 66
180, 58, 59, 68, 67
181, 59, 60, 69, 68
182, 60, 61, 70, 69
183, 61, 62, 71, 70
184, 62, 63, 72, 71
185, 64, 65, 74, 73
186, 65, 66, 75, 74
187, 66, 67, 76, 75
188, 67, 68, 77, 76
189, 68, 69, 78, 77
190, 69, 70, 79, 78
191, 70, 71, 80, 79
192, 71, 72, 81, 80
*Elset, elset=umatelem
VIS_QUADS
*Nset, nset=N_BOTTOM
1, 2, 3, 4, 5, 6, 7, 8, 9
*Nset, nset=N_TOP
73, 74, 75, 76, 77, 78, 79, 80, 81
*Nset, nset=N_PIN
1
*Nset, nset=N_RP
999999
*UEL PROPERTY, ELSET=PHASE_QUADS
0.0075, 0.0027, 210.0, 0.3, 1.0e-7, 64.
*UEL PROPERTY, ELSET=MECH_QUADS
0.0075, 0.0027, 210.0, 0.3, 1.0e-7, 64.
*Solid Section, elset=VIS_QUADS, material=DUMMY_MAT
1.0
*Material, name=DUMMY_MAT
*User Material, constants=3
210.0, 0.3, 64.
*Depvar
18
** Coupling Equations for Rigid Pull
*Equation
2
73, 2, 1.0, 999999, 2, -1.0
*Equation
2
74, 2, 1.0, 999999, 2, -1.0
*Equation
2
75, 2, 1.0, 999999, 2, -1.0
*Equation
2
76, 2, 1.0, 999999, 2, -1.0
*Equation
2
77, 2, 1.0, 999999, 2, -1.0
*Equation
2
78, 2, 1.0, 999999, 2, -1.0
*Equation
2
79, 2, 1.0, 999999, 2, -1.0
*Equation
2
80, 2, 1.0, 999999, 2, -1.0
*Equation
2
81, 2, 1.0, 999999, 2, -1.0
** ==========================================================
** STEP 1: Monotonic Tensile Loading to u = 0.0010 mm (5 incs)
** ==========================================================
*Step, name=Step-1, nlgeom=NO, inc=100
*Static
0.2, 1.0, 1.0E-5, 0.2
*Boundary
N_BOTTOM, 2, 2, 0.0
N_PIN, 1, 1, 0.0
N_TOP, 1, 1, 0.0
N_RP, 2, 2, 0.0010
*Restart, write, frequency=0
*Output, field, frequency=1
*Node Output, nset=N_RP
U, RF
*Node Output
U, RF
*Element Output, elset=umatelem
SDV, S, E
*Node Print, freq=1, nset=N_RP
U2, RF2
*End Step
