*HEADING
M2STATE_INGEST_SMOKE1: Minimal Solver Ingestion Qualification Fixture
*NODE
1, 0.0, 0.0
2, 1.0, 0.0
3, 1.0, 1.0
4, 0.0, 1.0
5, 0.5, 0.0
6, 1.0, 0.5
7, 0.5, 1.0
8, 0.0, 0.5
*USER ELEMENT, TYPE=U1, NODES=4, PROPERTIES=3, COORDINATES=2, VARIABLES=18
3
*USER ELEMENT, TYPE=U2, NODES=4, PROPERTIES=5, COORDINATES=2, VARIABLES=18
1, 2
*USER ELEMENT, TYPE=U3, NODES=3, PROPERTIES=3, COORDINATES=2, VARIABLES=18
3
*USER ELEMENT, TYPE=U4, NODES=3, PROPERTIES=5, COORDINATES=2, VARIABLES=18
1, 2
*ELEMENT, TYPE=U1, ELSET=E_QUAD_UEL
1, 1, 2, 3, 4
2, 1, 2, 3, 4
*ELEMENT, TYPE=U3, ELSET=E_TRI_UEL
5, 1, 2, 3
6, 1, 2, 3
*ELEMENT, TYPE=U2, ELSET=E_QUAD_STATED_UEL
9, 1, 2, 3, 4
10, 1, 2, 3, 4
*ELEMENT, TYPE=U4, ELSET=E_TRI_STATED_UEL
13, 1, 2, 3
14, 1, 2, 3
*ELEMENT, TYPE=CPE4, ELSET=E_QUAD_UMAT
3, 1, 2, 3, 4
4, 1, 2, 3, 4
11, 1, 2, 3, 4
12, 1, 2, 3, 4
*ELEMENT, TYPE=CPE3, ELSET=E_TRI_UMAT
7, 1, 2, 3
8, 1, 2, 3
15, 1, 2, 3
16, 1, 2, 3
*ELSET, ELSET=E_U1
1, 2
*ELSET, ELSET=E_U2
9, 10
*ELSET, ELSET=E_U3
5, 6
*ELSET, ELSET=E_U4
13, 14
*ELSET, ELSET=E_ALL_UEL
1, 2, 5, 6, 9, 10, 13, 14
*UEL PROPERTY, ELSET=E_U1
210000.0, 0.3, 0.015
*UEL PROPERTY, ELSET=E_U2
210000.0, 0.3, 0.015, 2.7, 1.0e-7
*UEL PROPERTY, ELSET=E_U3
210000.0, 0.3, 0.015
*UEL PROPERTY, ELSET=E_U4
210000.0, 0.3, 0.015, 2.7, 1.0e-7
*SOLID SECTION, ELSET=E_QUAD_UMAT, MATERIAL=MAT_DUMMY
*SOLID SECTION, ELSET=E_TRI_UMAT, MATERIAL=MAT_DUMMY
*MATERIAL, NAME=MAT_DUMMY
*ELASTIC
210000.0, 0.3
*INITIAL CONDITIONS, TYPE=SOLUTION
1, 0.000110, 0.000120, 0.000130, 0.000140
2, 0.000210, 0.000220, 0.000230, 0.000240
5, 0.000110, 0.000120, 0.000130, 0.000140
6, 0.000210, 0.000220, 0.000230, 0.000240
9, 0.000310, 0.000320, 0.000330, 0.000000
10, 0.000410, 0.000420, 0.000430, 0.000000
13, 0.000310, 0.000320, 0.000330, 0.000000
14, 0.000410, 0.000420, 0.000430, 0.000000
*STEP, NAME=Step-1-PhaseInit, NLGEOM=NO
*STATIC
1.0, 1.0, 1.0e-5, 1.0
*BOUNDARY
1, 3, 3, 0.75
2, 3, 3, 0.75
3, 3, 3, 0.75
4, 3, 3, 0.75
5, 3, 3, 0.75
6, 3, 3, 0.75
7, 3, 3, 0.75
8, 3, 3, 0.75
*END STEP
*STEP, NAME=Step-2-IngestProbe, NLGEOM=NO
*STATIC
1.0, 1.0, 1.0e-5, 1.0
*BOUNDARY, OP=NEW
1, 1, 2, 0.0
4, 1, 2, 0.0
2, 2, 2, 0.0
3, 2, 2, 0.0
2, 1, 1, 0.001
3, 1, 1, 0.001
*NODE FILE
U
*EL FILE
SDV
*END STEP
