*HEADING
PK_M1_STAGE14_STEP2_ET2_6K_FRACTURE - 3-Layer UEL Fracture Solve
** Finite Elements: 6112 (5929 quads, 183 tris), Nodes: 6181
** Parameters: E=210 GPa, nu=0.3, l0=0.0075 mm, Gc=0.0027 kN/mm, eta=1e-7
** ----------------------------------------------------------
*USER ELEMENT, TYPE=U1, NODES=4, COORDINATES=2, PROPERTIES=6, VARIABLES=18, UNSYMM
3
*USER ELEMENT, TYPE=U2, NODES=4, COORDINATES=2, PROPERTIES=6, VARIABLES=18, UNSYMM
1, 2
*USER ELEMENT, TYPE=U3, NODES=3, COORDINATES=2, PROPERTIES=6, VARIABLES=18, UNSYMM
3
*USER ELEMENT, TYPE=U4, NODES=3, COORDINATES=2, PROPERTIES=6, VARIABLES=18, UNSYMM
1, 2
*NODE
1, 0.9604716300, 0.0000000000
2, 0.9209131000, 0.0000000000
3, 0.8813685180, 0.0000000000
4, 0.8421180840, 0.0000000000
5, 0.7832753660, 0.0000000000
6, 0.7437281610, 0.0000000000
7, 0.7041741610, 0.0000000000
8, 0.6649261710, 0.0000000000
9, 0.6257364750, 0.0000000000
10, 0.5862374310, 0.0000000000
11, 0.5466868880, 0.0000000000
12, 0.5071263310, 0.0000000000
13, 0.4675812130, 0.0000000000
14, 0.4085768460, 0.0000000000
15, 0.3699188230, 0.0000000000
16, 0.3310842510, 0.0000000000
17, 0.2916529770, 0.0000000000
18, 0.2520924810, 0.0000000000
19, 0.2125350830, 0.0000000000
20, 0.1732450130, 0.0000000000
21, 0.1161731480, 0.0000000000
22, 0.0782241225, 0.0000000000
23, 0.0394495130, 0.0000000000
24, 1.0000000000, 0.0000000000
25, 0.0000000000, 0.0000000000
26, 1.0000000000, 0.9605610370
27, 1.0000000000, 0.9210786220
28, 1.0000000000, 0.8819121120
29, 1.0000000000, 0.8241950270
30, 1.0000000000, 0.7857048510
31, 1.0000000000, 0.7465978860
32, 1.0000000000, 0.7071616050
33, 1.0000000000, 0.6677220460
34, 1.0000000000, 0.6282930370
35, 1.0000000000, 0.5800704960
36, 1.0000000000, 0.5426883700
37, 1.0000000000, 0.5012551550
38, 1.0000000000, 0.4607601760
39, 1.0000000000, 0.4239937070
40, 1.0000000000, 0.3845903280
41, 1.0000000000, 0.3268785480
42, 1.0000000000, 0.2886712550
43, 1.0000000000, 0.2497526410
44, 1.0000000000, 0.2102776170
45, 1.0000000000, 0.1707848910
46, 1.0000000000, 0.1317529680
47, 1.0000000000, 0.0757579803
48, 1.0000000000, 0.0384709239
49, 1.0000000000, 1.0000000000
50, 0.0399597734, 1.0000000000
51, 0.0799582377, 1.0000000000
52, 0.1197055280, 1.0000000000
53, 0.1585501430, 1.0000000000
54, 0.2169005570, 1.0000000000
55, 0.2567157150, 1.0000000000
56, 0.2966921030, 1.0000000000
57, 0.3366741840, 1.0000000000
58, 0.3766543870, 1.0000000000
59, 0.4157571490, 1.0000000000
60, 0.4529316130, 1.0000000000
61, 0.5093755130, 1.0000000000
62, 0.5491167900, 1.0000000000
63, 0.5891067390, 1.0000000000
64, 0.6285761590, 1.0000000000
65, 0.6668527720, 1.0000000000
66, 0.7048736810, 1.0000000000
67, 0.7437164190, 1.0000000000
68, 0.7836079600, 1.0000000000
69, 0.8236122130, 1.0000000000
70, 0.8835373520, 1.0000000000
71, 0.9225852490, 1.0000000000
72, 0.9609189630, 1.0000000000
73, 0.0000000000, 1.0000000000
74, 0.0000000000, 0.5403067470
75, 0.0000000000, 0.5806134340
76, 0.0000000000, 0.6209201810
77, 0.0000000000, 0.6612268690
78, 0.0000000000, 0.7015336160
79, 0.0000000000, 0.7418403630
80, 0.0000000000, 0.7821470500
81, 0.0000000000, 0.8426071410
82, 0.0000000000, 0.8828169110
83, 0.0000000000, 0.9220191840
84, 0.0000000000, 0.9606033560
85, 0.0000000000, 0.5000000000
86, 0.4580538870, 0.5000000000
87, 0.4186019300, 0.5000000000
88, 0.3758404550, 0.5000000000
89, 0.3379517500, 0.5000000000
90, 0.2984269260, 0.5000000000
91, 0.2585207220, 0.5000000000
92, 0.1987793450, 0.5000000000
93, 0.1592645650, 0.5000000000
94, 0.1197033820, 0.5000000000
95, 0.0798361301, 0.5000000000
96, 0.0399182737, 0.5000000000
97, 0.5000000000, 0.5000000000
98, 0.0000000000, 0.0403786004
99, 0.0000000000, 0.0807572007
100, 0.0000000000, 0.1210836620
101, 0.0000000000, 0.1610288920
102, 0.0000000000, 0.2010387030
103, 0.0000000000, 0.2413899900
104, 0.0000000000, 0.2817685900
105, 0.0000000000, 0.3418717980
106, 0.0000000000, 0.3806039090
107, 0.0000000000, 0.4195191560
108, 0.0000000000, 0.4596214000
109, 0.9626062510, 0.0383858606
110, 0.9208191040, 0.0431896560
111, 0.8783286810, 0.0489988178
112, 0.8433253170, 0.0346349925
113, 0.7853333350, 0.0413491577
114, 0.7444579010, 0.0390748717
115, 0.7059341670, 0.0375925153
116, 0.6687306760, 0.0384082682
117, 0.6269320250, 0.0506164953
118, 0.5831587310, 0.0438773111
119, 0.5446875100, 0.0372614078
120, 0.4467054310, 0.0361940004
121, 0.4116574820, 0.0446493588
122, 0.3793624340, 0.0554917827
123, 0.3304383750, 0.0490397736
124, 0.2870089110, 0.0383481383
125, 0.2491783200, 0.0327681191
126, 0.2122426480, 0.0299487300
127, 0.1611219050, 0.0453017801
128, 0.1293089540, 0.0499848910
129, 0.0951132998, 0.0568553954
130, 0.0400921069, 0.0411032476
131, 0.9540452360, 0.0927130952
132, 0.9222192760, 0.0856990218
133, 0.8696985240, 0.0830296576
134, 0.8324791190, 0.0719023198
135, 0.7889439460, 0.0971180573
136, 0.7424864770, 0.0766087174
137, 0.7051702140, 0.0781137049
138, 0.6724402310, 0.0709599629
139, 0.6262860300, 0.0998561904
140, 0.5798366670, 0.0901932567
141, 0.5394132140, 0.0708509237
142, 0.4994854930, 0.0897603482
143, 0.4624493420, 0.0930919722
144, 0.4109574850, 0.0765656903
145, 0.3647346200, 0.0944953486
146, 0.3195139470, 0.0971699730
147, 0.2831465300, 0.0957129821
148, 0.2538938820, 0.0847014636
149, 0.2104642840, 0.0602124669
150, 0.1660516710, 0.0751341805
151, 0.1206740070, 0.0780710801
152, 0.0910426974, 0.0848524794
153, 0.0559690446, 0.0843386203
154, 0.9515939350, 0.1233533770
155, 0.9092511530, 0.1322946550
156, 0.8779272440, 0.1190981050
157, 0.8282943370, 0.1307138060
158, 0.7884553070, 0.1212832180
159, 0.7476746440, 0.1223070320
160, 0.7061933280, 0.1308629210
161, 0.6695867780, 0.1250526010
162, 0.6331153510, 0.1249437030
163, 0.5795871620, 0.1284057800
164, 0.5271676180, 0.1209315290
165, 0.4933062490, 0.1337123070
166, 0.4496784210, 0.1296992000
167, 0.4173180760, 0.1226476360
168, 0.3699737190, 0.1179980190
169, 0.3334058520, 0.1327512710
170, 0.2894515990, 0.1377030760
171, 0.2557028230, 0.1203010600
172, 0.2130507230, 0.1242424850
173, 0.1737485380, 0.1266137660
174, 0.1389645340, 0.1229848790
175, 0.0794085190, 0.1195001530
176, 0.0385148562, 0.1230146210
177, 0.9561895130, 0.1650267990
178, 0.9206085210, 0.1722129730
179, 0.8783324960, 0.1633968200
180, 0.8353914620, 0.1603599640
181, 0.7456826570, 0.1689072400
182, 0.7013245220, 0.1693518160
183, 0.6663580540, 0.1662627010
184, 0.6323919890, 0.1681643130
185, 0.5824733380, 0.1679368470
186, 0.5406240820, 0.1734249140
187, 0.4962244030, 0.1722166540
188, 0.4529808160, 0.1809290050
189, 0.4093165990, 0.1577749700
190, 0.3803285060, 0.1746395230
191, 0.3247452680, 0.1698666510
192, 0.2883675990, 0.1693017480
193, 0.2534863650, 0.1560972630
194, 0.2100396010, 0.1781507130
195, 0.1510926040, 0.1656811240
196, 0.1202282760, 0.1694518030
197, 0.0761871487, 0.1670962870
198, 0.0425653085, 0.1664769950
199, 0.9576687220, 0.2072850760
200, 0.9022951720, 0.1977302280
201, 0.8677380080, 0.2014516000
202, 0.8371629120, 0.2012934240
203, 0.8052199480, 0.2166193870
204, 0.7477788930, 0.2064914110
205, 0.7153616550, 0.2032720600
206, 0.6644262670, 0.2062678340
207, 0.6158090830, 0.2046974000
208, 0.5805447100, 0.2159488200
209, 0.5455363990, 0.2077888250
210, 0.5071208480, 0.2082453220
211, 0.4590325950, 0.2062078420
212, 0.4210086460, 0.2084494830
213, 0.3726641240, 0.2097999750
214, 0.3286331590, 0.2143447850
215, 0.2928647100, 0.2043034580
216, 0.2474927010, 0.2007367160
217, 0.2031591090, 0.2098823490
218, 0.1656173320, 0.2071274970
219, 0.1296748970, 0.2132381350
220, 0.0916764885, 0.2106369730
221, 0.0365502536, 0.2065019610
222, 0.9505637880, 0.2495230730
223, 0.9084351060, 0.2610047160
224, 0.8839872480, 0.2461510600
225, 0.8434929250, 0.2407194670
226, 0.7923312190, 0.2554089730
227, 0.7480345960, 0.2515471280
228, 0.7104421850, 0.2376873200
229, 0.6619012950, 0.2425280660
230, 0.6275621650, 0.2403388170
231, 0.5814293030, 0.2513512970
232, 0.5324689150, 0.2423351850
233, 0.4896245000, 0.2492400850
234, 0.4496469200, 0.2614868280
235, 0.4214344020, 0.2544675470
236, 0.3728482130, 0.2328127470
237, 0.3270392720, 0.2406012420
238, 0.2785198390, 0.2417763020
239, 0.2479089950, 0.2489342090
240, 0.1990532280, 0.2346221660
241, 0.1566503790, 0.2482556250
242, 0.1127325590, 0.2454289500
243, 0.0747665241, 0.2457820030
244, 0.0370926410, 0.2446465340
245, 0.9612880350, 0.2921786310
246, 0.9196340440, 0.2914007310
247, 0.8880491260, 0.2957021000
248, 0.8338536620, 0.2906792460
249, 0.7960702780, 0.2921168510
250, 0.7512719040, 0.2920189800
251, 0.7015938160, 0.2981141210
252, 0.6596315500, 0.2908460200
253, 0.6230498550, 0.2891009450
254, 0.5822800400, 0.2816749220
255, 0.5370262860, 0.2930802110
256, 0.5002830620, 0.2960971000
257, 0.4625801150, 0.2947460110
258, 0.4035628740, 0.2856837510
259, 0.3644827900, 0.2810010310
260, 0.3316819670, 0.2979874010
261, 0.2937468590, 0.2986401320
262, 0.2442971020, 0.3004091680
263, 0.1991990060, 0.2872690560
264, 0.1605267080, 0.2819468380
265, 0.1304600690, 0.2916529180
266, 0.0800274238, 0.2846602800
267, 0.0384619348, 0.2838347260
268, 0.9598932270, 0.3393648560
269, 0.9121107460, 0.3441667560
270, 0.8718440530, 0.3314764200
271, 0.8353229170, 0.3326976600
272, 0.7835196850, 0.3368278440
273, 0.7478096490, 0.3380245270
274, 0.7167693380, 0.3146190050
275, 0.6608618500, 0.3383863870
276, 0.6238567230, 0.3318132460
277, 0.5875548720, 0.3357721570
278, 0.5421205160, 0.3258238730
279, 0.5048412080, 0.3384386600
280, 0.4580548110, 0.3305974900
281, 0.4196113940, 0.3345656100
282, 0.3666715030, 0.3337026240
283, 0.3310511410, 0.3358166810
284, 0.2910607460, 0.3389440770
285, 0.2518529890, 0.3317164180
286, 0.2122563870, 0.3390459720
287, 0.1551813630, 0.3252072330
288, 0.1100993530, 0.3365212980
289, 0.0769944191, 0.3398718540
290, 0.0384250134, 0.3237896860
291, 0.9578067660, 0.3679460290
292, 0.9101322890, 0.3686872720
293, 0.8363070490, 0.3663883510
294, 0.7884390950, 0.3771418630
295, 0.7404442430, 0.3735870420
296, 0.7014133330, 0.3731385770
297, 0.6621621250, 0.3738654550
298, 0.6272712950, 0.3655475680
299, 0.5898057220, 0.3717090490
300, 0.5497627850, 0.3698815410
301, 0.4991691410, 0.3681426350
302, 0.4580101970, 0.3734917640
303, 0.4304434660, 0.3731336300
304, 0.3696047660, 0.3664810060
305, 0.3306187090, 0.3832779530
306, 0.2923749690, 0.3821373580
307, 0.2590007780, 0.3625112180
308, 0.2082004400, 0.3895332810
309, 0.1609893440, 0.3756103810
310, 0.1133387090, 0.3806106450
311, 0.0829528347, 0.3784992100
312, 0.9665616750, 0.4244213100
313, 0.9085509780, 0.4206873180
314, 0.8685086370, 0.4155555960
315, 0.8333444600, 0.4252521100
316, 0.7872904540, 0.4119501410
317, 0.7450344560, 0.4082515540
318, 0.7102175350, 0.4091908630
319, 0.6632204060, 0.4137446280
320, 0.6267808680, 0.4098776580
321, 0.5954694750, 0.4133577050
322, 0.5426254270, 0.4046690460
323, 0.4910634760, 0.4127306940
324, 0.4592982830, 0.4177272320
325, 0.4268402160, 0.4251422580
326, 0.3776757120, 0.4158601160
327, 0.3363426630, 0.4065914750
328, 0.2932958600, 0.4326921700
329, 0.2511381210, 0.4280460180
330, 0.2110677810, 0.4231222870
331, 0.1619815830, 0.4259056150
332, 0.1305802610, 0.4110306800
333, 0.0776287168, 0.4176627700
334, 0.0384317786, 0.4196322860
335, 0.9590998890, 0.4560894670
336, 0.9185514450, 0.4522698220
337, 0.8692934510, 0.4556385580
338, 0.8394733670, 0.4579509500
339, 0.7998259070, 0.4604969020
340, 0.7547559140, 0.4512865540
341, 0.7107988000, 0.4571895000
342, 0.6683324580, 0.4545555110
343, 0.6261978150, 0.4555321040
344, 0.5830582980, 0.4542321560
345, 0.5418175460, 0.4529562590
346, 0.5006919500, 0.4545407590
347, 0.4616260830, 0.4579472240
348, 0.4332619610, 0.4623982010
349, 0.3789641560, 0.4569773670
350, 0.3353675010, 0.4523682890
351, 0.2951074540, 0.4632701580
352, 0.2580614690, 0.4625053410
353, 0.2194442450, 0.4619659780
354, 0.1607016030, 0.4613152740
355, 0.1203062530, 0.4584785700
356, 0.0795522332, 0.4588176010
357, 0.0395821072, 0.4595221580
358, 0.9598024490, 0.5420429110
359, 0.9154809120, 0.5435360070
360, 0.8760614990, 0.5420676470
361, 0.8308604360, 0.5394506450
362, 0.7911427620, 0.5441341400
363, 0.7486448880, 0.5392271880
364, 0.7090939280, 0.5448853370
365, 0.6653742790, 0.5427173970
366, 0.6268761160, 0.5427984600
367, 0.5843530890, 0.5440774560
368, 0.5429405570, 0.5492547750
369, 0.4965057370, 0.5495496990
370, 0.4580792490, 0.5503831510
371, 0.4191738670, 0.5477062460
372, 0.3758076430, 0.5467546580
373, 0.3376018400, 0.5364148620
374, 0.2991046610, 0.5355858210
375, 0.2616789640, 0.5542314050
376, 0.2199663670, 0.5407238600
377, 0.1581930070, 0.5383876560
378, 0.1186836810, 0.5372331140
379, 0.0795041546, 0.5382412080
380, 0.0400925018, 0.5395743250
381, 0.9600806240, 0.5776642560
382, 0.8781784770, 0.5867362620
383, 0.8412482740, 0.5954368110
384, 0.7975736860, 0.5930596590
385, 0.7495583300, 0.5864441990
386, 0.7187426690, 0.5877761840
387, 0.6618608240, 0.5923406480
388, 0.6215234400, 0.5877301100
389, 0.5785424110, 0.5900295380
390, 0.4956759210, 0.5973334910
391, 0.4492384490, 0.5846830010
392, 0.4209164080, 0.5787235500
393, 0.3747745160, 0.6000233290
394, 0.3306992950, 0.5796689390
395, 0.2957709130, 0.5817976000
396, 0.2518928350, 0.5920266510
397, 0.2118881050, 0.5879918930
398, 0.1535975340, 0.5711161490
399, 0.1190528870, 0.5735554700
400, 0.0805810988, 0.5761760470
401, 0.0416569412, 0.5799547430
402, 0.9688996080, 0.6118359570
403, 0.9103364350, 0.6332999470
404, 0.8649492860, 0.6340366600
405, 0.8321008680, 0.6208495500
406, 0.7994820480, 0.6342819330
407, 0.7092239260, 0.6303606030
408, 0.6616473200, 0.6233714820
409, 0.6246247290, 0.6274136900
410, 0.5801894660, 0.6340814230
411, 0.5382888910, 0.6285021900
412, 0.4949665670, 0.6261433960
413, 0.4499399070, 0.6226022240
414, 0.4080811140, 0.6229825020
415, 0.3865172860, 0.6270780560
416, 0.3253023330, 0.6191096900
417, 0.2890917660, 0.6222029330
418, 0.2427985670, 0.6312464480
419, 0.1944889430, 0.6278111930
420, 0.1229412110, 0.6192647810
421, 0.0998804122, 0.6220670940
422, 0.0445223004, 0.6224125030
423, 0.9626057150, 0.6468643550
424, 0.9177793260, 0.6552081700
425, 0.8780934810, 0.6621503830
426, 0.8293170330, 0.6622303130
427, 0.7951896790, 0.6782075170
428, 0.7528542880, 0.6653198600
429, 0.7096626160, 0.6643171910
430, 0.6496704220, 0.6739583610
431, 0.6235773560, 0.6758411530
432, 0.5807302590, 0.6678376790
433, 0.5348175760, 0.6782270670
434, 0.5003011230, 0.6584426160
435, 0.4694436490, 0.6702181100
436, 0.4135285020, 0.6706338520
437, 0.3830806020, 0.6886239650
438, 0.3245528940, 0.6655884390
439, 0.2972788510, 0.6482633350
440, 0.2467856410, 0.6764240860
441, 0.2098093630, 0.6690903310
442, 0.1534173340, 0.6526651380
443, 0.1377438310, 0.6629823450
444, 0.1026385720, 0.6577652690
445, 0.0414343141, 0.6642249230
446, 0.9519987110, 0.6881690030
447, 0.9139094350, 0.7101657990
448, 0.8738626840, 0.7147526740
449, 0.8385193940, 0.7089042660
450, 0.7824106220, 0.7139270900
451, 0.7486084700, 0.7260332700
452, 0.6990702150, 0.7185239200
453, 0.6638468500, 0.7048358920
454, 0.6211117510, 0.7106460330
455, 0.5739154220, 0.7001055480
456, 0.5398772950, 0.7153751850
457, 0.4865985810, 0.7116515040
458, 0.4407401980, 0.7026269440
459, 0.3791703280, 0.7270135280
460, 0.3359411660, 0.7154032590
461, 0.2968441550, 0.7083570960
462, 0.2467064110, 0.6945768590
463, 0.1998470130, 0.7192111610
464, 0.1533091660, 0.7118759160
465, 0.1171422230, 0.6934262510
466, 0.0780218616, 0.7075502280
467, 0.0393076949, 0.7042654750
468, 0.9604380130, 0.7301153540
469, 0.9225432280, 0.7442418930
470, 0.8836019040, 0.7496883270
471, 0.8524485230, 0.7530320290
472, 0.7950966360, 0.7501869200
473, 0.7570154670, 0.7655102010
474, 0.7049722080, 0.7570592760
475, 0.6598346230, 0.7423883080
476, 0.6221333740, 0.7506107090
477, 0.5913909670, 0.7464796300
478, 0.5427978040, 0.7588099240
479, 0.4879648090, 0.7489253280
480, 0.4587569530, 0.7515199780
481, 0.4188873170, 0.7402194740
482, 0.3672167060, 0.7534326310
483, 0.2931695280, 0.7575201390
484, 0.2473365960, 0.7518591880
485, 0.1955656260, 0.7448892590
486, 0.1542298640, 0.7455188040
487, 0.1163829040, 0.7454808950
488, 0.0776159391, 0.7451742890
489, 0.0387565903, 0.7437700630
490, 0.9473339320, 0.7879621980
491, 0.9118424060, 0.7883183360
492, 0.8710111380, 0.7844908830
493, 0.7904111150, 0.7993322610
494, 0.7480793000, 0.7995483280
495, 0.7126941080, 0.7980026010
496, 0.6581649180, 0.7904925350
497, 0.6238967780, 0.8032301660
498, 0.5838661790, 0.7917831540
499, 0.5506080990, 0.7924641370
500, 0.4971417780, 0.7959649560
501, 0.4614983200, 0.7894749640
502, 0.4290613530, 0.7940220240
503, 0.3754021230, 0.7928747530
504, 0.3242274220, 0.7850103380
505, 0.2899619940, 0.7995965480
506, 0.2464096700, 0.7938795090
507, 0.2055934970, 0.7891244890
508, 0.1713676750, 0.7953403000
509, 0.1201022340, 0.7977634670
510, 0.0790780261, 0.7842154500
511, 0.0382713340, 0.8030579090
512, 0.9654152390, 0.8234246970
513, 0.9297527070, 0.8226448890
514, 0.8776768450, 0.8388872150
515, 0.8335245850, 0.8278127310
516, 0.7929278610, 0.8365296720
517, 0.7524734740, 0.8332328200
518, 0.7004674670, 0.8336207270
519, 0.6692456600, 0.8291632530
520, 0.6176009180, 0.8370037670
521, 0.5722577570, 0.8406361340
522, 0.5453194380, 0.8335686330
523, 0.4971777800, 0.8399576540
524, 0.4623577590, 0.8471859690
525, 0.4209780400, 0.8323838110
526, 0.3694423140, 0.8294184210
527, 0.3344546260, 0.8411726950
528, 0.2843553130, 0.8449066280
529, 0.2443717420, 0.8354227540
530, 0.2080208360, 0.8303757310
531, 0.1262530090, 0.8353585600
532, 0.0903083161, 0.8332738880
533, 0.0364495218, 0.8422622680
534, 0.9439643620, 0.8925552370
535, 0.9137322900, 0.8860870000
536, 0.8799871210, 0.8719317320
537, 0.8390505310, 0.8584301470
538, 0.7837032080, 0.8809130190
539, 0.7451933030, 0.8875063060
540, 0.7073053120, 0.8800354600
541, 0.6689995530, 0.8727206590
542, 0.6210767630, 0.8690026400
543, 0.5746791960, 0.8753842120
544, 0.5405333040, 0.8815594910
545, 0.5000769500, 0.8768281340
546, 0.4778530900, 0.8714738490
547, 0.4195244310, 0.8725696800
548, 0.3805514280, 0.8735953570
549, 0.3279460970, 0.8844348190
550, 0.2854425910, 0.8849334720
551, 0.2525975700, 0.8714553710
552, 0.2007380870, 0.8667190070
553, 0.1666120590, 0.8803240060
554, 0.1163415160, 0.8846722250
555, 0.0815365240, 0.8752710820
556, 0.0375693403, 0.8821300860
557, 0.9559549090, 0.9199216370
558, 0.9212815170, 0.9255712030
559, 0.8807896380, 0.9313349130
560, 0.8349519370, 0.9222748280
561, 0.7838227750, 0.9242962000
562, 0.7481266860, 0.9264633060
563, 0.7158132790, 0.9114322660
564, 0.6755290630, 0.9166884420
565, 0.6249005200, 0.9116312860
566, 0.5843812230, 0.9181337360
567, 0.5470331310, 0.9232330920
568, 0.5095916990, 0.9106456640
569, 0.4660223720, 0.9062415960
570, 0.4245219830, 0.9185024500
571, 0.3877930940, 0.9137257930
572, 0.3349631730, 0.9204259510
573, 0.2994477450, 0.9220094080
574, 0.2460403000, 0.9126805660
575, 0.2124286890, 0.9223846200
576, 0.1698671430, 0.9047753810
577, 0.1278245900, 0.9158592820
578, 0.9611276980, 0.9621482490
579, 0.8839039210, 0.9628132580
580, 0.8225670460, 0.9416630270
581, 0.7843656540, 0.9627985360
582, 0.7465902570, 0.9636186360
583, 0.7126039860, 0.9450895190
584, 0.6691136360, 0.9543460610
585, 0.6266591550, 0.9578697090
586, 0.5878182050, 0.9599754810
587, 0.5493235590, 0.9624331000
588, 0.4937248530, 0.9474344250
589, 0.4574629960, 0.9465765950
590, 0.4184537230, 0.9610875840
591, 0.3768829700, 0.9541579480
592, 0.3349481230, 0.9609010220
593, 0.2967622580, 0.9603633880
594, 0.2567160130, 0.9577938320
595, 0.2169805020, 0.9608428480
596, 0.1783935280, 0.9447358850
597, 0.1251788290, 0.9470702410
598, 0.0817138404, 0.9569636580
599, 0.0390388072, 0.9606473450
600, 0.9802414770, 0.0000000000
601, 0.9406933780, 0.0000000000
602, 0.9011331800, 0.0000000000
603, 0.8616836670, 0.0000000000
604, 0.8225873710, 0.0000000000
605, 0.8029823300, 0.0000000000
606, 0.7635084390, 0.0000000000
607, 0.7239478830, 0.0000000000
608, 0.6844856740, 0.0000000000
609, 0.6453832390, 0.0000000000
610, 0.6059978010, 0.0000000000
611, 0.5664671660, 0.0000000000
612, 0.5269066100, 0.0000000000
613, 0.4873461130, 0.0000000000
614, 0.4478316900, 0.0000000000
615, 0.4281257990, 0.0000000000
616, 0.3892109990, 0.0000000000
617, 0.3505784270, 0.0000000000
618, 0.3114147190, 0.0000000000
619, 0.2718727590, 0.0000000000
620, 0.2323122620, 0.0000000000
621, 0.1928002830, 0.0000000000
622, 0.1540036200, 0.0000000000
623, 0.1350335480, 0.0000000000
624, 0.0972731113, 0.0000000000
625, 0.0589562058, 0.0000000000
626, 0.0197638869, 0.0000000000
627, 1.0000000000, 0.9802857640
628, 1.0000000000, 0.9408203960
629, 1.0000000000, 0.9014056920
630, 1.0000000000, 0.8626074190
631, 1.0000000000, 0.8433926110
632, 1.0000000000, 0.8049876690
633, 1.0000000000, 0.7662425640
634, 1.0000000000, 0.7268813850
635, 1.0000000000, 0.6874418260
636, 1.0000000000, 0.6480022670
637, 1.0000000000, 0.6091490980
638, 1.0000000000, 0.5927144290
639, 1.0000000000, 0.5692741270
640, 1.0000000000, 0.5604432820
641, 1.0000000000, 0.5543870930
642, 1.0000000000, 0.5497818590
643, 1.0000000000, 0.5459412930
644, 1.0000000000, 0.5398856400
645, 1.0000000000, 0.5374580620
646, 1.0000000000, 0.5353450780
647, 1.0000000000, 0.5333740710
648, 1.0000000000, 0.5314141510
649, 1.0000000000, 0.5294631720
650, 1.0000000000, 0.5275161270
651, 1.0000000000, 0.5255697970
652, 1.0000000000, 0.5236241820
653, 1.0000000000, 0.5216794010
654, 1.0000000000, 0.5197353360
655, 1.0000000000, 0.5177881720
656, 1.0000000000, 0.5158334970
657, 1.0000000000, 0.5138679740
658, 1.0000000000, 0.5118809940
659, 1.0000000000, 0.5098642110
660, 1.0000000000, 0.5078158380
661, 1.0000000000, 0.5057312250
662, 1.0000000000, 0.5036027430
663, 1.0000000000, 0.4978647830
664, 1.0000000000, 0.4920372370
665, 1.0000000000, 0.4832776780
666, 1.0000000000, 0.4730663900
667, 1.0000000000, 0.4437406660
668, 1.0000000000, 0.4042479990
669, 1.0000000000, 0.3651632670
670, 1.0000000000, 0.3459687830
671, 1.0000000000, 0.3078038690
672, 1.0000000000, 0.2693398000
673, 1.0000000000, 0.2300270200
674, 1.0000000000, 0.1905281540
675, 1.0000000000, 0.1511256100
676, 1.0000000000, 0.1128479240
677, 1.0000000000, 0.0942691565
678, 1.0000000000, 0.0572069287
679, 1.0000000000, 0.0193992257
680, 0.0199721828, 1.0000000000
681, 0.0599591695, 1.0000000000
682, 0.0999170840, 1.0000000000
683, 0.1392190310, 1.0000000000
684, 0.1778621520, 1.0000000000
685, 0.1972771290, 1.0000000000
686, 0.2367487250, 1.0000000000
687, 0.2767039240, 1.0000000000
688, 0.3166803120, 1.0000000000
689, 0.3566749990, 1.0000000000
690, 0.3964504900, 1.0000000000
691, 0.4344983700, 1.0000000000
692, 0.4713484050, 1.0000000000
693, 0.4900778530, 1.0000000000
694, 0.5291476850, 1.0000000000
695, 0.5691189170, 1.0000000000
696, 0.6089833970, 1.0000000000
697, 0.6478235130, 1.0000000000
698, 0.6858285670, 1.0000000000
699, 0.7241263390, 1.0000000000
700, 0.7636073830, 1.0000000000
701, 0.8036100860, 1.0000000000
702, 0.8436143990, 1.0000000000
703, 0.8636115190, 1.0000000000
704, 0.9032266740, 1.0000000000
705, 0.9417430160, 1.0000000000
706, 0.9802886250, 1.0000000000
707, 0.0000000000, 0.5201533440
708, 0.0000000000, 0.5604600910
709, 0.0000000000, 0.6007668380
710, 0.0000000000, 0.6410735250
711, 0.0000000000, 0.6813802720
712, 0.0000000000, 0.7216869590
713, 0.0000000000, 0.7619937060
714, 0.0000000000, 0.8023004530
715, 0.0000000000, 0.8224537970
716, 0.0000000000, 0.8627605440
717, 0.0000000000, 0.9025835390
718, 0.0000000000, 0.9412883520
719, 0.0000000000, 0.9801314470
720, 0.4979003670, 0.5000000000
721, 0.4958112540, 0.5000000000
722, 0.4937325720, 0.5000000000
723, 0.4916642900, 0.5000000000
724, 0.4896063800, 0.5000000000
725, 0.4875587220, 0.5000000000
726, 0.4855213170, 0.5000000000
727, 0.4834918380, 0.5000000000
728, 0.4814494250, 0.5000000000
729, 0.4793753920, 0.5000000000
730, 0.4772462250, 0.5000000000
731, 0.4750120640, 0.5000000000
732, 0.4726423030, 0.5000000000
733, 0.4701285960, 0.5000000000
734, 0.4674621820, 0.5000000000
735, 0.4646337630, 0.5000000000
736, 0.4615966680, 0.5000000000
737, 0.4535197320, 0.5000000000
738, 0.4474951920, 0.5000000000
739, 0.4394504130, 0.5000000000
740, 0.4294404390, 0.5000000000
741, 0.4066129620, 0.5000000000
742, 0.3923495110, 0.5000000000
743, 0.3573712110, 0.5000000000
744, 0.3182925580, 0.5000000000
745, 0.2784776390, 0.5000000000
746, 0.2385677990, 0.5000000000
747, 0.2186359170, 0.5000000000
748, 0.1790075600, 0.5000000000
749, 0.1395149230, 0.5000000000
750, 0.0997925997, 0.5000000000
751, 0.0598774254, 0.5000000000
752, 0.0199591517, 0.5000000000
753, 0.0000000000, 0.0201893002
754, 0.0000000000, 0.0605678968
755, 0.0000000000, 0.1009418670
756, 0.0000000000, 0.1411102710
757, 0.0000000000, 0.1809702960
758, 0.0000000000, 0.2212024330
759, 0.0000000000, 0.2615792750
760, 0.0000000000, 0.3019506630
761, 0.0000000000, 0.3220466380
762, 0.0000000000, 0.3613392410
763, 0.0000000000, 0.3999195400
764, 0.0000000000, 0.4394718710
765, 0.0000000000, 0.4798107150
766, 0.9972910280, 0.5196538570
767, 0.9972018000, 0.5216295720
768, 0.9972031710, 0.5235789420
769, 0.9972807770, 0.5255526900
770, 0.9973940850, 0.5275401470
771, 0.9973921180, 0.5176253910
772, 0.9974871280, 0.5295397040
773, 0.9974725840, 0.5156520610
774, 0.9975084660, 0.5315698980
775, 0.9976055030, 0.5137946610
776, 0.9974249600, 0.5336457490
777, 0.9976661800, 0.5119614600
778, 0.9972683790, 0.5101259350
779, 0.4856413300, 0.5021783710
780, 0.4854259190, 0.4978117350
781, 0.4875491560, 0.5020806790
782, 0.4874438350, 0.4977536200
783, 0.4837770460, 0.5025076270
784, 0.4834044580, 0.4978169800
785, 0.4894389510, 0.5024076100
786, 0.4894800480, 0.4976594750
787, 0.9964147210, 0.5081883070
788, 0.4914067980, 0.5027109980
789, 0.4915534560, 0.4975403250
790, 0.4934991600, 0.5024767520
791, 0.4936804470, 0.4974051710
792, 0.4817583260, 0.5029492970
793, 0.4813579920, 0.4977614580
794, 0.4952484970, 0.5026688580
795, 0.4958841200, 0.4972714190
796, 0.9943872690, 0.5059280990
797, 0.4970103800, 0.5033960340
798, 0.4982042910, 0.4971963470
799, 0.5006959440, 0.4973917900
800, 0.4989545940, 0.5043124560
801, 0.9972549680, 0.5357938410
802, 0.4796337780, 0.5033008460
803, 0.4792657790, 0.4976410270
804, 0.4773589970, 0.5035891530
805, 0.4770970340, 0.4974534510
806, 0.9945749040, 0.5028187040
807, 0.4749083820, 0.5038733480
808, 0.4748108390, 0.4971975680
809, 0.9970151190, 0.5381230120
810, 0.4723223750, 0.5042163130
811, 0.4723740520, 0.4968771040
812, 0.4695574940, 0.5045322180
813, 0.4697632490, 0.4964922370
814, 0.9966948630, 0.5407605770
815, 0.4665459990, 0.5047703980
816, 0.4669404920, 0.4960500900
817, 0.4632839260, 0.5048835870
818, 0.4638477270, 0.4955615100
819, 0.9962553380, 0.5438123940
820, 0.4599325660, 0.5047174100
821, 0.4603918790, 0.4950456020
822, 0.9956776500, 0.5473745470
823, 0.4563655260, 0.4944818020
824, 0.4571619330, 0.5039410000
825, 0.9949171540, 0.5516040330
826, 0.9934796090, 0.4950960870
827, 0.4525267180, 0.5075466040
828, 0.4514264760, 0.4937409460
829, 0.9939152000, 0.5567811730
830, 0.4453489480, 0.5084922910
831, 0.4451538920, 0.4926801030
832, 0.9923011060, 0.4887595180
833, 0.9926134940, 0.5634962920
834, 0.4370459910, 0.5093259220
835, 0.4372171460, 0.4912765920
836, 0.9907141920, 0.4800383450
837, 0.9909690020, 0.5724278090
838, 0.4272348580, 0.5103440280
839, 0.4279144410, 0.4896533490
840, 0.4175119400, 0.4879191820
841, 0.4162459370, 0.5115134120
842, 0.9945468310, 0.5194543600
843, 0.9941868190, 0.5215134620
844, 0.9948445560, 0.5173640850
845, 0.9942271110, 0.5235735770
846, 0.9944908620, 0.5256526470
847, 0.9948248270, 0.5276852250
848, 0.9947717190, 0.5153080820
849, 0.9951050880, 0.5296745300
850, 0.9950745700, 0.5134118800
851, 0.9952141640, 0.5316814780
852, 0.9948914050, 0.5107634070
853, 0.9919633870, 0.5086171630
854, 0.4860252740, 0.5043457750
855, 0.4853006600, 0.4956384900
856, 0.4845289590, 0.5049511790
857, 0.4833457170, 0.4956783060
858, 0.4872556330, 0.4955081940
859, 0.4874062840, 0.5038492680
860, 0.9950388070, 0.5337460040
861, 0.4892532230, 0.4953287540
862, 0.4886959790, 0.5049205420
863, 0.4813647870, 0.4955866930
864, 0.4824954270, 0.5059715510
865, 0.4913210270, 0.4951163830
866, 0.4911473990, 0.5062966940
867, 0.4934782390, 0.4948695300
868, 0.4939352570, 0.5046712760
869, 0.4957580570, 0.4945799110
870, 0.4973591270, 0.5077576640
871, 0.4982309040, 0.4942419830
872, 0.5012693410, 0.5059093240
873, 0.5033946630, 0.4982697670
874, 0.4802265170, 0.5065997240
875, 0.4793348610, 0.4953507480
876, 0.4777846340, 0.5070191030
877, 0.4772174060, 0.4949864750
878, 0.9946396950, 0.5359121560
879, 0.4749625920, 0.4944721160
880, 0.4751980600, 0.5074626210
881, 0.4725252390, 0.5083802340
882, 0.4725432400, 0.4938200120
883, 0.4699350300, 0.4930358530
884, 0.9940649870, 0.5383085010
885, 0.4670624140, 0.4921196700
886, 0.4660530980, 0.5095140340
887, 0.4638457300, 0.4910812380
888, 0.9933165910, 0.5410378580
889, 0.4621855020, 0.5097526910
890, 0.9923480750, 0.5441972610
891, 0.4601797460, 0.4899127480
892, 0.9911013840, 0.5478863720
893, 0.9904809590, 0.5022658710
894, 0.4514980910, 0.5167858600
895, 0.4559268950, 0.4885673220
896, 0.9895009990, 0.5522483590
897, 0.9942196010, 0.4994738400
898, 0.4508909290, 0.4868836400
899, 0.4445118010, 0.5178665520
900, 0.9829501510, 0.4877336030
901, 0.9874308710, 0.5576016310
902, 0.4447742700, 0.4845927360
903, 0.4361418490, 0.5193525550
904, 0.9798543450, 0.4788544480
905, 0.9848172660, 0.5644592050
906, 0.4264505800, 0.5212311740
907, 0.4371945260, 0.4813509290
908, 0.9890667800, 0.5833089950
909, 0.4155039190, 0.5234176520
910, 0.4285928610, 0.4775410590
911, 0.9928732510, 0.5336353180
912, 0.9931898120, 0.5317715410
913, 0.9918858410, 0.5188195110
914, 0.9904778000, 0.5211501720
915, 0.9927287700, 0.5171608330
916, 0.9909438490, 0.5237641930
917, 0.9915863280, 0.5260369180
918, 0.9922887090, 0.5280959010
919, 0.9928795700, 0.5299702880
920, 0.9915588500, 0.5151228900
921, 0.4864046280, 0.5069262390
922, 0.4832860530, 0.4936062690
923, 0.4851096870, 0.4934637550
924, 0.4869660140, 0.4932330250
925, 0.4810187820, 0.5100793240
926, 0.4889137450, 0.4929738340
927, 0.4814651610, 0.4934988920
928, 0.4909638460, 0.4926939310
929, 0.4931706490, 0.5088650580
930, 0.4931039810, 0.4923621420
931, 0.9921923880, 0.5356772540
932, 0.4953898190, 0.5109112260
933, 0.4775973260, 0.4926422830
934, 0.5012193320, 0.4938046930
935, 0.5031614900, 0.5020771030
936, 0.4782111050, 0.5104351640
937, 0.4996155200, 0.5095228550
938, 0.4731696840, 0.4909023640
939, 0.9912800790, 0.5380265710
940, 0.4694779810, 0.5090948340
941, 0.4678885040, 0.4882809520
942, 0.9901412130, 0.5407444240
943, 0.9887043240, 0.5438913110
944, 0.9868559840, 0.5475111010
945, 0.9920475480, 0.5118588210
946, 0.9844765660, 0.5516709090
947, 0.4610417490, 0.4847818910
948, 0.9889091250, 0.5044352410
949, 0.4660599830, 0.5144280790
950, 0.4647080000, 0.4866573210
951, 0.4524480100, 0.5255557890
952, 0.4568081800, 0.4825826590
953, 0.9813882110, 0.5567575690
954, 0.4572005870, 0.5160696510
955, 0.4450320600, 0.5273327830
956, 0.4519669710, 0.4799602330
957, 0.9776154760, 0.5633398890
958, 0.9717788100, 0.4903787080
959, 0.9767459630, 0.4679675700
960, 0.9816398020, 0.5732132790
961, 0.9888641240, 0.4993107320
962, 0.4366761450, 0.5295357700
963, 0.4465371670, 0.4767157440
964, 0.4271710810, 0.5323129890
965, 0.4402301910, 0.4716941120
966, 0.4032265840, 0.5257645850
967, 0.9916541580, 0.5318450330
968, 0.9898328190, 0.5289976600
969, 0.9908717870, 0.5306620600
970, 0.9897862080, 0.5174254180
971, 0.9874060150, 0.5245943070
972, 0.9865925310, 0.5218940970
973, 0.4831506910, 0.4916414320
974, 0.4865191580, 0.4908727110
975, 0.4884518980, 0.4905534090
976, 0.4800100030, 0.4909528790
977, 0.4905075130, 0.4902457590
978, 0.4925977290, 0.4899002020
979, 0.4953380820, 0.4919100700
980, 0.5057579280, 0.4986816640
981, 0.5041702990, 0.4951843020
982, 0.5054743290, 0.5052147510
983, 0.9899207950, 0.5350504520
984, 0.5021196600, 0.5116086600
985, 0.9887498020, 0.5373243090
986, 0.9873915310, 0.5399746300
987, 0.9857312440, 0.5429959300
988, 0.9835168720, 0.5463311080
989, 0.4884953200, 0.5097224710
990, 0.4978464840, 0.5129697320
991, 0.4908044340, 0.5119487640
992, 0.4933173060, 0.5140355230
993, 0.4779734310, 0.5139235850
994, 0.9865105150, 0.5077690480
995, 0.4762957100, 0.4895474910
996, 0.4738482830, 0.5129539370
997, 0.9884397980, 0.5143379570
998, 0.4720358550, 0.4865913090
999, 0.4664221700, 0.4824783800
1000, 0.9804602270, 0.5499292610
1001, 0.4629150330, 0.4799698290
1002, 0.4662435350, 0.5195682640
1003, 0.4698954820, 0.5138913990
1004, 0.4694508020, 0.4846494200
1005, 0.9820184710, 0.5040628310
1006, 0.4593450730, 0.5237745640
1007, 0.4540337920, 0.5342243310
1008, 0.4589004220, 0.4769304390
1009, 0.9762560730, 0.5544055700
1010, 0.9732684490, 0.5717316270
1011, 0.9797497390, 0.4969008560
1012, 0.4466474060, 0.5363894100
1013, 0.4543932680, 0.4732485710
1014, 0.9678606990, 0.4799698590
1015, 0.4386067090, 0.5394012330
1016, 0.4495160280, 0.4692829250
1017, 0.4164157510, 0.5355693700
1018, 0.9778568740, 0.5839330550
1019, 0.9909089210, 0.5331816080
1020, 0.9892134070, 0.5320817230
1021, 0.9857811930, 0.5286365750
1022, 0.4879022840, 0.4880486730
1023, 0.4900301990, 0.4877356290
1024, 0.4921181200, 0.4874378440
1025, 0.5066747070, 0.4962387080
1026, 0.4947160180, 0.4893526430
1027, 0.5074371100, 0.5073155760
1028, 0.5032458900, 0.4911838470
1029, 0.4975979330, 0.4912801980
1030, 0.5059568880, 0.5010596510
1031, 0.9864079360, 0.5363051890
1032, 0.9849488740, 0.5389340520
1033, 0.9832848910, 0.5418021080
1034, 0.9810675980, 0.5447161200
1035, 0.4806695880, 0.4883579020
1036, 0.4959276020, 0.5162134770
1037, 0.4839839640, 0.4890202280
1038, 0.4853494170, 0.5134373310
1039, 0.4816678460, 0.5140382650
1040, 0.4824558200, 0.4899795350
1041, 0.4885124560, 0.5154964920
1042, 0.9827264550, 0.5142042040
1043, 0.4913896020, 0.5174995660
1044, 0.5048221950, 0.5135799050
1045, 0.4778442380, 0.5180207490
1046, 0.4774981140, 0.4875419440
1047, 0.9777538780, 0.5473346710
1048, 0.9861217740, 0.5190528040
1049, 0.4740935860, 0.4838308690
1050, 0.4740434590, 0.5182574390
1051, 0.4717310370, 0.4813048840
1052, 0.4687893090, 0.4787218870
1053, 0.4708902840, 0.5243069530
1054, 0.9811694620, 0.5099427700
1055, 0.9712722300, 0.5606520770
1056, 0.4654712080, 0.4758683740
1057, 0.9722772840, 0.5505544540
1058, 0.9753738640, 0.5057943460
1059, 0.9695839290, 0.4986770750
1060, 0.4606449900, 0.5327592490
1061, 0.4560980500, 0.5423829560
1062, 0.4043568070, 0.5391141770
1063, 0.4618656640, 0.4722660780
1064, 0.9594659810, 0.4911394120
1065, 0.4490642850, 0.5445920230
1066, 0.9679590460, 0.5817947980
1067, 0.4581045810, 0.4673710470
1068, 0.9636653660, 0.4686991870
1069, 0.4896080490, 0.4851671460
1070, 0.4920294880, 0.4848750530
1071, 0.4939053650, 0.4873161320
1072, 0.4997937980, 0.4904948170
1073, 0.5054891710, 0.4925466180
1074, 0.9825948480, 0.5377492900
1075, 0.4967585210, 0.4883298280
1076, 0.5076239710, 0.5033070450
1077, 0.9802697300, 0.5365701320
1078, 0.4874553080, 0.4855265920
1079, 0.9877814650, 0.5339998600
1080, 0.5005202890, 0.5152782800
1081, 0.4826527830, 0.4866178040
1082, 0.4849943820, 0.4852403100
1083, 0.9786575440, 0.5395510200
1084, 0.4817246790, 0.5186238880
1085, 0.9835884570, 0.5310387610
1086, 0.4939954580, 0.5186836720
1087, 0.4806658920, 0.4840593040
1088, 0.5080988410, 0.5112192630
1089, 0.4777057770, 0.5216259360
1090, 0.4791231160, 0.4859791700
1091, 0.4745603800, 0.4782282410
1092, 0.9768167730, 0.5148669480
1093, 0.4714803990, 0.4752982260
1094, 0.9833950400, 0.5260833500
1095, 0.4727098940, 0.5302250390
1096, 0.9822471140, 0.5186484460
1097, 0.9681797030, 0.5478168730
1098, 0.9726893900, 0.5449997190
1099, 0.4682534340, 0.4725236590
1100, 0.4629038870, 0.4644580190
1101, 0.9757992030, 0.5104436280
1102, 0.4669579860, 0.5318132640
1103, 0.9693071840, 0.5052394870
1104, 0.4626786110, 0.5408266190
1105, 0.9609782700, 0.4990096090
1106, 0.9661720990, 0.5687132480
1107, 0.4420334400, 0.5486583110
1108, 0.9889872070, 0.4693938490
1109, 0.4532720740, 0.4599195720
1110, 0.4438368980, 0.4587128760
1111, 0.4914082880, 0.4818716350
1112, 0.5088750120, 0.4974892140
1113, 0.5079904200, 0.4937506020
1114, 0.4951016310, 0.4851397570
1115, 0.4866951700, 0.4833661620
1116, 0.9768549200, 0.5381816030
1117, 0.5095523000, 0.5054993630
1118, 0.4827125970, 0.4820928870
1119, 0.4858761130, 0.5191551450
1120, 0.4984266460, 0.5190236570
1121, 0.4774163960, 0.4816796180
1122, 0.5074558850, 0.5147358180
1123, 0.5076221820, 0.4996224050
1124, 0.5044371490, 0.4887714090
1125, 0.4775501490, 0.4749070110
1126, 0.4990984200, 0.4873695370
1127, 0.9817940000, 0.5337310430
1128, 0.9775956870, 0.5191152690
1129, 0.9777427910, 0.5354240540
1130, 0.9798508880, 0.5255517960
1131, 0.9739925270, 0.5391364690
1132, 0.9700300100, 0.5445479750
1133, 0.4708721040, 0.4691680370
1134, 0.9714448450, 0.5157039170
1135, 0.4949673410, 0.5228503350
1136, 0.4756232800, 0.5367905500
1137, 0.4773143530, 0.5278181430
1138, 0.4649204310, 0.5491268630
1139, 0.9653171900, 0.5565712450
1140, 0.9701337810, 0.5107992290
1141, 0.4685255290, 0.4581711590
1142, 0.4679894450, 0.4636367560
1143, 0.4691429140, 0.5391169190
1144, 0.9624026420, 0.5060511230
1145, 0.9496456380, 0.4937404100
1146, 0.4629244800, 0.4494354430
1147, 0.4519048330, 0.5507963300
1148, 0.5104372500, 0.4951001700
1149, 0.5067210790, 0.4900670950
1150, 0.4941370790, 0.4812626840
1151, 0.4850251380, 0.4804858860
1152, 0.5095587370, 0.5013688800
1153, 0.5109761950, 0.5083431600
1154, 0.5015849470, 0.5219406490
1155, 0.9762214420, 0.5310550330
1156, 0.5099145170, 0.5149767990
1157, 0.9748640060, 0.5346895460
1158, 0.9810736180, 0.5293923620
1159, 0.5109243990, 0.4990477860
1160, 0.5020905730, 0.4866899250
1161, 0.4844157990, 0.5256978270
1162, 0.9714690450, 0.5420688990
1163, 0.4979799390, 0.4839909080
1164, 0.4875915050, 0.4794546660
1165, 0.4768756330, 0.4676873390
1166, 0.9791950580, 0.5323630570
1167, 0.9727434520, 0.5202902560
1168, 0.4831848440, 0.4767118990
1169, 0.4820006190, 0.5334346290
1170, 0.4990552370, 0.5262627010
1171, 0.9661272170, 0.5449218150
1172, 0.4900676910, 0.5216189030
1173, 0.9778615240, 0.5278516410
1174, 0.4699532690, 0.4517091810
1175, 0.4715800880, 0.5468692780
1176, 0.4726764560, 0.4650126400
1177, 0.9662297960, 0.5169535880
1178, 0.4784338470, 0.5446547270
1179, 0.9641906620, 0.5119648580
1180, 0.9640620350, 0.5502456430
1181, 0.9526757600, 0.5012952090
1182, 0.4744642970, 0.4597100320
1183, 0.4548836350, 0.4474939410
1184, 0.9599505660, 0.5648512240
1185, 0.9560545680, 0.4819615780
1186, 0.5131337640, 0.5003113750
1187, 0.5076868530, 0.4874821010
1188, 0.4863402250, 0.4759560820
1189, 0.5122469660, 0.5034554600
1190, 0.9728025200, 0.5297933820
1191, 0.5008403060, 0.4829440120
1192, 0.5129011870, 0.5100328920
1193, 0.4968539180, 0.4803271890
1194, 0.5123732690, 0.4968295400
1195, 0.5092780590, 0.4911860530
1196, 0.5074133280, 0.5199297670
1197, 0.4929378030, 0.4778267440
1198, 0.9706555600, 0.5373941660
1199, 0.4831421080, 0.4660043120
1200, 0.4859075840, 0.4719156030
1201, 0.9632253650, 0.5458314420
1202, 0.9741110210, 0.5251530410
1203, 0.9678884740, 0.5430076720
1204, 0.4930258100, 0.5283760430
1205, 0.5052506330, 0.5249803660
1206, 0.4792287050, 0.4626538750
1207, 0.9690285330, 0.5254734750
1208, 0.4770005350, 0.4527939860
1209, 0.4849404690, 0.5426266790
1210, 0.4808088840, 0.5528652670
1211, 0.4880591630, 0.5333898660
1212, 0.4918415840, 0.5327448250
1213, 0.9579547050, 0.5548733470
1214, 0.4670293330, 0.4409810600
1215, 0.9612697360, 0.5190692540
1216, 0.9536522630, 0.5724405650
1217, 0.9553048010, 0.5083553190
1218, 0.9413774010, 0.4973384740
1219, 0.4456037280, 0.4454773960
1220, 0.9454040530, 0.4852660000
1221, 0.4996677040, 0.4792672690
1222, 0.4955762330, 0.4765719470
1223, 0.5048583750, 0.4848971370
1224, 0.5137536530, 0.4982718830
1225, 0.5126048330, 0.4923200310
1226, 0.5134198070, 0.5066607000
1227, 0.5112146740, 0.4859605430
1228, 0.4892701800, 0.4756619930
1229, 0.4870757760, 0.4678547680
1230, 0.5121251340, 0.5122134690
1231, 0.5157543420, 0.5033031700
1232, 0.9674583080, 0.5362424250
1233, 0.9595029950, 0.5499849320
1234, 0.4852546750, 0.4623936410
1235, 0.9657348390, 0.5422203540
1236, 0.5028719310, 0.5297428970
1237, 0.5112264750, 0.5236420040
1238, 0.9689227940, 0.5292956830
1239, 0.4907736780, 0.5406092410
1240, 0.4968797270, 0.5310896640
1241, 0.4837893840, 0.4487403630
1242, 0.9648387430, 0.5262623430
1243, 0.4731884900, 0.4460192020
1244, 0.4832935630, 0.4570153060
1245, 0.4584018590, 0.5587313180
1246, 0.4747233390, 0.5605282190
1247, 0.9580733180, 0.5144594310
1248, 0.9540676470, 0.5608021020
1249, 0.9482952950, 0.5667640570
1250, 0.9452406170, 0.5044173600
1251, 0.4674094920, 0.4255532620
1252, 0.9508439300, 0.4712542300
1253, 0.9364779590, 0.4897244270
1254, 0.9458695650, 0.5795002580
1255, 0.4055067000, 0.4859728220
1256, 0.5123862620, 0.4893656370
1257, 0.5144056680, 0.5089607240
1258, 0.5146136880, 0.4951212410
1259, 0.9629254940, 0.5421335100
1260, 0.5157829520, 0.5005069380
1261, 0.5147093530, 0.5111359950
1262, 0.5026747580, 0.4781707530
1263, 0.4888415040, 0.4635388550
1264, 0.4908198710, 0.4699405130
1265, 0.5082146530, 0.4841267470
1266, 0.5162106750, 0.5061003570
1267, 0.9632674460, 0.5386063460
1268, 0.9647253750, 0.5325599910
1269, 0.4983545540, 0.4753234680
1270, 0.5132060050, 0.5193522570
1271, 0.5090553760, 0.5284667610
1272, 0.4937535820, 0.4728564320
1273, 0.9600498680, 0.5458824040
1274, 0.4905581180, 0.4579706190
1275, 0.9528030160, 0.5515077710
1276, 0.4791893660, 0.4408266540
1277, 0.4902043940, 0.4511927960
1278, 0.5063766240, 0.5338951350
1279, 0.9572944640, 0.5226262210
1280, 0.9438505170, 0.5609225030
1281, 0.4674519000, 0.5587502120
1282, 0.4890080090, 0.5614584090
1283, 0.4742926960, 0.5672580000
1284, 0.9485345480, 0.5114431380
1285, 0.4951311650, 0.5363642570
1286, 0.9342513080, 0.5015587810
1287, 0.4505996410, 0.4315344100
1288, 0.4039410950, 0.5127050280
1289, 0.9393338560, 0.4756776690
1290, 0.4187778530, 0.4746103290
1291, 0.9573264720, 0.5454795360
1292, 0.5157819990, 0.4977972810
1293, 0.5121763940, 0.4837806520
1294, 0.5165105460, 0.5108454230
1295, 0.5015144350, 0.4744348230
1296, 0.5069015030, 0.4806351660
1297, 0.5187920330, 0.5031718610
1298, 0.5160292390, 0.4908066690
1299, 0.5165683630, 0.5086508990
1300, 0.9597927330, 0.5379958150
1301, 0.5164332390, 0.5131430630
1302, 0.4966722130, 0.4704305830
1303, 0.9554964300, 0.5478680130
1304, 0.4927994910, 0.4665911200
1305, 0.4981270430, 0.4604912100
1306, 0.5150203700, 0.5264641640
1307, 0.9610992670, 0.5283450480
1308, 0.4915928840, 0.4467307330
1309, 0.4960924390, 0.4558871980
1310, 0.5107541080, 0.5376542810
1311, 0.9490137700, 0.5561497810
1312, 0.9411230680, 0.5721088050
1313, 0.4739002590, 0.4332402650
1314, 0.4577257340, 0.5677679780
1315, 0.9516987200, 0.5190344450
1316, 0.4880350830, 0.5516327620
1317, 0.5015221240, 0.5398528580
1318, 0.4815993910, 0.5611048940
1319, 0.9385637640, 0.5078676340
1320, 0.9289404750, 0.4949843590
1321, 0.9563063980, 0.5424035790
1322, 0.5108373760, 0.4819490020
1323, 0.5146100520, 0.4872681200
1324, 0.5183585880, 0.5115289690
1325, 0.5191667080, 0.5060911180
1326, 0.5005843040, 0.4707441930
1327, 0.5174729820, 0.4939594570
1328, 0.9527789950, 0.5440571310
1329, 0.9641525750, 0.5353659990
1330, 0.9556083680, 0.5381053690
1331, 0.5059534310, 0.4770028890
1332, 0.5184541340, 0.5004043580
1333, 0.9683120250, 0.5329703690
1334, 0.5014528630, 0.4587118630
1335, 0.5168234110, 0.5218856330
1336, 0.4981380110, 0.4664798970
1337, 0.9490772490, 0.5469039680
1338, 0.5131216650, 0.5317311880
1339, 0.5077010990, 0.5446593760
1340, 0.4954755010, 0.4461083410
1341, 0.9403473140, 0.5553176400
1342, 0.4891162220, 0.4429562690
1343, 0.9559165840, 0.5277121660
1344, 0.5050900580, 0.5532056090
1345, 0.9374877210, 0.5651031140
1346, 0.4965500530, 0.5619459750
1347, 0.4965878730, 0.5734365580
1348, 0.9420731070, 0.5141488910
1349, 0.9280511140, 0.5062240360
1350, 0.4454576970, 0.5707427860
1351, 0.5145361420, 0.4833562370
1352, 0.5216725470, 0.5028792620
1353, 0.5004721280, 0.4679956730
1354, 0.5188723210, 0.4974170920
1355, 0.5188437700, 0.5287924410
1356, 0.5099408030, 0.4795362650
1357, 0.5191797020, 0.4896314740
1358, 0.5184800030, 0.5171920660
1359, 0.5191606280, 0.5090040560
1360, 0.5174224380, 0.5342896580
1361, 0.9510548110, 0.5391774180
1362, 0.9607813950, 0.5333796740
1363, 0.5049537420, 0.4733352960
1364, 0.5003528590, 0.4496402740
1365, 0.4955956040, 0.4406011100
1366, 0.5040048360, 0.4576259850
1367, 0.9555646180, 0.5330786710
1368, 0.5005511050, 0.4638932350
1369, 0.9457755680, 0.5411940220
1370, 0.9451150890, 0.5511780380
1371, 0.9507689480, 0.5268411640
1372, 0.5043857690, 0.5740710500
1373, 0.9301418070, 0.5681973700
1374, 0.5141363740, 0.5477893350
1375, 0.9327971340, 0.5529587270
1376, 0.5041408540, 0.5632848740
1377, 0.9445667860, 0.5205137730
1378, 0.4863557220, 0.4358435570
1379, 0.4883005020, 0.5721545820
1380, 0.9361841080, 0.5170356040
1381, 0.9225943090, 0.5006662010
1382, 0.5207886700, 0.4999434650
1383, 0.5094464420, 0.4758240580
1384, 0.5204902290, 0.4928081040
1385, 0.5039072040, 0.4698319440
1386, 0.5212445860, 0.4854572420
1387, 0.9505963920, 0.5332722070
1388, 0.5133997200, 0.4795952740
1389, 0.5222955940, 0.5062031750
1390, 0.5203363300, 0.5240061280
1391, 0.5210011600, 0.5135445590
1392, 0.5032967330, 0.4618921280
1393, 0.9454877970, 0.5271499750
1394, 0.5227169990, 0.5306715970
1395, 0.9457575680, 0.5337576870
1396, 0.5018220540, 0.4417446260
1397, 0.9375355840, 0.5501746540
1398, 0.5046863560, 0.4539486770
1399, 0.9282984140, 0.5610188840
1400, 0.5158693190, 0.5406227110
1401, 0.4956066010, 0.4325735870
1402, 0.5117090340, 0.5648281570
1403, 0.5126748090, 0.5559783580
1404, 0.9223661420, 0.4883311990
1405, 0.9226884250, 0.5111452340
1406, 0.4829383190, 0.4270476700
1407, 0.9388606550, 0.5223566890
1408, 0.9325501320, 0.5116651650
1409, 0.4965807200, 0.5852488880
1410, 0.5175396800, 0.4826509060
1411, 0.5085258480, 0.4719141130
1412, 0.5219110850, 0.4959588940
1413, 0.5223339800, 0.4885620180
1414, 0.5220066910, 0.5195851920
1415, 0.5219035740, 0.5361486670
1416, 0.9392477270, 0.5438435670
1417, 0.9410386680, 0.5338401200
1418, 0.5223165750, 0.5099133850
1419, 0.5131961700, 0.4748706520
1420, 0.9271989460, 0.5158807640
1421, 0.5212202670, 0.5425523520
1422, 0.5059882400, 0.4595098200
1423, 0.5054042340, 0.4649220710
1424, 0.5238341090, 0.5259605650
1425, 0.9311270710, 0.5482154490
1426, 0.5106973650, 0.4411610070
1427, 0.9404394030, 0.5280269980
1428, 0.9273058180, 0.5547906760
1429, 0.5206020470, 0.5499010680
1430, 0.5200746660, 0.5581214430
1431, 0.9173094030, 0.5064539910
1432, 0.9222252960, 0.5700240140
1433, 0.9160575870, 0.4952652450
1434, 0.5112920400, 0.5740909580
1435, 0.5067318080, 0.4327467680
1436, 0.9300422670, 0.4815410970
1437, 0.5065755250, 0.4194185730
1438, 0.5233863000, 0.4989621340
1439, 0.5235963460, 0.4916725460
1440, 0.5231427550, 0.4819807410
1441, 0.5083733200, 0.4624799790
1442, 0.5171746610, 0.4787213800
1443, 0.5255408880, 0.5060237650
1444, 0.5265492200, 0.5320379140
1445, 0.5124111770, 0.4702102540
1446, 0.5252683160, 0.5216898320
1447, 0.5240777730, 0.5154553060
1448, 0.5264195800, 0.5372419360
1449, 0.9406493310, 0.5395135280
1450, 0.9351081850, 0.5448154210
1451, 0.9365518690, 0.5339918140
1452, 0.9271474480, 0.5498448010
1453, 0.5107380750, 0.4513166550
1454, 0.5106283430, 0.4661254290
1455, 0.9340965750, 0.5244514940
1456, 0.5265637040, 0.5435706380
1457, 0.9213405250, 0.5622251630
1458, 0.9310046430, 0.5203608870
1459, 0.9180687670, 0.5160815720
1460, 0.9109674690, 0.5020819900
1461, 0.9327963590, 0.5762465000
1462, 0.5268663760, 0.5510231260
1463, 0.9143254760, 0.4820031520
1464, 0.5237257480, 0.4391636850
1465, 0.5194436310, 0.5669384600
1466, 0.9216465350, 0.4732151930
1467, 0.5271278020, 0.5178222660
1468, 0.5245934130, 0.5022837520
1469, 0.5283864140, 0.5235939620
1470, 0.9268614650, 0.5466991660
1471, 0.5171278120, 0.4740692680
1472, 0.5207826500, 0.4785153570
1473, 0.5140588880, 0.4633893970
1474, 0.5249597430, 0.4948032500
1475, 0.5242595080, 0.4844477770
1476, 0.9233413930, 0.5493597980
1477, 0.5301327710, 0.5327832700
1478, 0.9315991400, 0.5302103160
1479, 0.5272482630, 0.5275917650
1480, 0.5263723730, 0.5109323260
1481, 0.9326262470, 0.5383443240
1482, 0.5112718940, 0.4593153300
1483, 0.9289717670, 0.5449033380
1484, 0.5308726430, 0.5374606250
1485, 0.5216022130, 0.4481875600
1486, 0.5317156310, 0.5437263850
1487, 0.9207651620, 0.5547365550
1488, 0.9307813050, 0.5265957120
1489, 0.5187608600, 0.4310030940
1490, 0.9129531380, 0.5121040940
1491, 0.9139931800, 0.5705793500
1492, 0.9224566220, 0.5203593370
1493, 0.5273247360, 0.5595503450
1494, 0.9235562090, 0.5787377360
1495, 0.9083859320, 0.4903419020
1496, 0.9108958840, 0.4659137730
1497, 0.5268635150, 0.5801947120
1498, 0.5263312460, 0.4979841110
1499, 0.5313280820, 0.5252503750
1500, 0.9260359410, 0.5423909430
1501, 0.5210932490, 0.4741832020
1502, 0.5171123150, 0.4680462780
1503, 0.5267315510, 0.4905482530
1504, 0.5288307670, 0.5050632950
1505, 0.9245038030, 0.5456135870
1506, 0.5304707290, 0.5288033490
1507, 0.5294511320, 0.5144738550
1508, 0.5330026150, 0.5328007940
1509, 0.9298405050, 0.5377567410
1510, 0.5327368970, 0.5220918060
1511, 0.9288110140, 0.5348882680
1512, 0.5204311610, 0.4557943050
1513, 0.5203515890, 0.4629693630
1514, 0.9178352950, 0.5497208240
1515, 0.9141728280, 0.5627951620
1516, 0.5327198510, 0.5512159470
1517, 0.5356864330, 0.5362137560
1518, 0.5262870190, 0.4452267890
1519, 0.9264534120, 0.5251004700
1520, 0.9093537330, 0.5175415280
1521, 0.9069781300, 0.5085759760
1522, 0.9140269760, 0.5208194850
1523, 0.5287238360, 0.4298138920
1524, 0.9138469700, 0.5793952940
1525, 0.9036055210, 0.4982364770
1526, 0.5357584950, 0.5698865060
1527, 0.5064222220, 0.5856938360
1528, 0.9135267730, 0.5891791580
1529, 0.9049031730, 0.4767063560
1530, 0.9223057630, 0.5399087070
1531, 0.5276237130, 0.5014114380
1532, 0.5218448040, 0.4694560470
1533, 0.5340596440, 0.5266572830
1534, 0.5249269600, 0.4792244430
1535, 0.5352749820, 0.5237745640
1536, 0.9211550350, 0.5284734960
1537, 0.5280985830, 0.4936946030
1538, 0.5320264700, 0.5172387360
1539, 0.5375181440, 0.5256928800
1540, 0.5284534690, 0.4862271850
1541, 0.9280776980, 0.5398287180
1542, 0.9138684270, 0.5506209140
1543, 0.5302683120, 0.5088740590
1544, 0.9104762670, 0.5254514810
1545, 0.5373086930, 0.5307577850
1546, 0.5365598800, 0.5432578330
1547, 0.5259646770, 0.4557790460
1548, 0.5231910940, 0.4589386880
1549, 0.9179859160, 0.5244801040
1550, 0.9039080740, 0.5147525070
1551, 0.9057322140, 0.5698334570
1552, 0.5325213070, 0.4437462690
1553, 0.5341071490, 0.5598556400
1554, 0.5328505040, 0.4192562700
1555, 0.9000582100, 0.5056410430
1556, 0.8997249600, 0.4861984850
1557, 0.8975315090, 0.4623047110
1558, 0.5374091270, 0.5828421710
1559, 0.5223703380, 0.5919530990
1560, 0.9253097770, 0.5885427590
1561, 0.9167369600, 0.5460693840
1562, 0.5294740800, 0.4969281260
1563, 0.9193360810, 0.5446968670
1564, 0.5390629170, 0.5238240960
1565, 0.9255392550, 0.5368111130
1566, 0.5322997570, 0.5122175810
1567, 0.5258744360, 0.4705147450
1568, 0.5343698260, 0.5195506810
1569, 0.5270357730, 0.4829605820
1570, 0.9234303240, 0.5328373310
1571, 0.5298830870, 0.4893765450
1572, 0.5321956870, 0.5037562250
1573, 0.5409166220, 0.5256011490
1574, 0.5237647890, 0.4650408630
1575, 0.9171161060, 0.5318717360
1576, 0.5402935740, 0.5367855430
1577, 0.9140627380, 0.5284818410
1578, 0.9140937920, 0.5463882680
1579, 0.9069343210, 0.5621853470
1580, 0.5282985570, 0.4575600030
1581, 0.5380802150, 0.5506468420
1582, 0.9063473940, 0.5227293370
1583, 0.5293244120, 0.4536937180
1584, 0.5349931120, 0.4331695740
1585, 0.8978295330, 0.5679610970
1586, 0.8976806400, 0.5126480460
1587, 0.8952499630, 0.4950323400
1588, 0.5200893280, 0.4173625710
1589, 0.5470813510, 0.5805436370
1590, 0.8942612410, 0.4731047150
1591, 0.9197421070, 0.5355771180
1592, 0.5343917010, 0.5152087810
1593, 0.5308387880, 0.5003114340
1594, 0.5292699340, 0.4627114830
1595, 0.5288794640, 0.4784227610
1596, 0.5313214060, 0.4925408960
1597, 0.9094526770, 0.5499203210
1598, 0.5461569430, 0.5568723680
1599, 0.5315341350, 0.4850030540
1600, 0.5371006730, 0.5210772160
1601, 0.9107173680, 0.5324053760
1602, 0.5337100030, 0.5071992870
1603, 0.5408328180, 0.5321468710
1604, 0.9072636370, 0.5301262140
1605, 0.5410981180, 0.5229781870
1606, 0.5273558500, 0.4665533900
1607, 0.5410052540, 0.5426838990
1608, 0.9135917430, 0.5353673700
1609, 0.5366447570, 0.4490137400
1610, 0.5330118540, 0.4546423550
1611, 0.9015931490, 0.5206274990
1612, 0.8999965190, 0.5604099040
1613, 0.8908233050, 0.5114106540
1614, 0.8952994940, 0.5758466120
1615, 0.8920164110, 0.5034456250
1616, 0.5391514900, 0.4393370150
1617, 0.8903250100, 0.4828915000
1618, 0.8755725620, 0.4623627070
1619, 0.9111084340, 0.5452821250
1620, 0.5354097490, 0.5104761120
1621, 0.5327564480, 0.4957697090
1622, 0.5441097020, 0.5366216900
1623, 0.5286833050, 0.4748582240
1624, 0.5449908970, 0.5417199130
1625, 0.5400250550, 0.5199271440
1626, 0.5301120880, 0.4817596670
1627, 0.9082187410, 0.5358377700
1628, 0.5345920320, 0.4600802360
1629, 0.9099848270, 0.5392805340
1630, 0.5330665710, 0.4881424310
1631, 0.5355836150, 0.5023961070
1632, 0.9162023070, 0.5382949710
1633, 0.5371605160, 0.5136319990
1634, 0.9037455320, 0.5276564960
1635, 0.9022644760, 0.5534105300
1636, 0.5308523180, 0.4677712020
1637, 0.5472002630, 0.5473493340
1638, 0.8960846070, 0.5193469520
1639, 0.8906116490, 0.5654311180
1640, 0.5432125930, 0.5687019820
1641, 0.8836610320, 0.5115187170
1642, 0.5425745250, 0.4464356600
1643, 0.5463759300, 0.4344011250
1644, 0.8861979250, 0.4922256170
1645, 0.8871921900, 0.5725589390
1646, 0.5296577220, 0.4713599980
1647, 0.9131055470, 0.5415255430
1648, 0.9081819650, 0.5435513850
1649, 0.5341811780, 0.4990763070
1650, 0.5387787820, 0.5167792440
1651, 0.5442308190, 0.5320838090
1652, 0.5401277540, 0.5123251080
1653, 0.5439537170, 0.5228705410
1654, 0.5448222160, 0.4530782400
1655, 0.5346218940, 0.4912960830
1656, 0.5473185180, 0.5362640620
1657, 0.9052862520, 0.5479208830
1658, 0.5370633600, 0.5057369470
1659, 0.5324665900, 0.4639937880
1660, 0.5347158910, 0.4837459030
1661, 0.5483964090, 0.5404171350
1662, 0.9000219110, 0.5261430740
1663, 0.8935760860, 0.5581126210
1664, 0.5374007820, 0.4549669620
1665, 0.5493144990, 0.4420566260
1666, 0.8902221920, 0.5188331010
1667, 0.5511379840, 0.5536460280
1668, 0.9042034750, 0.5356318350
1669, 0.8819490670, 0.5022267700
1670, 0.8771681790, 0.4888876970
1671, 0.8831000330, 0.5796549320
1672, 0.5508851410, 0.4191488620
1673, 0.8783589600, 0.5591738220
1674, 0.8806013460, 0.4801020030
1675, 0.5343385340, 0.4686959390
1676, 0.5375659470, 0.4619964060
1677, 0.5416169760, 0.5156757830
1678, 0.5361633300, 0.4945038560
1679, 0.5385932920, 0.5090458390
1680, 0.5484969620, 0.5272454620
1681, 0.5454868080, 0.4589630960
1682, 0.5470989940, 0.4504689280
1683, 0.5402981640, 0.4588310120
1684, 0.5333504080, 0.4806388320
1685, 0.5390400890, 0.5010559560
1686, 0.5475687980, 0.5321808460
1687, 0.5363040570, 0.4868035020
1688, 0.5429280400, 0.5191271900
1689, 0.5514455440, 0.5385555030
1690, 0.5322756170, 0.4776177410
1691, 0.9058880810, 0.5409113760
1692, 0.8963643910, 0.5497583150
1693, 0.8954162000, 0.5310276150
1694, 0.8953077200, 0.5256590840
1695, 0.8843559620, 0.5187482240
1696, 0.8874642850, 0.5561692710
1697, 0.5507132410, 0.5447917580
1698, 0.8769212370, 0.5139565470
1699, 0.5549504160, 0.5753412250
1700, 0.8752217290, 0.5747861860
1701, 0.5551373960, 0.4304140210
1702, 0.8732970360, 0.4969246090
1703, 0.8879402280, 0.5921601060
1704, 0.8678664570, 0.4857359230
1705, 0.8732486960, 0.4693861310
1706, 0.5337227580, 0.4725932180
1707, 0.5404402020, 0.5044161080
1708, 0.5432054400, 0.5111891630
1709, 0.5381050110, 0.4687514310
1710, 0.5403290990, 0.4644179050
1711, 0.5492464300, 0.4550827150
1712, 0.5376472470, 0.4977658390
1713, 0.5431886320, 0.4617454710
1714, 0.5380013590, 0.4899032710
1715, 0.5364825730, 0.4793997110
1716, 0.5470948820, 0.5223274230
1717, 0.5445696710, 0.5146670340
1718, 0.5509545800, 0.5334202650
1719, 0.5522876980, 0.5300200580
1720, 0.8997725840, 0.5396617650
1721, 0.5578045850, 0.4405712490
1722, 0.8896592260, 0.5263954400
1723, 0.5569490190, 0.5445190670
1724, 0.8918875460, 0.5310101510
1725, 0.8896936770, 0.5495463610
1726, 0.8784655930, 0.5198072200
1727, 0.9018942120, 0.5446036460
1728, 0.5578223470, 0.5606224540
1729, 0.8819778560, 0.5540108680
1730, 0.8739389780, 0.5081410410
1731, 0.8738042120, 0.5643007160
1732, 0.8648845550, 0.4933995600
1733, 0.8697057370, 0.5810470580
1734, 0.5651838780, 0.4282311200
1735, 0.5397091510, 0.4931020140
1736, 0.5380560760, 0.4719731510
1737, 0.5498658420, 0.4603822830
1738, 0.5418308380, 0.5078023670
1739, 0.5426185130, 0.4997541010
1740, 0.5519575480, 0.5245413780
1741, 0.5424278380, 0.4675814510
1742, 0.5385751130, 0.4752392770
1743, 0.8948342200, 0.5422411560
1744, 0.5554111600, 0.5321528910
1745, 0.5395426750, 0.4852991700
1746, 0.5581555370, 0.5403332710
1747, 0.5458659530, 0.5183105470
1748, 0.5534164910, 0.4531359670
1749, 0.8943781260, 0.5362592340
1750, 0.8842870590, 0.5249301790
1751, 0.8736763000, 0.5554982420
1752, 0.8844457270, 0.5486706500
1753, 0.8867200020, 0.5316925640
1754, 0.8714507820, 0.5170795320
1755, 0.5610842700, 0.5461274390
1756, 0.8684420590, 0.5694962140
1757, 0.5622449520, 0.5703830120
1758, 0.5662288670, 0.4378314610
1759, 0.8685559630, 0.5036829710
1760, 0.8564053770, 0.4909339850
1761, 0.8634383080, 0.5875124340
1762, 0.5644208190, 0.4164984520
1763, 0.5438840990, 0.5032251480
1764, 0.5417690870, 0.4745974540
1765, 0.5476214890, 0.5136772990
1766, 0.5502563120, 0.5209957360
1767, 0.8774798510, 0.5514935850
1768, 0.5412827130, 0.4963897470
1769, 0.5463610890, 0.5101690890
1770, 0.5542897580, 0.5273042920
1771, 0.8901082280, 0.5429204700
1772, 0.5551804900, 0.4580053690
1773, 0.5584659580, 0.5332691670
1774, 0.5414187310, 0.4882744250
1775, 0.8702436690, 0.5514668820
1776, 0.5395296810, 0.4782016870
1777, 0.5461989050, 0.4643698630
1778, 0.8897256850, 0.5359818940
1779, 0.8833066230, 0.5296043160
1780, 0.8791069390, 0.5250260830
1781, 0.8801053170, 0.5473626260
1782, 0.8731257920, 0.5218130350
1783, 0.5623622540, 0.4475747940
1784, 0.5616693500, 0.5411019330
1785, 0.5663286450, 0.5596457120
1786, 0.8687205910, 0.5594842430
1787, 0.8686302300, 0.5128414030
1788, 0.8623290060, 0.5750331880
1789, 0.8617368340, 0.5004495380
1790, 0.5781027670, 0.4182523490
1791, 0.8723968270, 0.5940126180
1792, 0.8822653890, 0.5325980190
1793, 0.5549566750, 0.5225197670
1794, 0.5566706660, 0.5251669880
1795, 0.5495718720, 0.5092250700
1796, 0.5463651420, 0.4985534850
1797, 0.5433955190, 0.4914917350
1798, 0.8767005800, 0.5456764700
1799, 0.5589753390, 0.5307175520
1800, 0.5484443900, 0.5057541130
1801, 0.5488966110, 0.5172938700
1802, 0.8854473830, 0.5380365250
1803, 0.5442652700, 0.4741773900
1804, 0.5525622960, 0.4647676940
1805, 0.8793043490, 0.5292682650
1806, 0.5453355910, 0.4691311420
1807, 0.8740068670, 0.5485937000
1808, 0.8855683800, 0.5432224870
1809, 0.5417392850, 0.4714869860
1810, 0.5427632330, 0.4834653440
1811, 0.8842594030, 0.5345069770
1812, 0.5617122050, 0.5369034410
1813, 0.8742422460, 0.5264043810
1814, 0.5599897500, 0.4556477370
1815, 0.8679451350, 0.5470279460
1816, 0.8671633600, 0.5197952390
1817, 0.8627071380, 0.5635445710
1818, 0.5678308610, 0.4454762340
1819, 0.5653617380, 0.5465708970
1820, 0.5694211130, 0.5670240520
1821, 0.8643509750, 0.5094819660
1822, 0.8543674950, 0.4982578460
1823, 0.8554830550, 0.5811179880
1824, 0.5534033180, 0.5194634200
1825, 0.5507653360, 0.5126788020
1826, 0.8795756700, 0.5324164630
1827, 0.5584285260, 0.5273741480
1828, 0.8821294310, 0.5353977080
1829, 0.5473949910, 0.5022166970
1830, 0.5452088120, 0.4949234130
1831, 0.8742695450, 0.5433399080
1832, 0.5490778680, 0.4678328630
1833, 0.8814494610, 0.5431020260
1834, 0.8753250240, 0.5303846000
1835, 0.8813802000, 0.5386813880
1836, 0.5449137090, 0.4717541040
1837, 0.5614748000, 0.5334948900
1838, 0.5571247940, 0.4625819920
1839, 0.5447989110, 0.4862816630
1840, 0.5579091310, 0.5209500190
1841, 0.5517773630, 0.5049775240
1842, 0.5426133870, 0.4771572350
1843, 0.8683591490, 0.5240263940
1844, 0.8582075830, 0.5562883020
1845, 0.5645686980, 0.4534494280
1846, 0.5746049880, 0.4377317430
1847, 0.5653333070, 0.5412853960
1848, 0.5707221630, 0.5517463680
1849, 0.5727076530, 0.5578262210
1850, 0.5672579410, 0.5778157110
1851, 0.8649606110, 0.5168282390
1852, 0.8559343810, 0.5685335990
1853, 0.8587983850, 0.5068899990
1854, 0.8487346770, 0.4814000430
1855, 0.8565426470, 0.5941839220
1856, 0.5502148270, 0.4977267680
1857, 0.5480327610, 0.4723367690
1858, 0.8786266450, 0.5361933110
1859, 0.8781672120, 0.5427677040
1860, 0.5592624550, 0.5236160760
1861, 0.8714075090, 0.5450780990
1862, 0.5565239790, 0.5180535910
1863, 0.8766666050, 0.5336728100
1864, 0.5520268080, 0.5161245470
1865, 0.5600702760, 0.5291488770
1866, 0.5508938430, 0.5014919640
1867, 0.5470454690, 0.4895196560
1868, 0.8715044260, 0.5323715210
1869, 0.5528132920, 0.5083583590
1870, 0.5539104940, 0.4693070350
1871, 0.5751940610, 0.5501428250
1872, 0.8696012500, 0.5285720830
1873, 0.5460693840, 0.4805912380
1874, 0.5460792180, 0.4761440160
1875, 0.5618495940, 0.4605226520
1876, 0.5651522280, 0.5366600750
1877, 0.8632555600, 0.5432120560
1878, 0.5695883040, 0.5461367370
1879, 0.5691919330, 0.4518085420
1880, 0.8635324240, 0.5206651690
1881, 0.5759034750, 0.5643022060
1882, 0.5736137030, 0.5738546850
1883, 0.5611148480, 0.5840057730
1884, 0.5740609170, 0.4450520280
1885, 0.8612015840, 0.5147684220
1886, 0.8396730420, 0.4889633950
1887, 0.8467804190, 0.4969467820
1888, 0.8607800600, 0.4749256970
1889, 0.8486660720, 0.5745450850
1890, 0.5758533480, 0.4288006720
1891, 0.8781481390, 0.5399727820
1892, 0.5490787030, 0.4763986170
1893, 0.5539591310, 0.5116797090
1894, 0.5629060860, 0.5251618030
1895, 0.5498380660, 0.4932619630
1896, 0.8735827210, 0.5361691710
1897, 0.5550835730, 0.5043346290
1898, 0.5551969410, 0.5149405600
1899, 0.5512186290, 0.4736128450
1900, 0.5539979930, 0.4977507590
1901, 0.5644993780, 0.5327322480
1902, 0.5589120980, 0.4668973680
1903, 0.8665034770, 0.5426524280
1904, 0.5502061250, 0.4870669540
1905, 0.5501339440, 0.4789010580
1906, 0.5609101060, 0.5197438600
1907, 0.5739638810, 0.4510539170
1908, 0.5734691620, 0.5451467040
1909, 0.8636775020, 0.5254454610
1910, 0.5663610700, 0.4587409500
1911, 0.5689764620, 0.5409689550
1912, 0.5801372530, 0.5714074370
1913, 0.5824586750, 0.4399192330
1914, 0.8501713280, 0.5613998770
1915, 0.8595169190, 0.5199354890
1916, 0.8508017660, 0.5115940570
1917, 0.5727014540, 0.5838794710
1918, 0.5677322750, 0.5877359510
1919, 0.8387272950, 0.4810594920
1920, 0.8479775790, 0.5879167910
1921, 0.8392919900, 0.4963322880
1922, 0.8501055840, 0.4725092350
1923, 0.5896788240, 0.4230626230
1924, 0.8758662940, 0.5400692220
1925, 0.8732264040, 0.5401180980
1926, 0.5571682450, 0.5107007030
1927, 0.5539433360, 0.4764343800
1928, 0.8696143630, 0.5408405660
1929, 0.8703855280, 0.5372130870
1930, 0.5560531020, 0.5075397490
1931, 0.5631840230, 0.5271593330
1932, 0.5596432690, 0.5168337230
1933, 0.5745692250, 0.4560504260
1934, 0.5527079110, 0.4897513990
1935, 0.5724883080, 0.5403908490
1936, 0.5788815620, 0.5480700730
1937, 0.5568748710, 0.4728587270
1938, 0.5543415550, 0.5010874270
1939, 0.8643156890, 0.5315803890
1940, 0.5543763640, 0.4945212900
1941, 0.5639082790, 0.5188016300
1942, 0.5787950750, 0.4516576830
1943, 0.5514783860, 0.4819225370
1944, 0.5685664420, 0.5360651610
1945, 0.5636016730, 0.4651208220
1946, 0.8600247500, 0.5429239270
1947, 0.5706116560, 0.4572282730
1948, 0.5823484060, 0.5523343680
1949, 0.8527850510, 0.5519409780
1950, 0.8590135570, 0.5253137950
1951, 0.5802750590, 0.4464524980
1952, 0.5857378840, 0.4321597810
1953, 0.5768028500, 0.5798004870
1954, 0.5813473460, 0.5613315110
1955, 0.8548139330, 0.5188911560
1956, 0.8386274580, 0.5032689570
1957, 0.8381439450, 0.5618327260
1958, 0.8400241140, 0.5811992290
1959, 0.8662534950, 0.5389242770
1960, 0.5573539140, 0.4979878370
1961, 0.5592681770, 0.5067259670
1962, 0.5546209810, 0.4802931850
1963, 0.5627433060, 0.5157857540
1964, 0.5764608380, 0.4603102210
1965, 0.5678466560, 0.5213631390
1966, 0.8621605040, 0.5382363200
1967, 0.5583187940, 0.5037367340
1968, 0.5679565070, 0.5307319760
1969, 0.5607862470, 0.4707577230
1970, 0.5769695640, 0.5438534020
1971, 0.5532389880, 0.4847739640
1972, 0.5615406040, 0.5127693410
1973, 0.8548688290, 0.5468226670
1974, 0.5558792350, 0.4916191700
1975, 0.5840547080, 0.5486833450
1976, 0.5719724300, 0.5357716080
1977, 0.5681564210, 0.4636778830
1978, 0.8588497040, 0.5308185220
1979, 0.5572661760, 0.4773835240
1980, 0.5801014300, 0.4578142170
1981, 0.5857678060, 0.4496273700
1982, 0.5859444740, 0.5579537150
1983, 0.5886984470, 0.4438448850
1984, 0.5858755110, 0.5677738790
1985, 0.8495961430, 0.5552574400
1986, 0.8540316220, 0.5246427660
1987, 0.8428161140, 0.5573810340
1988, 0.8381674290, 0.5099409820
1989, 0.8318613770, 0.4958309530
1990, 0.5989166500, 0.4290085730
1991, 0.8276349310, 0.4842372540
1992, 0.8317236300, 0.5653660890
1993, 0.8528007270, 0.4633614420
1994, 0.8384943600, 0.4711098670
1995, 0.5758980510, 0.5396817330
1996, 0.5569651720, 0.4794910850
1997, 0.5669238570, 0.5179801580
1998, 0.5577737090, 0.4953713720
1999, 0.5691095590, 0.5255697970
2000, 0.5552822350, 0.4871891440
2001, 0.5576167700, 0.5008147950
2002, 0.5646995310, 0.5117754940
2003, 0.5589540000, 0.4754363300
2004, 0.5561690930, 0.4828927520
2005, 0.5614819530, 0.5030488970
2006, 0.8563496470, 0.5415120120
2007, 0.5635377760, 0.5087893010
2008, 0.5719001890, 0.5312293170
2009, 0.5724878310, 0.4622265100
2010, 0.5789455180, 0.4640630780
2011, 0.5651365520, 0.4694178400
2012, 0.5862727170, 0.5509966610
2013, 0.8483084440, 0.5486221310
2014, 0.8578686120, 0.5363021490
2015, 0.5924326780, 0.4480560420
2016, 0.8537910580, 0.5300907490
2017, 0.5946550970, 0.4379237890
2018, 0.8495945330, 0.5177972320
2019, 0.8342917560, 0.5561956760
2020, 0.8313918110, 0.5028298500
2021, 0.8268328310, 0.5762199160
2022, 0.8247147200, 0.4942709800
2023, 0.6049768920, 0.4215460720
2024, 0.8263235690, 0.4731314180
2025, 0.5907101040, 0.5630204080
2026, 0.5596672890, 0.4778850970
2027, 0.5601852540, 0.4980826080
2028, 0.5591500400, 0.4809198080
2029, 0.5622054930, 0.4742343130
2030, 0.5576404330, 0.4891583620
2031, 0.5707317590, 0.5205315350
2032, 0.5828245280, 0.4611858730
2033, 0.5589721800, 0.4928218130
2034, 0.5801166890, 0.5425121780
2035, 0.5830532910, 0.5413218140
2036, 0.5726782080, 0.5271750690
2037, 0.8524525760, 0.5397897960
2038, 0.5658611060, 0.5148340460
2039, 0.5655692820, 0.5049100520
2040, 0.5678648950, 0.5107513070
2041, 0.5861265660, 0.5465118890
2042, 0.8384329080, 0.5529254080
2043, 0.5697317120, 0.4684270020
2044, 0.5606887340, 0.5004134180
2045, 0.8379849200, 0.5162529950
2046, 0.5966324210, 0.4468525050
2047, 0.8488087650, 0.5238874550
2048, 0.8502956030, 0.5344750880
2049, 0.8313629030, 0.5097308750
2050, 0.8290823700, 0.5586608050
2051, 0.6030778290, 0.4403766100
2052, 0.5917146800, 0.5747802260
2053, 0.5894857050, 0.5544000270
2054, 0.5911603570, 0.4539069530
2055, 0.8241746430, 0.5024636390
2056, 0.8243660930, 0.5673863890
2057, 0.8161274190, 0.4849489930
2058, 0.8243409400, 0.4626655280
2059, 0.6062127350, 0.4341235460
2060, 0.5690741540, 0.5138707160
2061, 0.5822435620, 0.5382662420
2062, 0.5623876450, 0.4973629120
2063, 0.8444256190, 0.5454843640
2064, 0.5857900380, 0.5403878090
2065, 0.5605039000, 0.4961535330
2066, 0.5736994150, 0.5238420960
2067, 0.5607795120, 0.4901248810
2068, 0.8467808370, 0.5416673420
2069, 0.5666815640, 0.5077836510
2070, 0.5701442960, 0.5171685220
2071, 0.5645338890, 0.5021404620
2072, 0.5869538780, 0.5427072050
2073, 0.5754586460, 0.5315642360
2074, 0.5661701560, 0.4735063310
2075, 0.5885337000, 0.5484402180
2076, 0.5748590830, 0.4674682920
2077, 0.8383988740, 0.5454981330
2078, 0.8537009360, 0.5350193980
2079, 0.5604134800, 0.4836606680
2080, 0.5816454290, 0.4674457610
2081, 0.8317539690, 0.5161870720
2082, 0.8315870170, 0.5511482950
2083, 0.8434591290, 0.5228418710
2084, 0.5946531300, 0.5573617220
2085, 0.5853750110, 0.4651074110
2086, 0.8506411310, 0.5443333980
2087, 0.8481643200, 0.5302360060
2088, 0.6018192170, 0.4470892250
2089, 0.8243855830, 0.5099904540
2090, 0.6001880170, 0.5618329050
2091, 0.5846080780, 0.5812926290
2092, 0.8167713880, 0.5025699140
2093, 0.5970910790, 0.4534144400
2094, 0.8156087400, 0.5819204450
2095, 0.8225062490, 0.5532686110
2096, 0.8164595370, 0.4940061570
2097, 0.8146185280, 0.4756748080
2098, 0.6133397820, 0.4377451840
2099, 0.5632789130, 0.4924148620
2100, 0.5685794950, 0.5038509960
2101, 0.5852018000, 0.5377745030
2102, 0.5787299280, 0.5353170040
2103, 0.5635212060, 0.4995420870
2104, 0.5710075500, 0.5096021890
2105, 0.5626060370, 0.4825446610
2106, 0.5739411120, 0.5203518270
2107, 0.8453808430, 0.5350250010
2108, 0.5760238170, 0.5278589730
2109, 0.8486664300, 0.5376935600
2110, 0.8410447840, 0.5421773200
2111, 0.5787992480, 0.5318025950
2112, 0.5787505510, 0.4693034290
2113, 0.5879799720, 0.5397720930
2114, 0.8428379300, 0.5283774140
2115, 0.5877152680, 0.5448052290
2116, 0.8352975850, 0.5486766100
2117, 0.5627941490, 0.4774892330
2118, 0.5704914930, 0.4731208380
2119, 0.8379761580, 0.5221278070
2120, 0.5894426700, 0.4626141190
2121, 0.5874789360, 0.4693391320
2122, 0.8273422120, 0.5527980920
2123, 0.8252619500, 0.5169382100
2124, 0.6029700040, 0.5561574700
2125, 0.5983812210, 0.4592904750
2126, 0.8156374100, 0.5683285590
2127, 0.5930860640, 0.5463376050
2128, 0.8173565860, 0.5105684400
2129, 0.6038402320, 0.5725698470
2130, 0.6019541620, 0.4529776280
2131, 0.8276606200, 0.5897387270
2132, 0.8091701270, 0.5032988190
2133, 0.5999166970, 0.5810597540
2134, 0.6174555420, 0.4436558190
2135, 0.6112522480, 0.4294314380
2136, 0.8060699110, 0.4868408440
2137, 0.8122757670, 0.4667330090
2138, 0.5661538240, 0.4808663430
2139, 0.5665581820, 0.4773900510
2140, 0.5881365540, 0.5376474260
2141, 0.5792910460, 0.5284080510
2142, 0.5901333090, 0.5416341420
2143, 0.5768274660, 0.5243486170
2144, 0.5723131900, 0.5127461550
2145, 0.8355646130, 0.5421301720
2146, 0.5738868710, 0.5163987280
2147, 0.5697698000, 0.5066741700
2148, 0.5674564840, 0.5010636450
2149, 0.5819140080, 0.5351464150
2150, 0.8409054880, 0.5368883610
2151, 0.5835689900, 0.4714136120
2152, 0.8325039740, 0.5221002100
2153, 0.5750145320, 0.4730149810
2154, 0.5914663080, 0.4673109650
2155, 0.5621950630, 0.4858674410
2156, 0.5646128650, 0.4952787160
2157, 0.8435010310, 0.5390148760
2158, 0.8271570210, 0.5229865310
2159, 0.8416966800, 0.5331690310
2160, 0.8379516600, 0.5275303720
2161, 0.6031073930, 0.4584343140
2162, 0.5985522270, 0.5535967350
2163, 0.8227349520, 0.5482239130
2164, 0.5937271120, 0.4604311290
2165, 0.8180834650, 0.5189891460
2166, 0.6065117120, 0.4483215210
2167, 0.6122559910, 0.5754916670
2168, 0.8102356200, 0.5108757020
2169, 0.6064493660, 0.5650296210
2170, 0.8104761240, 0.5578422550
2171, 0.8092430830, 0.5745795970
2172, 0.6224896910, 0.4379495680
2173, 0.8078334330, 0.4951859410
2174, 0.8037980200, 0.4781239630
2175, 0.8078556060, 0.5880103710
2176, 0.5741806630, 0.5082006450
2177, 0.5849818590, 0.5350404380
2178, 0.5640611650, 0.4880717990
2179, 0.5769120450, 0.5138455630
2180, 0.5819790360, 0.5320334430
2181, 0.5714892750, 0.5026866200
2182, 0.5910276770, 0.5381963250
2183, 0.5801034570, 0.5251722340
2184, 0.5776377320, 0.5206136700
2185, 0.8377862570, 0.5326031450
2186, 0.8377768990, 0.5381125210
2187, 0.5965932010, 0.5476042030
2188, 0.5794905420, 0.4729857440
2189, 0.5955737830, 0.4656941890
2190, 0.5662313700, 0.4905366900
2191, 0.5707137580, 0.4776335950
2192, 0.6046906710, 0.5506015420
2193, 0.5693696140, 0.4971301260
2194, 0.6160426740, 0.4524576660
2195, 0.5893253680, 0.4733982090
2196, 0.8333141800, 0.5274582510
2197, 0.8289627430, 0.5282095070
2198, 0.5669782160, 0.4856474100
2199, 0.5938416120, 0.5424824360
2200, 0.8217409250, 0.5445818900
2201, 0.8170548680, 0.5519438980
2202, 0.5702404380, 0.4822987020
2203, 0.6205701830, 0.4491157830
2204, 0.5998836760, 0.4645416440
2205, 0.8224453330, 0.5250758530
2206, 0.6077193020, 0.4574267270
2207, 0.8083488350, 0.5640503170
2208, 0.8106493350, 0.5178906320
2209, 0.8032637240, 0.5117255450
2210, 0.6082333920, 0.5582599640
2211, 0.8016608360, 0.5047460790
2212, 0.6132532950, 0.5668910150
2213, 0.6100910900, 0.5858563180
2214, 0.6259020570, 0.4470708370
2215, 0.8149435520, 0.5971091390
2216, 0.7969511150, 0.4894513790
2217, 0.8020316960, 0.5795206430
2218, 0.6309607630, 0.4230011700
2219, 0.8296534420, 0.5466728210
2220, 0.5811868310, 0.5221727490
2221, 0.5785482530, 0.5160709620
2222, 0.8312066790, 0.5419837240
2223, 0.8261860010, 0.5476493240
2224, 0.8339288830, 0.5323290230
2225, 0.5687192080, 0.4935619830
2226, 0.5732306840, 0.4991675020
2227, 0.5754957200, 0.5111153130
2228, 0.5759474040, 0.5037729740
2229, 0.5880441070, 0.5350270870
2230, 0.6145204900, 0.4613194760
2231, 0.5753995780, 0.4777320920
2232, 0.5690124630, 0.4881578390
2233, 0.5854656700, 0.4755431410
2234, 0.8115601540, 0.5516670940
2235, 0.8302732710, 0.5326650140
2236, 0.8195862170, 0.5472396610
2237, 0.5849705340, 0.5322690010
2238, 0.5974844100, 0.5433586240
2239, 0.8251609800, 0.5298740270
2240, 0.6013612750, 0.5443426970
2241, 0.5718970890, 0.4860534670
2242, 0.5969952340, 0.4702974260
2243, 0.5943299530, 0.5386996270
2244, 0.6217202540, 0.4601446390
2245, 0.6044912930, 0.4636249240
2246, 0.5751178860, 0.4818727080
2247, 0.5930942890, 0.4715636670
2248, 0.6318980460, 0.4546142520
2249, 0.6093990800, 0.5519917610
2250, 0.8148623700, 0.5254672770
2251, 0.8042356970, 0.5180785060
2252, 0.8052191730, 0.5557069180
2253, 0.6138315200, 0.5595394970
2254, 0.7968177200, 0.5133202080
2255, 0.8043572310, 0.5684154030
2256, 0.6330129500, 0.4360621270
2257, 0.7995387320, 0.4972828920
2258, 0.7939056160, 0.4809094070
2259, 0.8247507810, 0.6065502760
2260, 0.8340011840, 0.5367289780
2261, 0.8284859060, 0.5427383780
2262, 0.8248946670, 0.5425657630
2263, 0.8309523460, 0.5364507440
2264, 0.5808315870, 0.5048481230
2265, 0.8286039830, 0.5395719410
2266, 0.5878611210, 0.5323746200
2267, 0.5801238420, 0.5182194110
2268, 0.5711619260, 0.4906294640
2269, 0.5853295920, 0.5295031670
2270, 0.5843648310, 0.5231986640
2271, 0.5799529550, 0.5122204420
2272, 0.5809930560, 0.4781167210
2273, 0.5724762080, 0.4967815880
2274, 0.5910412670, 0.5350729230
2275, 0.8270348310, 0.5338494780
2276, 0.8149623870, 0.5471911430
2277, 0.5789716240, 0.5017515420
2278, 0.6017978790, 0.5398484470
2279, 0.8192067740, 0.5414177180
2280, 0.5794342160, 0.4826362730
2281, 0.6010751130, 0.4693867860
2282, 0.6056128140, 0.5453867320
2283, 0.5913387540, 0.4771370290
2284, 0.5732644200, 0.4886880820
2285, 0.8070341940, 0.5502584580
2286, 0.8018723730, 0.5617733000
2287, 0.6184620260, 0.4628219310
2288, 0.6327612400, 0.4463788870
2289, 0.8098659520, 0.5240764620
2290, 0.5945172910, 0.4753363130
2291, 0.6142548320, 0.5529031750
2292, 0.6281064750, 0.4622677860
2293, 0.7983614210, 0.5191414950
2294, 0.6202121970, 0.5670961740
2295, 0.6103028060, 0.4684242310
2296, 0.7945705060, 0.5069787500
2297, 0.7978639010, 0.5718660950
2298, 0.8012831810, 0.4691522420
2299, 0.7886220220, 0.4927286210
2300, 0.5832849140, 0.5260343550
2301, 0.6059234140, 0.5405306220
2302, 0.8117392060, 0.5463387970
2303, 0.5826253290, 0.5194956660
2304, 0.5809215310, 0.5146660210
2305, 0.6102120880, 0.5407280330
2306, 0.8264740710, 0.5387874840
2307, 0.5942471030, 0.5350514650
2308, 0.5725791450, 0.4945538340
2309, 0.5851591230, 0.4818991720
2310, 0.5788125990, 0.5094705220
2311, 0.8284085390, 0.5370062590
2312, 0.5979307890, 0.5391380790
2313, 0.5765075680, 0.4988929030
2314, 0.8167914150, 0.5441918370
2315, 0.5881598590, 0.4793431160
2316, 0.5863538980, 0.5269714590
2317, 0.5740170480, 0.4923234880
2318, 0.8011050820, 0.5528760550
2319, 0.5905981060, 0.5319951770
2320, 0.5842350130, 0.5030798320
2321, 0.8242539170, 0.5360013250
2322, 0.5938745140, 0.4804808500
2323, 0.5980158450, 0.4744498730
2324, 0.6237840060, 0.4648462530
2325, 0.6145606640, 0.5467089410
2326, 0.5775448680, 0.4881880880
2327, 0.6372193690, 0.4557933510
2328, 0.6149654390, 0.4680583180
2329, 0.8130167720, 0.5305690770
2330, 0.8045582770, 0.5238943100
2331, 0.7929654720, 0.5208580490
2332, 0.6059277650, 0.4736917320
2333, 0.6321477890, 0.4607868190
2334, 0.6191799640, 0.5533545610
2335, 0.7910647990, 0.5155936480
2336, 0.7951921220, 0.5649158360
2337, 0.6401514410, 0.4485329990
2338, 0.7931227090, 0.5835022330
2339, 0.7916764620, 0.5001920460
2340, 0.7902639510, 0.4713006320
2341, 0.7851179240, 0.4845823350
2342, 0.5815853480, 0.5165447590
2343, 0.5874564650, 0.5242129560
2344, 0.5832481380, 0.5111821290
2345, 0.6020166870, 0.5356685520
2346, 0.5895869730, 0.5285514590
2347, 0.6094704870, 0.5360196230
2348, 0.5935168270, 0.5317612890
2349, 0.8079212310, 0.5451608300
2350, 0.5823667650, 0.4994949700
2351, 0.6149361130, 0.5402553680
2352, 0.5882290600, 0.4852861760
2353, 0.8166566490, 0.5382804870
2354, 0.6193898320, 0.4671323300
2355, 0.5855448250, 0.4876783490
2356, 0.5956600900, 0.4782323840
2357, 0.5823202730, 0.5080335740
2358, 0.8130018120, 0.5408018830
2359, 0.8030787710, 0.5485240220
2360, 0.6297639610, 0.4677910800
2361, 0.8165662290, 0.5324081180
2362, 0.5788331030, 0.4907492100
2363, 0.6105742450, 0.4739362300
2364, 0.5911112430, 0.4828407470
2365, 0.6020275950, 0.4783486130
2366, 0.6414763330, 0.4600231350
2367, 0.7993181940, 0.5245220660
2368, 0.7976144550, 0.5563148260
2369, 0.8090249300, 0.5296469930
2370, 0.7881386280, 0.5228959920
2371, 0.6190859080, 0.5474388600
2372, 0.6249454020, 0.5592710970
2373, 0.7928735020, 0.5588071940
2374, 0.7899025080, 0.5746898060
2375, 0.7880656720, 0.5668936370
2376, 0.7882918720, 0.5100846290
2377, 0.6451614500, 0.4378130140
2378, 0.7809561490, 0.4963924290
2379, 0.6460409760, 0.4550612870
2380, 0.7859818940, 0.5968438980
2381, 0.7807422880, 0.4758549630
2382, 0.5903861520, 0.5253029470
2383, 0.5928543810, 0.5286532640
2384, 0.5837880370, 0.5141033530
2385, 0.6058301930, 0.5362432600
2386, 0.7950293420, 0.5510765910
2387, 0.5905932190, 0.4884067770
2388, 0.5938850050, 0.4859891830
2389, 0.5875004530, 0.5015175940
2390, 0.5866975780, 0.5106489660
2391, 0.8149932030, 0.5353387000
2392, 0.7996261720, 0.5471345190
2393, 0.5799218420, 0.4963444770
2394, 0.6127387880, 0.5350385900
2395, 0.8040369750, 0.5439897780
2396, 0.5855826740, 0.5203605890
2397, 0.5976492760, 0.4831899400
2398, 0.5979890820, 0.5346065760
2399, 0.8085646030, 0.5400224330
2400, 0.8122365470, 0.5353357790
2401, 0.6086029410, 0.4813588860
2402, 0.5873420240, 0.4908176060
2403, 0.6160187130, 0.4751075210
2404, 0.6195061210, 0.5421682000
2405, 0.8217965360, 0.5388014910
2406, 0.8045849200, 0.5293169020
2407, 0.7941963670, 0.5257779360
2408, 0.6021946670, 0.4825151260
2409, 0.6235024930, 0.5477079750
2410, 0.7872031930, 0.5602878330
2411, 0.6377049680, 0.4636928440
2412, 0.6254975200, 0.4699928460
2413, 0.6266177890, 0.5652372840
2414, 0.7800869940, 0.5672802930
2415, 0.6521556380, 0.4501313270
2416, 0.7860821490, 0.4588947890
2417, 0.6490922570, 0.4625974890
2418, 0.7839382890, 0.5041761990
2419, 0.7771863340, 0.4889505800
2420, 0.7898904680, 0.6084828380
2421, 0.7749322060, 0.4667817060
2422, 0.6025907990, 0.5319969060
2423, 0.5887017250, 0.5212989450
2424, 0.6086556910, 0.5321085450
2425, 0.5862057210, 0.5067690010
2426, 0.5963135360, 0.5312849880
2427, 0.8003378510, 0.5431284900
2428, 0.5993636850, 0.5306466220
2429, 0.5926903490, 0.5261739490
2430, 0.7909605500, 0.5534812210
2431, 0.5895019170, 0.4937442540
2432, 0.8044865730, 0.5393029450
2433, 0.6178181170, 0.5362515450
2434, 0.5863570570, 0.4971466360
2435, 0.7965793010, 0.5465623140
2436, 0.5994920130, 0.4876018760
2437, 0.5870872140, 0.5140723590
2438, 0.6234050390, 0.5428962710
2439, 0.6210312250, 0.4725130800
2440, 0.5836976770, 0.5168719890
2441, 0.6131172180, 0.4802736340
2442, 0.6058191060, 0.4818311930
2443, 0.6355943680, 0.4709189530
2444, 0.5831785800, 0.4930332900
2445, 0.7999304530, 0.5295611620
2446, 0.7891005280, 0.5274943110
2447, 0.8086252210, 0.5349082950
2448, 0.6443547010, 0.4657232460
2449, 0.5959562660, 0.4893038870
2450, 0.7842326160, 0.5244815950
2451, 0.6310923100, 0.5594882970
2452, 0.7823045850, 0.5543569330
2453, 0.7808326480, 0.5762815480
2454, 0.6541185980, 0.4600546660
2455, 0.6288746000, 0.5525456670
2456, 0.7799358370, 0.5099081400
2457, 0.7740470770, 0.5000031590
2458, 0.7725160120, 0.4814644460
2459, 0.7666917440, 0.4740897420
2460, 0.8032397030, 0.6038287280
2461, 0.7737010120, 0.5990712050
2462, 0.5949596760, 0.5246014600
2463, 0.5918090340, 0.5225670930
2464, 0.6114366650, 0.5310401320
2465, 0.5899812580, 0.5180830960
2466, 0.6156439190, 0.5330238940
2467, 0.5900836590, 0.5103929040
2468, 0.8005220290, 0.5388654470
2469, 0.6207797530, 0.5380555990
2470, 0.7921848890, 0.5474806430
2471, 0.5926203730, 0.4913364350
2472, 0.6032525300, 0.4864351450
2473, 0.6076435450, 0.5287888650
2474, 0.5975954530, 0.4925956730
2475, 0.6238659620, 0.5388487580
2476, 0.5983980890, 0.5256463890
2477, 0.7951832410, 0.5303825740
2478, 0.6198532580, 0.4807218910
2479, 0.7867444160, 0.5548543330
2480, 0.6036612390, 0.5287249090
2481, 0.6102909450, 0.4835155900
2482, 0.8003373150, 0.5343517070
2483, 0.7830866580, 0.5292261840
2484, 0.5899186130, 0.4980380830
2485, 0.6399022340, 0.4685743450
2486, 0.6275050640, 0.5472977760
2487, 0.6329640150, 0.4776167270
2488, 0.7784046530, 0.5526176690
2489, 0.6508005260, 0.4697953460
2490, 0.6552659270, 0.4681321080
2491, 0.7785997390, 0.5180253390
2492, 0.6317313910, 0.5736119750
2493, 0.6363512280, 0.5546867850
2494, 0.6610450150, 0.4475245770
2495, 0.7770803570, 0.5057709220
2496, 0.7653893830, 0.4873789850
2497, 0.7534031270, 0.4754426180
2498, 0.7709617610, 0.5654189590
2499, 0.7659810780, 0.4584521950
2500, 0.6142545940, 0.5295403600
2501, 0.5995448830, 0.5227178340
2502, 0.7942802310, 0.5457810160
2503, 0.7969406840, 0.5427792070
2504, 0.7887402770, 0.5487814550
2505, 0.6299611330, 0.5422193410
2506, 0.6268287900, 0.5389868020
2507, 0.6221069100, 0.5347834830
2508, 0.6198668480, 0.5334070920
2509, 0.6024026270, 0.5243016480
2510, 0.5896387700, 0.5072237250
2511, 0.6102440950, 0.5275283460
2512, 0.5920321940, 0.4961716530
2513, 0.5912094120, 0.5142646430
2514, 0.6089449520, 0.5243369340
2515, 0.6009892820, 0.4913743730
2516, 0.6068834070, 0.4852699940
2517, 0.7903683190, 0.5318045620
2518, 0.5964788790, 0.5211871860
2519, 0.7960456610, 0.5347806220
2520, 0.6237259510, 0.4777301550
2521, 0.6160654430, 0.4840189520
2522, 0.6371889110, 0.4760280550
2523, 0.5909885170, 0.5006625060
2524, 0.7804399130, 0.5482878680
2525, 0.6462394600, 0.4718563560
2526, 0.7783612010, 0.5258603690
2527, 0.7755764130, 0.5579435230
2528, 0.6562435030, 0.4753361640
2529, 0.6331108810, 0.5503250360
2530, 0.6591224070, 0.4591625630
2531, 0.6372613310, 0.5648447280
2532, 0.6214210390, 0.5761935710
2533, 0.6564570070, 0.4342107470
2534, 0.7752198580, 0.5140126940
2535, 0.7713048460, 0.5767477150
2536, 0.7636362910, 0.4990868270
2537, 0.7591264250, 0.4672391120
2538, 0.7599629160, 0.4810831550
2539, 0.7966807480, 0.5389221310
2540, 0.7889725570, 0.5452798600
2541, 0.7938470240, 0.5430393220
2542, 0.6245626210, 0.5354604130
2543, 0.6213647720, 0.5316168670
2544, 0.6182888750, 0.5309450030
2545, 0.6130744810, 0.5261140470
2546, 0.6010696290, 0.5196595790
2547, 0.6056622270, 0.5227358940
2548, 0.5947722790, 0.4991180900
2549, 0.5932965280, 0.5095731620
2550, 0.5987136360, 0.4958490130
2551, 0.6046355960, 0.4902382490
2552, 0.5921077730, 0.5036517380
2553, 0.6295970680, 0.5387430790
2554, 0.6118128900, 0.5227799420
2555, 0.7850809690, 0.5464518670
2556, 0.5944812300, 0.4941078420
2557, 0.7715274690, 0.5533284540
2558, 0.7855728860, 0.5339715480
2559, 0.6228004690, 0.4858456850
2560, 0.5949751140, 0.5161910060
2561, 0.6036292910, 0.5213874580
2562, 0.6122890110, 0.4868518410
2563, 0.6310662630, 0.5461089020
2564, 0.7668172720, 0.5568922160
2565, 0.6416724320, 0.4740113910
2566, 0.7750738860, 0.5495244260
2567, 0.6364870670, 0.5472206470
2568, 0.6334357860, 0.4824878570
2569, 0.6596783400, 0.4670236710
2570, 0.6520183680, 0.4765592520
2571, 0.6698525550, 0.4414646330
2572, 0.7746469380, 0.5222364660
2573, 0.6730217340, 0.4607947770
2574, 0.6411306860, 0.5582696200
2575, 0.6323314310, 0.5857407450
2576, 0.7618048790, 0.5670226220
2577, 0.7722158430, 0.5876479740
2578, 0.6418262720, 0.5758197310
2579, 0.7625840310, 0.5095403790
2580, 0.7589882020, 0.4933519660
2581, 0.7487768530, 0.4825192390
2582, 0.7498146300, 0.4615550640
2583, 0.7868939040, 0.5433905720
2584, 0.6231008770, 0.5320296880
2585, 0.6171608570, 0.5278795960
2586, 0.6271429060, 0.5356949570
2587, 0.6077067260, 0.5213445430
2588, 0.6148039700, 0.5211696620
2589, 0.5938344600, 0.5120790000
2590, 0.6056617500, 0.5187418460
2591, 0.5928469900, 0.5065859560
2592, 0.7692220810, 0.5484887960
2593, 0.6084096430, 0.4888563450
2594, 0.7877650860, 0.5377752180
2595, 0.6031535270, 0.5165348650
2596, 0.7812816500, 0.5375418070
2597, 0.5970346930, 0.5126152040
2598, 0.6184138060, 0.4885723590
2599, 0.6326610450, 0.5412598850
2600, 0.6294772620, 0.4891169970
2601, 0.6341313120, 0.5442358850
2602, 0.7777358890, 0.5468884710
2603, 0.5956713560, 0.5027489660
2604, 0.6382833720, 0.4811864500
2605, 0.6475701930, 0.4780226950
2606, 0.7745552060, 0.5303089620
2607, 0.5989523530, 0.4990189970
2608, 0.6573986410, 0.4818900530
2609, 0.6058790680, 0.4941869680
2610, 0.6603050830, 0.4743656810
2611, 0.6397212740, 0.5501055720
2612, 0.7650697230, 0.5502914790
2613, 0.7609697580, 0.5584975480
2614, 0.6787752510, 0.4569884240
2615, 0.6716023090, 0.4701371490
2616, 0.6447045800, 0.5679160360
2617, 0.7615848780, 0.5769837500
2618, 0.7630526420, 0.5188891890
2619, 0.6746363040, 0.4496768120
2620, 0.7610599400, 0.5879056450
2621, 0.7540462020, 0.4876864550
2622, 0.7578274010, 0.5047199730
2623, 0.6664571760, 0.4300239980
2624, 0.6403555870, 0.5835973620
2625, 0.7896710040, 0.5410859580
2626, 0.6365047100, 0.5418111090
2627, 0.6203449960, 0.5263799430
2628, 0.6208666560, 0.5294590590
2629, 0.5964070560, 0.5059673190
2630, 0.6082808380, 0.5162356500
2631, 0.6418859360, 0.5456635360
2632, 0.7929969430, 0.5396383400
2633, 0.6160842180, 0.5245798830
2634, 0.7818105220, 0.5443092580
2635, 0.6103135350, 0.5195002560
2636, 0.6324099900, 0.5356237290
2637, 0.5994972590, 0.5095617180
2638, 0.6438311930, 0.5525131230
2639, 0.5992785690, 0.5021510720
2640, 0.6252032520, 0.5325068830
2641, 0.7842792270, 0.5406993030
2642, 0.6248691680, 0.4910498560
2643, 0.6026141640, 0.4986729920
2644, 0.6388580200, 0.5438208580
2645, 0.6141220930, 0.4910289050
2646, 0.7729511860, 0.5456460710
2647, 0.7782039050, 0.5338786240
2648, 0.6429772380, 0.4795995060
2649, 0.6343775990, 0.4877883200
2650, 0.7647604350, 0.5446751710
2651, 0.6531110410, 0.4829707440
2652, 0.6612088680, 0.4805744590
2653, 0.6098819380, 0.4929261210
2654, 0.6855252980, 0.4536762540
2655, 0.7535145880, 0.5666441920
2656, 0.6819197540, 0.4638193850
2657, 0.6710790400, 0.4780390560
2658, 0.7708257440, 0.5267568230
2659, 0.7604739070, 0.5510696170
2660, 0.6472823020, 0.5607642530
2661, 0.6781130430, 0.4382016960
2662, 0.7531104090, 0.4992707670
2663, 0.7397227880, 0.4864970150
2664, 0.7555322050, 0.5203360920
2665, 0.7608429790, 0.5997223260
2666, 0.6538621190, 0.4228960280
2667, 0.6502184870, 0.5784376260
2668, 0.6113528610, 0.5140082240
2669, 0.6006240840, 0.5055154560
2670, 0.6193727850, 0.5230484600
2671, 0.6339683530, 0.5381486420
2672, 0.6430720690, 0.5415174370
2673, 0.6066669230, 0.4983633160
2674, 0.6132361290, 0.5176816580
2675, 0.6180123690, 0.5195317270
2676, 0.6297677760, 0.5356684330
2677, 0.6379590030, 0.5389038320
2678, 0.6057854290, 0.5132622120
2679, 0.6235146520, 0.5291550760
2680, 0.7774104480, 0.5423707960
2681, 0.7678552270, 0.5443436500
2682, 0.6454684140, 0.5472066400
2683, 0.6202932600, 0.4933238030
2684, 0.6309809090, 0.4944316150
2685, 0.6486238840, 0.4840733710
2686, 0.6392668490, 0.4865311980
2687, 0.6024628880, 0.5021246670
2688, 0.6589453220, 0.4882445040
2689, 0.7705224160, 0.5350015760
2690, 0.7554454210, 0.5511290430
2691, 0.6488558650, 0.5542153720
2692, 0.6157085900, 0.4956483840
2693, 0.6680398580, 0.4822442830
2694, 0.6788712740, 0.4721810820
2695, 0.7607858780, 0.5443677900
2696, 0.6881929640, 0.4613678750
2697, 0.7474884990, 0.4937615990
2698, 0.7517974970, 0.5759987830
2699, 0.7597053650, 0.5235877040
2700, 0.6529396770, 0.5700769420
2701, 0.7520422940, 0.5111555460
2702, 0.6560795310, 0.5872579220
2703, 0.6767255660, 0.4295904640
2704, 0.6300833230, 0.5327093010
2705, 0.6146177650, 0.5124903320
2706, 0.6276642080, 0.5300220850
2707, 0.6066052320, 0.5028021930
2708, 0.6213804480, 0.5178474190
2709, 0.6433010100, 0.5376966600
2710, 0.6163879040, 0.5159652230
2711, 0.6268883350, 0.5277312990
2712, 0.6353223920, 0.5360817310
2713, 0.6093196870, 0.5093013050
2714, 0.5965292450, 0.5091849570
2715, 0.6027157900, 0.5111514330
2716, 0.6462574600, 0.5423282380
2717, 0.6264895200, 0.4960147140
2718, 0.7741418480, 0.5383337140
2719, 0.6110559700, 0.4975718260
2720, 0.6440131660, 0.4852490430
2721, 0.7562112810, 0.5446225400
2722, 0.6355902550, 0.4930948320
2723, 0.6541233660, 0.4890348020
2724, 0.6495535970, 0.5482228400
2725, 0.6645473240, 0.4872239830
2726, 0.6219568850, 0.4979529680
2727, 0.6801542040, 0.4777155820
2728, 0.6951479320, 0.4593668880
2729, 0.6840668920, 0.4703667760
2730, 0.7668227550, 0.5316524510
2731, 0.6547660230, 0.5622017380
2732, 0.7533375620, 0.5247939830
2733, 0.7484052780, 0.5570297240
2734, 0.7342140080, 0.4933340250
2735, 0.7438946960, 0.5007832050
2736, 0.7495551110, 0.5235923530
2737, 0.7479571100, 0.5049458740
2738, 0.6585946680, 0.5803595780
2739, 0.6473131180, 0.5893818740
2740, 0.6243667600, 0.5254450440
2741, 0.6178742650, 0.5104296210
2742, 0.6050189730, 0.5071700810
2743, 0.6387710570, 0.5350977180
2744, 0.6231076720, 0.5123257640
2745, 0.6463783380, 0.5377880330
2746, 0.6119153500, 0.5032146570
2747, 0.6363244650, 0.5299326180
2748, 0.7448731660, 0.5138272050
2749, 0.6322747470, 0.4993595780
2750, 0.7565065030, 0.5388649700
2751, 0.6496837140, 0.5428873900
2752, 0.7486545440, 0.5279733540
2753, 0.6495096680, 0.4898921250
2754, 0.6172875760, 0.5002427700
2755, 0.6279245020, 0.5006849770
2756, 0.6301878690, 0.5296384100
2757, 0.7620214220, 0.5373524430
2758, 0.6402803660, 0.4919215140
2759, 0.6155123110, 0.5067362790
2760, 0.6593964700, 0.4942154290
2761, 0.6703916790, 0.4898987110
2762, 0.7515953780, 0.5444961790
2763, 0.7565611000, 0.5276012420
2764, 0.6539705400, 0.5484214430
2765, 0.6795135740, 0.4838223760
2766, 0.6852014660, 0.4768385290
2767, 0.7668229340, 0.5403369670
2768, 0.6900121570, 0.4687163230
2769, 0.7461591960, 0.5187948350
2770, 0.6931448580, 0.4507125020
2771, 0.7321065660, 0.4858667850
2772, 0.7391685840, 0.4994094370
2773, 0.6616130470, 0.5720737580
2774, 0.6364483240, 0.5967627760
2775, 0.6669960620, 0.5842915770
2776, 0.6213670370, 0.5083942410
2777, 0.6193578840, 0.5043151380
2778, 0.6282994750, 0.5231984260
2779, 0.6247543690, 0.5161105390
2780, 0.6495757700, 0.5379685760
2781, 0.6419729590, 0.5316665170
2782, 0.6367684600, 0.5262143610
2783, 0.7517602440, 0.5354769230
2784, 0.6449286940, 0.4908375440
2785, 0.6236034630, 0.5023174290
2786, 0.6333784460, 0.5040460820
2787, 0.7502906920, 0.5503626470
2788, 0.6532415150, 0.5430485010
2789, 0.7517551180, 0.5277866130
2790, 0.6330580710, 0.5258383150
2791, 0.6229442360, 0.5215771790
2792, 0.6547528510, 0.4946589170
2793, 0.6367272730, 0.4982205030
2794, 0.7396379710, 0.5170888900
2795, 0.6642265320, 0.4944092930
2796, 0.6605284810, 0.5537356140
2797, 0.6756623980, 0.4910458330
2798, 0.7533968690, 0.5304363970
2799, 0.6854553220, 0.4829453830
2800, 0.7455093260, 0.5230857130
2801, 0.6965386270, 0.4673242570
2802, 0.7426993250, 0.5545152430
2803, 0.6910716300, 0.4757521450
2804, 0.7367039920, 0.5122521520
2805, 0.7271789310, 0.4914027750
2806, 0.7247931360, 0.4965007900
2807, 0.6820594670, 0.4458136860
2808, 0.7026369570, 0.4579379560
2809, 0.6642112140, 0.5622778530
2810, 0.7419474720, 0.4790328150
2811, 0.7425844070, 0.5732224580
2812, 0.6706334350, 0.5756257180
2813, 0.6762300730, 0.5893496870
2814, 0.6444472070, 0.6069000360
2815, 0.6652854080, 0.5503270030
2816, 0.6265063880, 0.5198108550
2817, 0.7491937880, 0.5356982950
2818, 0.6440064910, 0.5299888250
2819, 0.6458092930, 0.5336409210
2820, 0.6266518830, 0.5106730460
2821, 0.6408141850, 0.5268778800
2822, 0.7496990560, 0.5322486760
2823, 0.6528064010, 0.5385121110
2824, 0.7438392640, 0.5283542280
2825, 0.7453740840, 0.5485954880
2826, 0.6292329430, 0.5051463840
2827, 0.6567460890, 0.5424675940
2828, 0.6502562760, 0.4954373240
2829, 0.6369654540, 0.5223256350
2830, 0.6326408390, 0.5213723780
2831, 0.6412640210, 0.4972408120
2832, 0.6593823430, 0.4993582370
2833, 0.6695737240, 0.4958639440
2834, 0.7423009280, 0.5212252140
2835, 0.6806677580, 0.4897706810
2836, 0.7473680380, 0.5434837340
2837, 0.6376625900, 0.5031728150
2838, 0.6914830800, 0.4822970030
2839, 0.6901292800, 0.4417238530
2840, 0.7290380000, 0.4986964760
2841, 0.7206702830, 0.4944913090
2842, 0.7247812150, 0.4826895890
2843, 0.7035918830, 0.4662649630
2844, 0.7344570160, 0.4768469040
2845, 0.7320796850, 0.5161050560
2846, 0.7382768390, 0.5831312540
2847, 0.6847579480, 0.4339388910
2848, 0.6737578510, 0.5666659470
2849, 0.6973686810, 0.4748297630
2850, 0.6801416870, 0.5797875520
2851, 0.6706003550, 0.5986800790
2852, 0.7392726540, 0.5612609980
2853, 0.7370227580, 0.4678436820
2854, 0.6468868260, 0.5280997160
2855, 0.6495738030, 0.5325830580
2856, 0.7409160140, 0.5458013420
2857, 0.7455173130, 0.5378426310
2858, 0.6533326510, 0.5345310570
2859, 0.7459385400, 0.5328120590
2860, 0.6556696300, 0.5387118460
2861, 0.6441903710, 0.5249326830
2862, 0.6583015320, 0.5475342870
2863, 0.6342713240, 0.5085110070
2864, 0.6313188080, 0.5132064220
2865, 0.6457883720, 0.4963163140
2866, 0.6399254800, 0.5226356390
2867, 0.7376757860, 0.5510529280
2868, 0.6319407220, 0.5162311200
2869, 0.6552820210, 0.4998297990
2870, 0.6635698080, 0.5000579360
2871, 0.6252022390, 0.5065892340
2872, 0.6758515240, 0.4977546630
2873, 0.6816898580, 0.4952004250
2874, 0.7469805480, 0.5354475980
2875, 0.6857844000, 0.4884995820
2876, 0.6421279910, 0.5024878380
2877, 0.7352693080, 0.5207604770
2878, 0.7384859920, 0.5261609550
2879, 0.7196877600, 0.4985345900
2880, 0.6699788570, 0.5550509100
2881, 0.7224194410, 0.4890154600
2882, 0.7267404790, 0.4748934210
2883, 0.7283427120, 0.5120127800
2884, 0.7040514950, 0.4740720690
2885, 0.7347730990, 0.5688162450
2886, 0.7112851140, 0.4656086270
2887, 0.7003165480, 0.4367789630
2888, 0.6830154060, 0.5700275900
2889, 0.6907228230, 0.5838944320
2890, 0.6915470360, 0.4263855520
2891, 0.7012807130, 0.4487188760
2892, 0.6601054070, 0.5405996440
2893, 0.6501048800, 0.5251820680
2894, 0.6522375940, 0.5291039350
2895, 0.6464594010, 0.5223103760
2896, 0.6303885580, 0.5093491670
2897, 0.6621447800, 0.5455386640
2898, 0.6433036330, 0.5200113650
2899, 0.7435272340, 0.5413601990
2900, 0.6510705350, 0.5007922650
2901, 0.7371636630, 0.5421954390
2902, 0.6382843260, 0.5079385040
2903, 0.6592558620, 0.5031934380
2904, 0.6681315300, 0.5016099210
2905, 0.6348763110, 0.5128427740
2906, 0.6466664670, 0.5018063190
2907, 0.6390823720, 0.5181965230
2908, 0.6385541560, 0.5126611590
2909, 0.6800558570, 0.5024607180
2910, 0.7245576980, 0.5165584090
2911, 0.6902331710, 0.4921921190
2912, 0.7281230090, 0.5198149090
2913, 0.7041663530, 0.4814705550
2914, 0.6912743450, 0.4880832140
2915, 0.7432124020, 0.5353404880
2916, 0.7333226200, 0.5280562640
2917, 0.7162121530, 0.4994590280
2918, 0.7237151270, 0.5087521670
2919, 0.7160054450, 0.4938437640
2920, 0.7178209420, 0.4812830390
2921, 0.7285231950, 0.5628857610
2922, 0.7198346260, 0.4565028250
2923, 0.7289428110, 0.5515357850
2924, 0.6768386360, 0.5581873060
2925, 0.7112668750, 0.4735992250
2926, 0.6927097440, 0.5734392400
2927, 0.6519976260, 0.5202536580
2928, 0.6631286740, 0.5401750210
2929, 0.6559776660, 0.5359238390
2930, 0.6577116250, 0.5378172400
2931, 0.6479505300, 0.5189555880
2932, 0.6687484980, 0.5458787680
2933, 0.7403875590, 0.5381322500
2934, 0.7247131470, 0.5232369300
2935, 0.6523407100, 0.5059458610
2936, 0.6426206830, 0.5075941680
2937, 0.7334610820, 0.5468543170
2938, 0.6563486460, 0.5046400430
2939, 0.6621357200, 0.5050093530
2940, 0.6729675530, 0.5039193030
2941, 0.6464487910, 0.5129469630
2942, 0.6839854720, 0.4998005330
2943, 0.7377796770, 0.5333700780
2944, 0.6928167940, 0.4948032800
2945, 0.6977096200, 0.4820671680
2946, 0.7183302640, 0.5052824620
2947, 0.7204366920, 0.5137748720
2948, 0.7271852490, 0.5266683100
2949, 0.6729753610, 0.5485405920
2950, 0.7115453480, 0.4999938010
2951, 0.7196406130, 0.4654474850
2952, 0.7098452450, 0.4484839740
2953, 0.7220444080, 0.5691401360
2954, 0.7236967090, 0.5561993720
2955, 0.6856836080, 0.5595968960
2956, 0.6577788590, 0.5335748200
2957, 0.6675484780, 0.5389650460
2958, 0.6743649240, 0.5426040890
2959, 0.6423572300, 0.5122331380
2960, 0.7301076650, 0.5423530940
2961, 0.6476513740, 0.5077077750
2962, 0.6513984200, 0.5154563780
2963, 0.7254717950, 0.5459553000
2964, 0.6590452790, 0.5094764230
2965, 0.6540567870, 0.5103662610
2966, 0.6778543000, 0.5073468690
2967, 0.6661230330, 0.5069434050
2968, 0.7237334850, 0.5290393230
2969, 0.6823896770, 0.5060171480
2970, 0.6573481560, 0.5285232070
2971, 0.7292618160, 0.5306742190
2972, 0.6883592610, 0.4975413680
2973, 0.6548123360, 0.5182302000
2974, 0.6975171570, 0.4898505510
2975, 0.7164973020, 0.5110132690
2976, 0.7124735710, 0.5053981540
2977, 0.7108836170, 0.4940195680
2978, 0.7177536490, 0.5610121490
2979, 0.7044056650, 0.4884238240
2980, 0.7295212150, 0.4564554100
2981, 0.7285399440, 0.5774515870
2982, 0.7189146880, 0.4737410550
2983, 0.6781159640, 0.5500769020
2984, 0.7191341520, 0.4469740990
2985, 0.7090269920, 0.4408414960
2986, 0.6913748980, 0.5537585620
2987, 0.7032909390, 0.5753486160
2988, 0.6642055510, 0.5370293260
2989, 0.6735392810, 0.5373004080
2990, 0.6557040210, 0.5228555800
2991, 0.6502009630, 0.5115705130
2992, 0.7209703330, 0.5257412790
2993, 0.6639523510, 0.5117032530
2994, 0.7255069610, 0.5331723690
2995, 0.6703506710, 0.5092356800
2996, 0.6608996390, 0.5316190720
2997, 0.6807940010, 0.5121780040
2998, 0.6862710710, 0.5039212700
2999, 0.6547045110, 0.5147393350
3000, 0.6585074070, 0.5149952770
3001, 0.6951829200, 0.4990292490
3002, 0.7196921710, 0.5490013960
3003, 0.6784632210, 0.5430021880
3004, 0.7125754950, 0.5103461740
3005, 0.7076123360, 0.5060622100
3006, 0.7054355740, 0.4948005380
3007, 0.7066050770, 0.5007103680
3008, 0.7164044380, 0.5192955140
3009, 0.7233905790, 0.5401948690
3010, 0.6884126660, 0.5480544570
3011, 0.7144673470, 0.5542438630
3012, 0.7108014820, 0.5645291210
3013, 0.7109766010, 0.4809675510
3014, 0.7396651510, 0.4578197900
3015, 0.7297649980, 0.4456107320
3016, 0.7096976640, 0.4279218610
3017, 0.6575486060, 0.5193924310
3018, 0.6690918210, 0.5351653100
3019, 0.6650956870, 0.5332750080
3020, 0.6592702270, 0.5250610710
3021, 0.6781131630, 0.5370607380
3022, 0.7205665710, 0.5302561520
3023, 0.6743439440, 0.5121923090
3024, 0.6883361940, 0.5082778330
3025, 0.7217864990, 0.5349329110
3026, 0.6680867080, 0.5138632660
3027, 0.6828828450, 0.5428084140
3028, 0.6925540570, 0.5060952900
3029, 0.6624724860, 0.5164756180
3030, 0.7084153290, 0.5110783580
3031, 0.7135497330, 0.5145134330
3032, 0.7161666150, 0.5257165430
3033, 0.7031371590, 0.5071145300
3034, 0.6985172030, 0.5513023730
3035, 0.6948053840, 0.5494906310
3036, 0.6835470800, 0.5500444770
3037, 0.7147450450, 0.5461243990
3038, 0.7088752990, 0.5571919080
3039, 0.7136621480, 0.5742757320
3040, 0.7277646060, 0.4338020980
3041, 0.7283646460, 0.4660668370
3042, 0.7192834620, 0.5416200160
3043, 0.6738308670, 0.5315228700
3044, 0.6611118910, 0.5210680370
3045, 0.6627296810, 0.5274327400
3046, 0.6999871130, 0.5460588930
3047, 0.7102996110, 0.5211949940
3048, 0.7180566790, 0.5360635520
3049, 0.6863342520, 0.5145361420
3050, 0.6943987010, 0.5105994940
3051, 0.7168216710, 0.5309433940
3052, 0.6825094220, 0.5366727710
3053, 0.6663153170, 0.5182708500
3054, 0.7114242910, 0.5493313670
3055, 0.6987607480, 0.5086004730
3056, 0.7042775750, 0.5119292140
3057, 0.6925793290, 0.5460379120
3058, 0.7093179230, 0.5160130860
3059, 0.6873819830, 0.5420021410
3060, 0.7029023770, 0.5657061930
3061, 0.7163698670, 0.4370808900
3062, 0.6651453970, 0.5232412820
3063, 0.7002279760, 0.5129846930
3064, 0.7154551150, 0.5418460970
3065, 0.6777583360, 0.5314111110
3066, 0.6777248980, 0.5154567360
3067, 0.6838862900, 0.5201248530
3068, 0.6734670400, 0.5265911820
3069, 0.7107008100, 0.5271986720
3070, 0.7073030470, 0.5515101550
3071, 0.6920894980, 0.5176384450
3072, 0.6961630580, 0.5146696570
3073, 0.6719918850, 0.5164666180
3074, 0.6959531310, 0.5456309910
3075, 0.7028036710, 0.5582162140
3076, 0.7050793170, 0.5166974070
3077, 0.6700564620, 0.5267392990
3078, 0.6919298170, 0.5411651130
3079, 0.7047801610, 0.5221587420
3080, 0.7206014390, 0.4214136600
3081, 0.7057754990, 0.5468438860
3082, 0.6960050460, 0.5411770940
3083, 0.7013208870, 0.5169793960
3084, 0.6809182760, 0.5255886320
3085, 0.6951117520, 0.5193887950
3086, 0.7123146650, 0.5428444740
3087, 0.7142989640, 0.5371323820
3088, 0.7088207010, 0.5344260330
3089, 0.6802467110, 0.5173425080
3090, 0.6758493190, 0.5201950670
3091, 0.7016462680, 0.5202936530
3092, 0.7070352440, 0.5407826900
3093, 0.7106421590, 0.5387067790
3094, 0.7069883940, 0.5307421090
3095, 0.6953813430, 0.5225508810
3096, 0.7057883740, 0.5271823410
3097, 0.6988210680, 0.5216124650
3098, 0.7036706210, 0.5431698560
3099, 0.6919561620, 0.5226447580
3100, 0.6920289400, 0.5359337930
3101, 0.6847818490, 0.5246527790
3102, 0.6883409020, 0.5232381820
3103, 0.6801513430, 0.5207930800
3104, 0.6976443530, 0.5358656050
3105, 0.6819951530, 0.5309229490
3106, 0.6870647670, 0.5361538530
3107, 0.7048569920, 0.5368385910
3108, 0.7002136110, 0.5249562260
3109, 0.6960924860, 0.5263284440
3110, 0.6868293290, 0.5299541350
3111, 0.7029008870, 0.5482907300
3112, 0.7013770340, 0.5394454600
3113, 0.7013546820, 0.5289810900
3114, 0.6967493300, 0.5305920840
3115, 0.6920593980, 0.5309873820
3116, 0.7027018070, 0.5330812930
3117, 0.6892679330, 0.5266909600
3118, 0.7929022910, 0.4469138980
3119, 0.6139346360, 0.4152095620
3120, 0.9871200320, 0.5962056520
3121, 0.8835783600, 0.4516963360
3122, 0.3893648390, 0.5282563570
3123, 0.9309505820, 0.4649551510
3124, 0.7759574650, 0.6116412880
3125, 0.9522216920, 0.5870131250
3126, 0.8639242650, 0.4661417900
3127, 0.6871601940, 0.5948522690
3128, 0.7335976960, 0.5945495960
3129, 0.4391314390, 0.5629273060
3130, 0.9364351030, 0.5852201580
3131, 0.3940728310, 0.4675099850
3132, 0.6540845040, 0.5992086530
3133, 0.6435186860, 0.4215680360
3134, 0.8825912480, 0.6003811360
3135, 0.6871827240, 0.4072523420
3136, 0.3911807240, 0.4833592770
3137, 0.4481405020, 0.5573667290
3138, 0.7945824860, 0.6209850910
3139, 0.5943222050, 0.5898945930
3140, 0.8494744300, 0.6007234450
3141, 0.8565154080, 0.6084696050
3142, 0.7474350930, 0.5983439090
3143, 0.4074562190, 0.5527030230
3144, 0.8989472390, 0.4507144690
3145, 0.7606201770, 0.4407327180
3146, 0.8098971840, 0.6153926850
3147, 0.4597313110, 0.3953620200
3148, 0.5550620560, 0.5950716140
3149, 0.8092917800, 0.4587174360
3150, 0.6059687730, 0.5974182490
3151, 0.9443625810, 0.4591720700
3152, 0.6218714710, 0.6036708350
3153, 0.4295033220, 0.5432242750
3154, 0.4391261940, 0.5784149170
3155, 0.3898558910, 0.5139258500
3156, 0.7331473830, 0.4153090720
3157, 0.9873490930, 0.4566768410
3158, 0.6046569940, 0.4039537910
3159, 0.7440917490, 0.4311182800
3160, 0.4785824120, 0.4171342250
3161, 0.4675846990, 0.5709759590
3162, 0.8522449730, 0.4480654900
3163, 0.4727052150, 0.9821288590
3164, 0.4540297390, 0.9817278390
3165, 0.3749890030, 0.4800924360
3166, 0.3738236430, 0.5152177210
3167, 0.9840963480, 0.0932663828
3168, 0.9834200740, 0.0749762431
3169, 0.9840724470, 0.1116204340
3170, 0.4915359620, 0.9822909240
3171, 0.9824447040, 0.0565935783
3172, 0.4353604610, 0.9811353680
3173, 0.4862775210, 0.5827595000
3174, 0.4879497590, 0.4042434990
3175, 0.1185829120, 0.0178309157
3176, 0.0992324725, 0.0198624060
3177, 0.9831225280, 0.1302587540
3178, 0.1374558810, 0.0161100086
3179, 0.6873252390, 0.9794358610
3180, 0.6675736900, 0.9778449540
3181, 0.7068158980, 0.9808624980
3182, 0.0792153999, 0.0201832540
3183, 0.9815000890, 0.0380081385
3184, 0.9844754930, 0.3259494010
3185, 0.9844813350, 0.3440439400
3186, 0.9829027650, 0.3078342080
3187, 0.9852066040, 0.6116626860
3188, 0.9422323700, 0.9816842680
3189, 0.9613134860, 0.9811676140
3190, 0.9817351100, 0.3624385600
3191, 0.9828269480, 0.8238043790
3192, 0.9827232360, 0.8049629330
3193, 0.9827190040, 0.8426237110
3194, 0.1560092870, 0.0150871165
3195, 0.6475951670, 0.9781590700
3196, 0.7259932760, 0.9816118480
3197, 0.4398401680, 0.4275611940
3198, 0.0181752294, 0.3617706600
3199, 0.0593473502, 0.0204728395
3200, 0.0191638973, 0.9413858060
3201, 0.9823843240, 0.7860105630
3202, 0.3714852630, 0.0194322076
3203, 0.5105919840, 0.9822205900
3204, 0.9823506470, 0.8615176680
3205, 0.4165245890, 0.9803127050
3206, 0.1785103380, 0.9816976790
3207, 0.0194858909, 0.9607936140
3208, 0.0182747692, 0.3811187740
3209, 0.1594740000, 0.9820293780
3210, 0.9807249310, 0.2893064920
3211, 0.3513927760, 0.0215888508
3212, 0.9229053260, 0.9819985630
3213, 0.3906363250, 0.0176033787
3214, 0.9805026650, 0.9806576970
3215, 0.9812315110, 0.1492919620
3216, 0.1978076400, 0.9811506870
3217, 0.3566809300, 0.4782708290
3218, 0.3560970720, 0.5164699550
3219, 0.9753697510, 0.3824929300
3220, 0.0189039595, 0.9217974540
3221, 0.9817711110, 0.7668443920
3222, 0.0184245408, 0.3422007860
3223, 0.9815616010, 0.8806828860
3224, 0.3307439980, 0.0231572371
3225, 0.0397128686, 0.0205225702
3226, 0.1404545160, 0.9820834990
3227, 0.0197700299, 0.9802702670
3228, 0.8230719570, 0.0183695462
3229, 0.6461355690, 0.0218038876
3230, 0.4094313980, 0.0164820813
3231, 0.1746303740, 0.0145990988
3232, 0.6662683490, 0.0198574215
3233, 0.8423762320, 0.0174316131
3234, 0.9784691930, 0.2697677610
3235, 0.7452038530, 0.9818794130
3236, 0.6278538700, 0.9788537030
3237, 0.0186862051, 0.4003662470
3238, 0.8036035300, 0.0194056686
3239, 0.2173424660, 0.9804887180
3240, 0.9808884860, 0.7475524540
3241, 0.6257892250, 0.0238862410
3242, 0.9802713390, 0.4040285350
3243, 0.3370503780, 0.4776358600
3244, 0.3374358120, 0.5174169540
3245, 0.9790341850, 0.1686377670
3246, 0.3103180230, 0.0216682404
3247, 0.9801909330, 0.9004266860
3248, 0.8615967630, 0.0169631112
3249, 0.0199151430, 0.0204003975
3250, 0.6858270760, 0.0189391971
3251, 0.9032177330, 0.9818520550
3252, 0.4285843670, 0.0167926177
3253, 0.7841110230, 0.0201346949
3254, 0.9833653570, 0.6293668150
3255, 0.9799064990, 0.7279805540
3256, 0.9792582990, 0.6679933070
3257, 0.9785465000, 0.7079335450
3258, 0.9775924680, 0.6879968640
3259, 0.9813863040, 0.6483362910
3260, 0.9802569750, 0.9610797760
3261, 0.9766234160, 0.2494281380
3262, 0.1934881810, 0.0145353237
3263, 0.6055286530, 0.0233025905
3264, 0.9795042280, 0.9410368800
3265, 0.9788236620, 0.9206704500
3266, 0.1796834920, 0.4805727600
3267, 0.1792260560, 0.5202820900
3268, 0.9786265490, 0.1888031660
3269, 0.9833979010, 0.4230314790
3270, 0.9856148360, 0.4409529570
3271, 0.9773294930, 0.2292675520
3272, 0.9782620070, 0.2090536800
3273, 0.4478234950, 0.0178218540
3274, 0.1598555150, 0.4803894160
3275, 0.1590667520, 0.5195446610
3276, 0.5855032800, 0.0218787305
3277, 0.2901712060, 0.0195637755
3278, 0.8810147050, 0.0173466466
3279, 0.4671693150, 0.0186760332
3280, 0.0187633988, 0.9021556380
3281, 0.7643262740, 0.0200657770
3282, 0.9612439870, 0.0194077585
3283, 0.5658026930, 0.0202492047
3284, 0.1992960270, 0.4807001650
3285, 0.1991263180, 0.5206532480
3286, 0.5299419760, 0.9819087980
3287, 0.7051665780, 0.0187946185
3288, 0.2125705030, 0.0148159098
3289, 0.9413078430, 0.0201267563
3290, 0.9009835720, 0.0187972691
3291, 0.2704889180, 0.0177467540
3292, 0.2317773550, 0.0154349469
3293, 0.5460724230, 0.0189749151
3294, 0.7246395350, 0.0190732889
3295, 0.5263385180, 0.0183746424
3296, 0.4867330790, 0.0187153891
3297, 0.9212343100, 0.0205606055
3298, 0.7443856000, 0.0195820685
3299, 0.2510679070, 0.0163805932
3300, 0.5065101980, 0.0184157752
3301, 0.1210391150, 0.9816736580
3302, 0.3969568910, 0.9791700240
3303, 0.1398554300, 0.4799086150
3304, 0.1390194590, 0.5189705490
3305, 0.0189025048, 0.3226226270
3306, 0.2370686680, 0.9798142910
3307, 0.2189784350, 0.5201975700
3308, 0.2189038690, 0.4810240270
3309, 0.3171644210, 0.4794939760
3310, 0.3183567230, 0.5177170630
3311, 0.6083020570, 0.9795194270
3312, 0.7645911570, 0.9818173050
3313, 0.1198468430, 0.4793806970
3314, 0.1191718430, 0.5187677740
3315, 0.0202070847, 0.1428444830
3316, 0.8834043150, 0.9813382030
3317, 0.2390067880, 0.5193012950
3318, 0.2386326640, 0.4813409150
3319, 0.0206207074, 0.1635348350
3320, 0.2971209880, 0.4811103050
3321, 0.2987583880, 0.5177438860
3322, 0.0191384349, 0.4198427200
3323, 0.2581437530, 0.4815418420
3324, 0.2589859370, 0.5184285040
3325, 0.0998614058, 0.4792584180
3326, 0.0993762910, 0.5188609360
3327, 0.2774752680, 0.4816488030
3328, 0.2788938280, 0.5179025530
3329, 0.0798127800, 0.4793756310
3330, 0.0795461684, 0.5191006060
3331, 0.1010297760, 0.9805526730
3332, 0.0398169532, 0.4797173440
3333, 0.0398846529, 0.5197432640
3334, 0.0597916655, 0.4795656500
3335, 0.0597314984, 0.5194274780
3336, 0.5758371350, 0.6067481040
3337, 0.2567578850, 0.9794377090
3338, 0.5494620200, 0.9814193250
3339, 0.3767216500, 0.9781175260
3340, 0.0397038572, 0.9800670150
3341, 0.5886884930, 0.9801902770
3342, 0.2964797910, 0.9801626800
3343, 0.2765670420, 0.9796816710
3344, 0.3162926140, 0.9804229140
3345, 0.3360827860, 0.9801620240
3346, 0.8634626870, 0.9808231590
3347, 0.0805728436, 0.9791599510
3348, 0.0599835590, 0.9795537590
3349, 0.7841483350, 0.9815139770
3350, 0.3562492430, 0.9791933890
3351, 0.8237996100, 0.9806621670
3352, 0.5690667030, 0.9808191060
3353, 0.8038853410, 0.9810852410
3354, 0.8436636920, 0.9804971810
3355, 0.0195894111, 0.1222919900
3356, 0.0186499059, 0.8824833040
3357, 0.0193325710, 0.1836612670
3358, 0.0191011224, 0.3028173450
3359, 0.0192606598, 0.1018507480
3360, 0.0194749534, 0.4396465720
3361, 0.0183499902, 0.8423963190
3362, 0.0191491041, 0.7827129360
3363, 0.0197037961, 0.7027819750
3364, 0.0208786651, 0.6624184850
3365, 0.0220157467, 0.6216582060
3366, 0.0210755356, 0.5806089040
3367, 0.0205098186, 0.5602455740
3368, 0.0216084775, 0.6420410870
3369, 0.0194377881, 0.7227952480
3370, 0.0192539711, 0.7627753020
3371, 0.0185921695, 0.8223947290
3372, 0.0193120502, 0.7427865860
3373, 0.0201484319, 0.5400705340
3374, 0.0217057094, 0.6011613610
3375, 0.0201952793, 0.6826524730
3376, 0.0189013947, 0.8025390510
3377, 0.0183915179, 0.8625413780
3378, 0.0184793118, 0.2036447970
3379, 0.0189891905, 0.2828829290
3380, 0.0194541626, 0.0812871829
3381, 0.0182511695, 0.2233856320
3382, 0.0184041020, 0.2431479540
3383, 0.0198934283, 0.0609839633
3384, 0.0200100429, 0.0407466553
3385, 0.0187036712, 0.2629900870
3386, 0.0197313130, 0.4596664610
3387, 0.5113013390, 0.6015611890
3388, 0.8196514250, 0.4530194400
3389, 0.8947042820, 0.6066512470
3390, 0.9608580470, 0.5935925840
3391, 0.4103209670, 0.4580625300
3392, 0.5381784440, 0.6012110110
3393, 0.5823882820, 0.4058999720
3394, 0.5045248870, 0.4066802860
3395, 0.4239423870, 0.4429402950
3396, 0.4238707130, 0.5594416860
3397, 0.8033761380, 0.4523898360
3398, 0.4708521960, 0.5888359550
3399, 0.9498850700, 0.6083652970
3400, 0.4740421770, 0.4033556880
3401, 0.7304111720, 0.6077799200
3402, 0.5671970840, 0.3879495560
3403, 0.7793325780, 0.6252570750
3404, 0.5628218650, 0.6118354800
3405, 0.6189119220, 0.3969621060
3406, 0.7813543680, 0.4395646150
3407, 0.8574229480, 0.4555418190
3408, 0.8864822390, 0.6163608430
3409, 0.6543201210, 0.6155191060
3410, 0.6812779900, 0.6057686810
3411, 0.3737172190, 0.5309584140
3412, 0.9736632700, 0.4551984970
3413, 0.3908787670, 0.5428293940
3414, 0.7560442690, 0.4209518130
3415, 0.8752202990, 0.6087336540
3416, 0.7223249670, 0.4014666380
3417, 0.6629118320, 0.6072828170
3418, 0.4446174200, 0.5945682530
3419, 0.4914181530, 0.6079881790
3420, 0.4569224420, 0.5992139580
3421, 0.5866626500, 0.5990774630
3422, 0.6344920400, 0.6161331530
3423, 0.8455655570, 0.6147462130
3424, 0.5910118820, 0.3902831970
3425, 0.9139754770, 0.4358322620
3426, 0.8320037720, 0.4457421300
3427, 0.9104052780, 0.6132817270
3428, 0.9542714360, 0.4421994390
3429, 0.4476957320, 0.4108505850
3430, 0.9734741450, 0.5967603330
3431, 0.6115044360, 0.6181510690
3432, 0.6719670300, 0.3978043790
3433, 0.4107555750, 0.4430961010
3434, 0.4988045990, 0.3946486710
3435, 0.5447348360, 0.3864767250
3436, 0.4555239680, 0.9638702270
3437, 0.7152148490, 0.6033875940
3438, 0.9670567510, 0.0750045404
3439, 0.9686491490, 0.0926209092
3440, 0.4741839470, 0.9646099810
3441, 0.9647694230, 0.0569504574
3442, 0.9687266950, 0.1099760980
3443, 0.1408019360, 0.0316982083
3444, 0.3562525210, 0.5338914390
3445, 0.1023144720, 0.0406285897
3446, 0.9704046850, 0.4404931370
3447, 0.6904489990, 0.9602056150
3448, 0.4928069710, 0.9647220370
3449, 0.9658544660, 0.3097594380
3450, 0.1584371780, 0.0301515907
3451, 0.9703675510, 0.3414209780
3452, 0.9423552750, 0.9637026790
3453, 0.9653046730, 0.8051568270
3454, 0.9648378490, 0.8600113990
3455, 0.0380080082, 0.9412992600
3456, 0.8807119730, 0.4407806100
3457, 0.3934354190, 0.0349971689
3458, 0.1786743700, 0.9632578490
3459, 0.0358219184, 0.3623416720
3460, 0.0600267127, 0.0408953167
3461, 0.3542963860, 0.0420395881
3462, 0.1418447790, 0.9643201230
3463, 0.7280408140, 0.9635040760
3464, 0.0373711251, 0.4002283810
3465, 0.9575246570, 0.2726183530
3466, 0.1976770760, 0.9622743130
3467, 0.9036962990, 0.9644435050
3468, 0.9635207650, 0.7681561110
3469, 0.6491537690, 0.0420934819
3470, 0.0373555981, 0.9018020630
3471, 0.8616172670, 0.0334545150
3472, 0.4281028810, 0.0333032496
3473, 0.7612753510, 0.6129769680
3474, 0.9617063400, 0.4077409510
3475, 0.3071258070, 0.0426636375
3476, 0.9575169680, 0.7101823690
3477, 0.9553836580, 0.2272047850
3478, 0.9598909620, 0.9424368140
3479, 0.6035615210, 0.0467184260
3480, 0.1803939790, 0.4612592160
3481, 0.1787489950, 0.5404914620
3482, 0.3142528830, 0.4602198900
3483, 0.4863348600, 0.0378202125
3484, 0.7647699120, 0.0404514112
3485, 0.5637742880, 0.0400340408
3486, 0.9429115650, 0.0398501344
3487, 0.2678855660, 0.0351310596
3488, 0.5256311300, 0.0361330807
3489, 0.1381916700, 0.5373176340
3490, 0.5302938820, 0.9634927510
3491, 0.2367309180, 0.9590628740
3492, 0.0991611630, 0.5376130940
3493, 0.7653548720, 0.9633508920
3494, 0.2795130310, 0.5356220600
3495, 0.0598388240, 0.5389127730
3496, 0.8638055920, 0.9615603090
3497, 0.3160558640, 0.9610334040
3498, 0.8037465810, 0.9620279670
3499, 0.0377376080, 0.1873444170
3500, 0.0391440280, 0.4394689500
3501, 0.0388884060, 0.7240010500
3502, 0.0365447737, 0.2254447490
3503, 0.0401111469, 0.0617309995
3504, 0.9416028260, 0.5954125520
3505, 0.5977061990, 0.6091087460
3506, 0.5261341330, 0.6145057680
3507, 0.5499328370, 0.6188050510
3508, 0.9274654390, 0.5996550920
3509, 0.6445501450, 0.4046391840
3510, 0.5214096900, 0.4020357430
3511, 0.3956444860, 0.4467825890
3512, 0.2766118350, 0.4634864930
3513, 0.0401263125, 0.6843755250
3514, 0.5685216190, 0.9612042310
3515, 0.6976851820, 0.3964079320
3516, 0.2768939140, 0.9589965940
3517, 0.1406879570, 0.4602841440
3518, 0.0431822725, 0.6435101630
3519, 0.0394843742, 0.1435871420
3520, 0.8989815710, 0.0363062583
3521, 0.7248770000, 0.0381616503
3522, 0.0998658165, 0.4584143760
3523, 0.9613547920, 0.8978801370
3524, 0.1940203460, 0.0293954387
3525, 0.1035380140, 0.9621928930
3526, 0.0432105809, 0.6009584670
3527, 0.0375758447, 0.1026923430
3528, 0.9631252880, 0.1452909410
3529, 0.6072372200, 0.9588148590
3530, 0.9372848270, 0.4458275440
3531, 0.0591262393, 0.9598236680
3532, 0.0594984479, 0.4592263400
3533, 0.0406350717, 0.5595745440
3534, 0.2306510810, 0.0310396496
3535, 0.3544634280, 0.9592600460
3536, 0.9580960270, 0.1873181020
3537, 0.6873885390, 0.0374338031
3538, 0.9658192400, 0.6286259890
3539, 0.4369205830, 0.9625957010
3540, 0.6466172930, 0.9569404720
3541, 0.9585480090, 0.6659975650
3542, 0.3991697430, 0.9590346810
3543, 0.3579434450, 0.4556874330
3544, 0.4811450540, 0.6042856570
3545, 0.5858765240, 0.6209453940
3546, 0.7458671930, 0.6115926500
3547, 0.9315472840, 0.4316208960
3548, 0.7350469230, 0.3943431380
3549, 0.0585311539, 0.3044812980
3550, 0.1449258770, 0.0469394065
3551, 0.8651980760, 0.9430634980
3552, 0.1968838720, 0.9436280130
3553, 0.4252271060, 0.0490297489
3554, 0.8014642000, 0.4369018380
3555, 0.8030373450, 0.9430293440
3556, 0.8411795500, 0.6322354670
3557, 0.0534623675, 0.8612107630
3558, 0.1763227880, 0.5598212480
3559, 0.1802790610, 0.4424992200
3560, 0.9370040300, 0.3978284000
3561, 0.7900153400, 0.4294402000
3562, 0.5300654170, 0.9448415640
3563, 0.6811157460, 0.6249533300
3564, 0.9543148280, 0.1080218850
3565, 0.4874775710, 0.0566575080
3566, 0.9296418430, 0.6116424800
3567, 0.3944352870, 0.5577824120
3568, 0.9464084510, 0.8756740090
3569, 0.2801482380, 0.5528040530
3570, 0.9533476830, 0.3471350670
3571, 0.7849327920, 0.6391280290
3572, 0.7688425180, 0.4309781190
3573, 0.4304977950, 0.5699164870
3574, 0.4322829540, 0.5879032020
3575, 0.8621882800, 0.0494624227
3576, 0.8882554770, 0.6344863770
3577, 0.9050978420, 0.9485725160
3578, 0.8170257210, 0.6289978030
3579, 0.9477146270, 0.8054105040
3580, 0.0524874926, 0.3629343810
3581, 0.8659148220, 0.4443677070
3582, 0.6481243970, 0.6270206570
3583, 0.0554521345, 0.9020721910
3584, 0.5712159280, 0.6250630620
3585, 0.4757179620, 0.9476357100
3586, 0.8462870720, 0.4359331730
3587, 0.3997300570, 0.0538594760
3588, 0.1423370240, 0.9299744370
3589, 0.3799406590, 0.5626692180
3590, 0.6020524500, 0.6316167120
3591, 0.3210825320, 0.4360222220
3592, 0.4108577070, 0.4265332520
3593, 0.4455209080, 0.3863757250
3594, 0.6117926840, 0.3833349650
3595, 0.8967320920, 0.4380576010
3596, 0.5035031440, 0.6156264540
3597, 0.7258785960, 0.3799243270
3598, 0.7299209830, 0.9455940720
3599, 0.0549193062, 0.2270243320
3600, 0.2770807450, 0.4460823540
3601, 0.0582764260, 0.7251869440
3602, 0.4863487180, 0.3867071270
3603, 0.2348165510, 0.9382131100
3604, 0.5188354250, 0.3824275730
3605, 0.7657966610, 0.9445841910
3606, 0.7637289170, 0.0603324622
3607, 0.0548543148, 0.1926181470
3608, 0.6552448870, 0.3893563150
3609, 0.5673850180, 0.9411298040
3610, 0.1371928600, 0.5548020600
3611, 0.0596910119, 0.6865010860
3612, 0.1428056360, 0.4420718550
3613, 0.5250274540, 0.0528508276
3614, 0.2786141040, 0.9387589100
3615, 0.1226468610, 0.0345361158
3616, 0.3178689180, 0.5552811620
3617, 0.4314665200, 0.4041569830
3618, 0.6328706740, 0.3911059800
3619, 0.4127725060, 0.5662748220
3620, 0.9385349150, 0.9077220560
3621, 0.7095118170, 0.9626125100
3622, 0.7246400710, 0.0572993606
3623, 0.0800587684, 0.0391073786
3624, 0.6058201190, 0.9375975730
3625, 0.9084180000, 0.0579104200
3626, 0.0362260491, 0.3813429470
3627, 0.3748077750, 0.0379989371
3628, 0.0573411733, 0.1425748620
3629, 0.3588500920, 0.5513322950
3630, 0.9647724030, 0.7868050930
3631, 0.1943404970, 0.0444141813
3632, 0.9398206470, 0.1503199040
3633, 0.0641914234, 0.6463425760
3634, 0.5114590530, 0.9643031360
3635, 0.5603581670, 0.6330082420
3636, 0.9495895500, 0.3147816360
3637, 0.0934056193, 0.9407643080
3638, 0.0992903039, 0.4376741650
3639, 0.0993308350, 0.5561878680
3640, 0.9459930660, 0.7705054880
3641, 0.3162302970, 0.9416079520
3642, 0.0563038141, 0.3990683850
3643, 0.3185751440, 0.5362774730
3644, 0.5595250730, 0.0583639517
3645, 0.3772035540, 0.4342833760
3646, 0.6884520650, 0.0555485077
3647, 0.7002056240, 0.5999813080
3648, 0.0637687966, 0.5991363530
3649, 0.7667759660, 0.4121352730
3650, 0.3437964020, 0.0683292523
3651, 0.0684422553, 0.1036835690
3652, 0.9414790270, 0.9462447170
3653, 0.9471485020, 0.0588026159
3654, 0.9389337900, 0.1877056960
3655, 0.2289595160, 0.0466308221
3656, 0.0562815368, 0.9406765700
3657, 0.0589405596, 0.4390012620
3658, 0.3655231300, 0.9355410340
3659, 0.4392210840, 0.9441130760
3660, 0.9384516480, 0.7158810500
3661, 0.0603109337, 0.5585100650
3662, 0.6608719230, 0.9347797630
3663, 0.0621936917, 0.0634029359
3664, 0.9439746740, 0.6437971000
3665, 0.5986789460, 0.0691627786
3666, 0.6817996500, 0.9377968910
3667, 0.9331663850, 0.6759889720
3668, 0.4040236470, 0.9403426050
3669, 0.9322605730, 0.2617941800
3670, 0.2641271650, 0.0521041416
3671, 0.2997781040, 0.0619972609
3672, 0.9350326060, 0.2217046170
3673, 0.6420593860, 0.0677830502
3674, 0.8118265870, 0.4443509880
3675, 0.4536252020, 0.6105059980
3676, 0.0365837365, 0.3430139120
3677, 0.5061850550, 0.0364971347
3678, 0.4103437660, 0.0320984237
3679, 0.8798877000, 0.0336989462
3680, 0.1601901350, 0.9638813730
3681, 0.9637668130, 0.8785475490
3682, 0.1230135340, 0.9640195370
3683, 0.9232729080, 0.9648048880
3684, 0.1760953070, 0.0294314511
3685, 0.0373231694, 0.9215653540
3686, 0.9694980380, 0.3260588650
3687, 0.6827599410, 0.3817404210
3688, 0.9669231180, 0.1274882260
3689, 0.5155034660, 0.6265045400
3690, 0.5697811250, 0.3719989960
3691, 0.3851966260, 0.5788575410
3692, 0.6946164970, 0.6145367620
3693, 0.4261049330, 0.5990067720
3694, 0.8108484750, 0.4269373710
3695, 0.7625216840, 0.6283611660
3696, 0.8618171220, 0.4338471590
3697, 0.9558632370, 0.3288002910
3698, 0.9300980570, 0.6251364350
3699, 0.4787792270, 0.3678039610
3700, 0.0535113066, 0.3450074200
3701, 0.5495665070, 0.6426872010
3702, 0.9257690910, 0.4167499540
3703, 0.1157580090, 0.0559018105
3704, 0.4601233010, 0.9304414990
3705, 0.8439868090, 0.4135278170
3706, 0.8760674600, 0.4286170300
3707, 0.6408505440, 0.3814101520
3708, 0.9081957340, 0.9344506260
3709, 0.8893725870, 0.6536236410
3710, 0.0727667809, 0.9044390920
3711, 0.6165168880, 0.6415920850
3712, 0.4925979670, 0.0739582181
3713, 0.7566356060, 0.4008115230
3714, 0.0684349909, 0.3626187740
3715, 0.6689835190, 0.6347064970
3716, 0.4670469760, 0.6142901780
3717, 0.4401995540, 0.6054324510
3718, 0.0596953481, 0.3264127370
3719, 0.9442451600, 0.3360126610
3720, 0.8855690360, 0.9441506270
3721, 0.0578907579, 0.8815363050
3722, 0.4181101620, 0.0628101826
3723, 0.8426123860, 0.6491078730
3724, 0.8003537060, 0.6506891250
3725, 0.6551612020, 0.6426891680
3726, 0.9279665950, 0.8880340460
3727, 0.2154429260, 0.9414552450
3728, 0.9299404620, 0.7888345120
3729, 0.1266010550, 0.9310843350
3730, 0.1615829170, 0.4432864190
3731, 0.3670183720, 0.0746714100
3732, 0.7842301130, 0.9438565370
3733, 0.8776814940, 0.0632288828
3734, 0.0878627971, 0.0664950982
3735, 0.1563033760, 0.5557831530
3736, 0.9408494230, 0.0940768123
3737, 0.2977639140, 0.5691254140
3738, 0.5485903020, 0.9430390600
3739, 0.1242242460, 0.0664898902
3740, 0.3084621430, 0.4446754460
3741, 0.3439872260, 0.4308288990
3742, 0.6716099380, 0.0553385727
3743, 0.4108614620, 0.4092317220
3744, 0.9400432710, 0.2978463770
3745, 0.6252074240, 0.9362351890
3746, 0.5423678760, 0.0544791445
3747, 0.6439776420, 0.9364855890
3748, 0.6727055310, 0.9303548930
3749, 0.0578391105, 0.1230963250
3750, 0.9293547270, 0.9187423590
3751, 0.0536301211, 0.3808768090
3752, 0.0579919405, 0.4188065230
3753, 0.3605386020, 0.4346019920
3754, 0.3387477400, 0.5589780210
3755, 0.0837619007, 0.9340210560
3756, 0.7061397430, 0.0568786897
3757, 0.7476844190, 0.9452660080
3758, 0.9368748660, 0.1715086700
3759, 0.1184685010, 0.5553173420
3760, 0.0729671642, 0.2107678950
3761, 0.2566696410, 0.9332571030
3762, 0.2978310880, 0.9409142730
3763, 0.1215867700, 0.4359930460
3764, 0.2932032640, 0.4472542700
3765, 0.7437015770, 0.0581036136
3766, 0.0587223656, 0.7058612700
3767, 0.5864238140, 0.9392856360
3768, 0.3165566030, 0.0700549036
3769, 0.3607068660, 0.0597981215
3770, 0.2115394320, 0.0450767316
3771, 0.0613612458, 0.6668511630
3772, 0.9167258740, 0.0711532161
3773, 0.9409662490, 0.7515465020
3774, 0.9381591680, 0.2048148960
3775, 0.3336166140, 0.9417745470
3776, 0.4001542630, 0.5733543040
3777, 0.0694432631, 0.6229804160
3778, 0.0797849000, 0.5572720170
3779, 0.0715328977, 0.0895532519
3780, 0.5780448320, 0.0676660538
3781, 0.0788479000, 0.4383859040
3782, 0.9392367600, 0.6603704690
3783, 0.6555445790, 0.0583892912
3784, 0.3501123490, 0.9413574340
3785, 0.3884227870, 0.9360209700
3786, 0.0613893829, 0.5783684250
3787, 0.9394485950, 0.2781110110
3788, 0.9311369660, 0.7008909580
3789, 0.2464991960, 0.0489275530
3790, 0.6169405580, 0.0738973096
3791, 0.5265526770, 0.6394495370
3792, 0.9290901420, 0.2371871620
3793, 0.8258233670, 0.6443730000
3794, 0.2819217150, 0.0563093945
3795, 0.6814911370, 0.3660936650
3796, 0.4769256110, 0.6307795050
3797, 0.5306409000, 0.3632707000
3798, 0.5717186330, 0.3557686510
3799, 0.5552266840, 0.3546278480
3800, 0.0807911679, 0.0555205755
3801, 0.7764893170, 0.4038780330
3802, 0.0548235327, 0.9212858680
3803, 0.9233874080, 0.9490085840
3804, 0.6089358930, 0.3681628700
3805, 0.4215237800, 0.9414816500
3806, 0.7444623110, 0.6263350840
3807, 0.7151399850, 0.9280120730
3808, 0.0586284176, 0.1794624920
3809, 0.4776126150, 0.3570069370
3810, 0.9477489590, 0.6264978050
3811, 0.3913230900, 0.3789201970
3812, 0.0726663768, 0.9383736250
3813, 0.6960212590, 0.9428990480
3814, 0.6360352040, 0.6491583590
3815, 0.0541613698, 0.1031538550
3816, 0.9306806920, 0.0632616132
3817, 0.9379309420, 0.9305009840
3818, 0.9015912410, 0.6439548130
3819, 0.5927762390, 0.6443238850
3820, 0.1082336080, 0.9453474280
3821, 0.9311531190, 0.1295330670
3822, 0.9512454870, 0.0763672516
3823, 0.0603373721, 0.1589402260
3824, 0.1638058720, 0.0604448728
3825, 0.1775596290, 0.0444811247
3826, 0.4480535980, 0.3620340230
3827, 0.1604730780, 0.9450480940
3828, 0.3685943190, 0.5842958690
3829, 0.8851690290, 0.4097154740
3830, 0.5067974930, 0.0536628067
3831, 0.9466199870, 0.1377596710
3832, 0.4940624240, 0.9305464630
3833, 0.9491700530, 0.4274834990
3834, 0.8942674990, 0.0512100086
3835, 0.7870567440, 0.0658566654
3836, 0.2588082250, 0.4418112930
3837, 0.0558665544, 0.2455743100
3838, 0.0582117178, 0.7446025010
3839, 0.1783708930, 0.9268763660
3840, 0.5113372800, 0.9284831880
3841, 0.2642291190, 0.5715741520
3842, 0.2599993050, 0.5366051200
3843, 0.7844859360, 0.3960784080
3844, 0.3908312020, 0.5946797130
3845, 0.0746678486, 0.1438417140
3846, 0.1789778620, 0.0598334000
3847, 0.0709375441, 0.9211020470
3848, 0.7005677220, 0.9268038270
3849, 0.4224931300, 0.6121749280
3850, 0.9227779510, 0.9353824850
3851, 0.1072271690, 0.0660146773
3852, 0.7989839910, 0.4192479250
3853, 0.4635744090, 0.6270111200
3854, 0.0778919384, 0.0762342364
3855, 0.9243754740, 0.1414438780
3856, 0.1597214490, 0.9234353300
3857, 0.9301536680, 0.3840020900
3858, 0.7417930960, 0.6417427060
3859, 0.6049342750, 0.6590659020
3860, 0.9199594260, 0.6881693010
3861, 0.9215080740, 0.7230654950
3862, 0.4362567960, 0.6174333690
3863, 0.7276756760, 0.6219161750
3864, 0.3060142100, 0.0874648914
3865, 0.6329047080, 0.0830910876
3866, 0.2755976020, 0.0734695792
3867, 0.3600549400, 0.6077461840
3868, 0.4090121690, 0.5907670260
3869, 0.9191127420, 0.2499457900
3870, 0.6113064290, 0.0931419730
3871, 0.7173085810, 0.3648113910
3872, 0.9162019490, 0.2158775180
3873, 0.6978502270, 0.6266309620
3874, 0.9277993440, 0.1123059320
3875, 0.6601802110, 0.9179926510
3876, 0.4877106550, 0.6342363360
3877, 0.8361415860, 0.3929211800
3878, 0.4712327420, 0.3810009960
3879, 0.8958528640, 0.9303207990
3880, 0.0768527761, 0.8887580630
3881, 0.0663071573, 0.3488605320
3882, 0.6874467730, 0.0735440478
3883, 0.5709646940, 0.6441284420
3884, 0.1352094560, 0.0643856972
3885, 0.4763964120, 0.0813450664
3886, 0.9265295860, 0.3126120870
3887, 0.9335383770, 0.3451369400
3888, 0.8530945180, 0.6419921520
3889, 0.4346412120, 0.0707757771
3890, 0.6036567090, 0.9163283110
3891, 0.0754131228, 0.1305978300
3892, 0.3820756080, 0.0716977865
3893, 0.8697203990, 0.9272960420
3894, 0.3296059970, 0.4219583270
3895, 0.0773559362, 0.3225799500
3896, 0.0681847855, 0.8597621920
3897, 0.9298399090, 0.8054148550
3898, 0.7820255760, 0.6636099220
3899, 0.9293113350, 0.8732233050
3900, 0.9198130370, 0.4018554090
3901, 0.8641234040, 0.0654475391
3902, 0.9177395110, 0.9116876130
3903, 0.1954692600, 0.9255077240
3904, 0.5138742330, 0.6499719620
3905, 0.0986743048, 0.9257820250
3906, 0.5246451500, 0.0682187900
3907, 0.1696944090, 0.5764501690
3908, 0.1780203580, 0.4246090650
3909, 0.8020515440, 0.9238779540
3910, 0.5162099600, 0.3522627350
3911, 0.7246353630, 0.0764173046
3912, 0.9320903420, 0.1588797420
3913, 0.9008009430, 0.0664752722
3914, 0.3305118380, 0.0820085481
3915, 0.3138762710, 0.5734612350
3916, 0.2809317110, 0.5692976120
3917, 0.0857754126, 0.0958091542
3918, 0.4062497910, 0.9223716260
3919, 0.9195689560, 0.2015531060
3920, 0.1329735820, 0.4241502880
3921, 0.1367261110, 0.5713530180
3922, 0.1944640870, 0.0593836978
3923, 0.7479571700, 0.3877553940
3924, 0.3166103070, 0.9219944480
3925, 0.3774838150, 0.9246977570
3926, 0.5290269850, 0.9259215000
3927, 0.5651045440, 0.0777478516
3928, 0.9289507870, 0.7611100080
3929, 0.2829447690, 0.9203302260
3930, 0.2805328370, 0.4301056860
3931, 0.5654982330, 0.9205461740
3932, 0.4916423260, 0.3503829840
3933, 0.6678326130, 0.3581635650
3934, 0.7596102360, 0.0778103098
3935, 0.7657927270, 0.9252439140
3936, 0.2297389060, 0.9183076620
3937, 0.5375141500, 0.6533607840
3938, 0.0737096891, 0.2279537320
3939, 0.0807898417, 0.6704205270
3940, 0.0775818527, 0.7262662650
3941, 0.5409297940, 0.3479356470
3942, 0.4430362580, 0.9261516330
3943, 0.1000112890, 0.5743573900
3944, 0.5891485210, 0.3540764750
3945, 0.7311606410, 0.9276059270
3946, 0.0897547975, 0.6355451940
3947, 0.2430749980, 0.0648658350
3948, 0.5817477110, 0.6521586180
3949, 0.0717383549, 0.1954488160
3950, 0.9364271160, 0.0797408670
3951, 0.4065710010, 0.3577707710
3952, 0.4250913860, 0.3523806040
3953, 0.6654074190, 0.6594142910
3954, 0.4771448970, 0.9315227270
3955, 0.9257665870, 0.6398357750
3956, 0.8781158330, 0.3945219520
3957, 0.7779636380, 0.3886488080
3958, 0.8087288740, 0.0591133684
3959, 0.6446540360, 0.3665891590
3960, 0.2391078620, 0.4445286990
3961, 0.6072710160, 0.3514219520
3962, 0.4677583280, 0.3633051510
3963, 0.0969785824, 0.4172058110
3964, 0.0824385583, 0.5943631530
3965, 0.0571680106, 0.2647797170
3966, 0.0584498420, 0.7642405630
3967, 0.2468829010, 0.5748751160
3968, 0.8074848060, 0.4084967670
3969, 0.6464123730, 0.6630014780
3970, 0.4606666860, 0.3553072810
3971, 0.7650609020, 0.6481338740
3972, 0.7114161850, 0.3874813620
3973, 0.9005451800, 0.6648502350
3974, 0.3630206580, 0.4165205660
3975, 0.4778778250, 0.9166416530
3976, 0.3776423930, 0.3990510700
3977, 0.8555553560, 0.4239068630
3978, 0.6975268720, 0.3351797460
3979, 0.5713430640, 0.3397902550
3980, 0.7882623080, 0.3876789510
3981, 0.4597822130, 0.6402034160
3982, 0.4744864700, 0.6440297370
3983, 0.7951881290, 0.4019604920
3984, 0.5497000220, 0.6676068310
3985, 0.6840407250, 0.6701787110
3986, 0.5088914040, 0.0696482509
3987, 0.7682324650, 0.6768478750
3988, 0.3967726230, 0.6232265230
3989, 0.3688960370, 0.9123352770
3990, 0.2389442320, 0.0803929567
3991, 0.8954460020, 0.6850507260
3992, 0.1121745480, 0.9294376970
3993, 0.0988025367, 0.1015594900
3994, 0.1066029300, 0.6431241630
3995, 0.4633712770, 0.9164568780
3996, 0.9161950350, 0.1180726810
3997, 0.9047863480, 0.1846224220
3998, 0.3153558970, 0.9031180140
3999, 0.5648990870, 0.0923498049
4000, 0.4456322490, 0.6354977490
4001, 0.5044324990, 0.6372603180
4002, 0.7609960440, 0.3820903300
4003, 0.2890212830, 0.5992853050
4004, 0.0998804867, 0.6740569470
4005, 0.4004895390, 0.9058365820
4006, 0.7027050260, 0.6431545620
4007, 0.1525872350, 0.0774077103
4008, 0.2687223550, 0.0896648169
4009, 0.5268176200, 0.9066621070
4010, 0.8945486550, 0.2231907990
4011, 0.8019797800, 0.9045751090
4012, 0.3810238540, 0.6142162080
4013, 0.9131150250, 0.7725610140
4014, 0.2718425390, 0.9019358160
4015, 0.3430064020, 0.0946771801
4016, 0.6072874070, 0.1093076620
4017, 0.2967564460, 0.1031193210
4018, 0.9035325650, 0.0773551092
4019, 0.1023379340, 0.9114915730
4020, 0.1946481470, 0.0738285035
4021, 0.5625460740, 0.8995662930
4022, 0.8541547660, 0.6245037320
4023, 0.1002203230, 0.6035944220
4024, 0.3161754310, 0.4125500920
4025, 0.0968963504, 0.7271903750
4026, 0.9290113450, 0.1000408600
4027, 0.7254007460, 0.0941178873
4028, 0.1390870660, 0.5867847800
4029, 0.1846774820, 0.5860288740
4030, 0.0895581841, 0.1339619310
4031, 0.6476036910, 0.0927316099
4032, 0.0851460397, 0.8476266260
4033, 0.4646441940, 0.0620605089
4034, 0.1767990890, 0.4070297180
4035, 0.9359883670, 0.3239879610
4036, 0.3063109520, 0.5917074680
4037, 0.4429998100, 0.0544821583
4038, 0.8566626310, 0.3997423950
4039, 0.8149203060, 0.3966400330
4040, 0.0960967988, 0.3978001180
4041, 0.9175655250, 0.1554109600
4042, 0.0925634801, 0.2283693100
4043, 0.8986997600, 0.2709791660
4044, 0.9445713160, 0.3562030790
4045, 0.7651240230, 0.9051974420
4046, 0.3944768910, 0.9238306880
4047, 0.5233199000, 0.6643010970
4048, 0.6937792300, 0.6562756300
4049, 0.0770504400, 0.3045299350
4050, 0.8453685050, 0.0514455885
4051, 0.2842508550, 0.4152746500
4052, 0.7667230960, 0.0991778895
4053, 0.3974385560, 0.0717416182
4054, 0.8530250790, 0.0835266411
4055, 0.8645947580, 0.6544203760
4056, 0.5130083560, 0.0847713724
4057, 0.8446258900, 0.9375073910
4058, 0.6002443430, 0.8974447850
4059, 0.9116051200, 0.8962093590
4060, 0.1991908250, 0.5672184820
4061, 0.0537748300, 0.8424617650
4062, 0.5621549490, 0.6558223960
4063, 0.9477596880, 0.8230662940
4064, 0.6830069420, 0.0906515196
4065, 0.8685645460, 0.9043766860
4066, 0.0941165388, 0.3065921960
4067, 0.2008674290, 0.4393272100
4068, 0.9476606250, 0.8407868150
4069, 0.3578182160, 0.9211559890
4070, 0.3489542900, 0.4139468370
4071, 0.8200292590, 0.9233552220
4072, 0.0764737576, 0.3955099280
4073, 0.6495561600, 0.9005141850
4074, 0.9299192430, 0.7733998890
4075, 0.3829903010, 0.0868906006
4076, 0.9049627180, 0.3138390780
4077, 0.6791859270, 0.3436684610
4078, 0.4860708420, 0.0971992612
4079, 0.1924223450, 0.9076237680
4080, 0.9115607740, 0.8048836590
4081, 0.4246903660, 0.0855827257
4082, 0.8051584360, 0.0392980240
4083, 0.9115491510, 0.8566771150
4084, 0.4440226550, 0.3438842890
4085, 0.2389680450, 0.4625879530
4086, 0.0377838351, 0.2641360460
4087, 0.0387042388, 0.7834372520
4088, 0.8868941660, 0.6732185480
4089, 0.0907328799, 0.1899683920
4090, 0.0845750868, 0.3599447910
4091, 0.7309424880, 0.9094474320
4092, 0.4932208960, 0.9142297510
4093, 0.9115384220, 0.9221466780
4094, 0.1800807570, 0.9127480980
4095, 0.3618426920, 0.3877928850
4096, 0.8994094130, 0.3533657790
4097, 0.6287650470, 0.6889354590
4098, 0.7083416580, 0.3494989570
4099, 0.6265481710, 0.3486292360
4100, 0.5837915540, 0.3134428860
4101, 0.4765149350, 0.9031049610
4102, 0.0789957345, 0.6889144180
4103, 0.3096666630, 0.4252292220
4104, 0.0839330554, 0.6521812080
4105, 0.0877183229, 0.6106845140
4106, 0.8967162970, 0.3902048770
4107, 0.1149394740, 0.4150481220
4108, 0.5955584650, 0.0900014564
4109, 0.6053228970, 0.3341468870
4110, 0.4026299120, 0.3405434790
4111, 0.7029727700, 0.9126099940
4112, 0.1023089360, 0.0917399228
4113, 0.1460653540, 0.4259628360
4114, 0.8907251950, 0.0643019453
4115, 0.7335185410, 0.3577028210
4116, 0.0823163763, 0.1076418240
4117, 0.4381496610, 0.9021055700
4118, 0.1468260290, 0.9082345370
4119, 0.8110280630, 0.6684413550
4120, 0.6481890080, 0.3462207320
4121, 0.1376940160, 0.0787056312
4122, 0.3366469440, 0.6057777400
4123, 0.5293226840, 0.3381646870
4124, 0.2266929450, 0.0619931445
4125, 0.5536118150, 0.0739750788
4126, 0.6442641020, 0.9168671370
4127, 0.9210982320, 0.1868638250
4128, 0.4736784990, 0.3339924220
4129, 0.9240860940, 0.9007149930
4130, 0.0696071535, 0.3788211640
4131, 0.8464543820, 0.6597654820
4132, 0.0691460222, 0.8720998760
4133, 0.6545720100, 0.0792086497
4134, 0.9189621210, 0.2706743180
4135, 0.3640442490, 0.4010519390
4136, 0.6880381110, 0.9229598640
4137, 0.7239909770, 0.6359477640
4138, 0.3702440260, 0.3491365020
4139, 0.6248190400, 0.6631522770
4140, 0.3541465100, 0.0830094367
4141, 0.9056459070, 0.7348059420
4142, 0.2685729860, 0.9159757490
4143, 0.2362243090, 0.5969042180
4144, 0.2245955170, 0.8989801410
4145, 0.0764669552, 0.2643229960
4146, 0.0780532137, 0.7643667460
4147, 0.3454418180, 0.3911352160
4148, 0.7349962000, 0.6569533940
4149, 0.4909214680, 0.6465386750
4150, 0.4848994910, 0.8842792510
4151, 0.4557960030, 0.6536640520
4152, 0.7745166420, 0.3780463040
4153, 0.8007816080, 0.3910281960
4154, 0.0975407735, 0.3806660770
4155, 0.4322843550, 0.6301888230
4156, 0.5203771590, 0.6884959940
4157, 0.0927052423, 0.1237112430
4158, 0.4869820180, 0.6597771050
4159, 0.3229656820, 0.3979206680
4160, 0.8992248770, 0.1107330770
4161, 0.7556228040, 0.3686642650
4162, 0.4083321090, 0.6086968180
4163, 0.9169099930, 0.1036961300
4164, 0.6152431960, 0.8922151330
4165, 0.7263900640, 0.3386326430
4166, 0.6751971240, 0.6862805490
4167, 0.4717448950, 0.6570539470
4168, 0.6775319580, 0.1082840190
4169, 0.8667682410, 0.0997494906
4170, 0.4143638610, 0.8984830980
4171, 0.3912722170, 0.8900545840
4172, 0.5455234050, 0.6952331660
4173, 0.1717901080, 0.6003714200
4174, 0.4272349770, 0.1090236900
4175, 0.4499642550, 0.0802862868
4176, 0.1089081240, 0.3227745890
4177, 0.3305564820, 0.9006965760
4178, 0.5785299540, 0.1095503720
4179, 0.9069091680, 0.1613980530
4180, 0.0387228988, 0.3037895860
4181, 0.9659155610, 0.3557012380
4182, 0.8438873890, 0.9602441790
4183, 0.7239587310, 0.1098058670
4184, 0.8790835140, 0.0746235847
4185, 0.8910481930, 0.3401633500
4186, 0.3979293700, 0.3235454860
4187, 0.9147264960, 0.3236166830
4188, 0.9064179060, 0.2967797220
4189, 0.8379110100, 0.3809000250
4190, 0.8813404440, 0.8915671710
4191, 0.8561961650, 0.9189246890
4192, 0.6201003790, 0.1158273820
4193, 0.4952559470, 0.1112576800
4194, 0.0934430361, 0.8922622200
4195, 0.1617290680, 0.4085190000
4196, 0.1115859520, 0.1053556050
4197, 0.7817384000, 0.6896988150
4198, 0.3777648510, 0.1016813220
4199, 0.3322187660, 0.1081054510
4200, 0.6624205710, 0.1010786890
4201, 0.0936842486, 0.8633899090
4202, 0.8488338590, 0.0679969490
4203, 0.1993577330, 0.5422343610
4204, 0.6573825480, 0.8866862650
4205, 0.2879115340, 0.3995893900
4206, 0.1211477370, 0.5936065910
4207, 0.1133434100, 0.3971320990
4208, 0.8733695150, 0.6797574760
4209, 0.9089516400, 0.6766545180
4210, 0.6905111670, 0.3193929790
4211, 0.5344966650, 0.0886315629
4212, 0.8896272780, 0.7053408620
4213, 0.2205464840, 0.0910316035
4214, 0.9003317360, 0.7528867130
4215, 0.8825805190, 0.2059896290
4216, 0.1249728500, 0.0935240909
4217, 0.5824151040, 0.8952627780
4218, 0.4590573310, 0.8993201260
4219, 0.1207165870, 0.6612840890
4220, 0.9022983910, 0.8900803920
4221, 0.7835265400, 0.9038442970
4222, 0.2618288100, 0.1051111070
4223, 0.8932521340, 0.8041564820
4224, 0.7565966840, 0.1104569510
4225, 0.2952032390, 0.6104887130
4226, 0.1111581620, 0.6098136310
4227, 0.8961823580, 0.2528278230
4228, 0.9116458890, 0.8396344780
4229, 0.2882680300, 0.1172247980
4230, 0.0989751443, 0.3651280400
4231, 0.2853519020, 0.9028361440
4232, 0.5443826910, 0.9029365780
4233, 0.2033406940, 0.8849982620
4234, 0.3021158580, 0.4048093860
4235, 0.5553914900, 0.3141895530
4236, 0.8939775230, 0.8762696390
4237, 0.5059837700, 0.8930951950
4238, 0.8275766970, 0.0546240471
4239, 0.7005023960, 0.9004581570
4240, 0.1565301270, 0.8944912550
4241, 0.2208486350, 0.4436332580
4242, 0.8913105730, 0.3747552340
4243, 0.3690930600, 0.6217343210
4244, 0.8067122100, 0.6926584840
4245, 0.0957678705, 0.1124887020
4246, 0.9453261490, 0.3772858080
4247, 0.5185760860, 0.3259581630
4248, 0.4914844330, 0.3232736890
4249, 0.3510591980, 0.3613742590
4250, 0.7474789620, 0.9072315690
4251, 0.2404137700, 0.8940361740
4252, 0.0972421095, 0.7091391090
4253, 0.1105456350, 0.2125074420
4254, 0.1050293150, 0.1763225790
4255, 0.2225657110, 0.5610989330
4256, 0.2316326050, 0.6194785240
4257, 0.6077823040, 0.6787150500
4258, 0.4662185910, 0.0386092961
4259, 0.0898969099, 0.1449139270
4260, 0.0948343202, 0.2624021170
4261, 0.0583843365, 0.2843940560
4262, 0.0587890297, 0.7841968540
4263, 0.0976715460, 0.7637791630
4264, 0.3598080280, 0.3767549400
4265, 0.1571478400, 0.0929689035
4266, 0.0942868814, 0.3378784950
4267, 0.8517140150, 0.6721785660
4268, 0.6139944200, 0.6952180860
4269, 0.0934724808, 0.2454570080
4270, 0.0969969630, 0.7454192040
4271, 0.3819388150, 0.3288077710
4272, 0.7005571720, 0.6790422800
4273, 0.4051289260, 0.1139194150
4274, 0.6428131460, 0.3284355400
4275, 0.8237043620, 0.9610183840
4276, 0.5625813010, 0.6825407740
4277, 0.5065051910, 0.1031799320
4278, 0.7563114760, 0.6904402970
4279, 0.6969527600, 0.0947005674
4280, 0.9028157000, 0.1448270830
4281, 0.3555674850, 0.1067000850
4282, 0.1711836900, 0.0878989324
4283, 0.4362934230, 0.3269214330
4284, 0.1389436130, 0.9178388710
4285, 0.9653054480, 0.8417179580
4286, 0.1999802740, 0.4609329100
4287, 0.3181732590, 0.6086613540
4288, 0.1005668710, 0.1395950760
4289, 0.3768855330, 0.3126959200
4290, 0.8871521950, 0.0904333666
4291, 0.7178660630, 0.6500796080
4292, 0.7713974710, 0.3656155770
4293, 0.3984504940, 0.6334843040
4294, 0.1093866450, 0.1169674920
4295, 0.9551802280, 0.3916888540
4296, 0.5535792710, 0.2967948320
4297, 0.5323606730, 0.3147364560
4298, 0.6100804210, 0.3025683160
4299, 0.4067095220, 0.6360360980
4300, 0.4275172050, 0.6429086330
4301, 0.8216725590, 0.3829711380
4302, 0.5953634380, 0.8841482400
4303, 0.7418451910, 0.6806466580
4304, 0.4141166510, 0.3175193970
4305, 0.8463461400, 0.1026756840
4306, 0.8845568300, 0.3597368300
4307, 0.1097091360, 0.3087593020
4308, 0.4858276550, 0.6738517280
4309, 0.1831724940, 0.6130922440
4310, 0.7509902720, 0.3538081940
4311, 0.8948727250, 0.3218623100
4312, 0.9064064620, 0.1719548110
4313, 0.4051786960, 0.8811961410
4314, 0.4733563070, 0.1069464760
4315, 0.3918334840, 0.1065227390
4316, 0.3646252450, 0.8877832890
4317, 0.8580803280, 0.8936443330
4318, 0.8882060650, 0.9230597620
4319, 0.5628173950, 0.1112489920
4320, 0.5934106110, 0.1080193220
4321, 0.3140985970, 0.8853156570
4322, 0.6406847240, 0.1083796690
4323, 0.6482771640, 0.8805446030
4324, 0.7368122940, 0.1129790840
4325, 0.8811054830, 0.6925257440
4326, 0.1766669450, 0.3904739320
4327, 0.1463510390, 0.4095220860
4328, 0.3446494040, 0.1194514260
4329, 0.4322680530, 0.6644329430
4330, 0.1344528500, 0.6086393590
4331, 0.1172904220, 0.8483667370
4332, 0.2732071580, 0.3967525960
4333, 0.1296068130, 0.3952336610
4334, 0.5501499180, 0.0910895541
4335, 0.0978039131, 0.3527871370
4336, 0.8940812350, 0.8218860630
4337, 0.8960019950, 0.7699299450
4338, 0.6838125590, 0.9046413300
4339, 0.5674117210, 0.2980533840
4340, 0.7676644330, 0.1217877190
4341, 0.1303248700, 0.8981076480
4342, 0.5580543280, 0.8787822720
4343, 0.8862376810, 0.1933305560
4344, 0.8034300210, 0.8859456780
4345, 0.1185549940, 0.6769101020
4346, 0.1839504240, 0.8891336320
4347, 0.8792845610, 0.2739557920
4348, 0.8938082460, 0.8571350570
4349, 0.3081158400, 0.3890805840
4350, 0.2997226420, 0.1259612140
4351, 0.8162950870, 0.0775493085
4352, 0.5084583160, 0.3115506170
4353, 0.2732443510, 0.6093396540
4354, 0.2706457670, 0.8857687120
4355, 0.1106534900, 0.1972214880
4356, 0.7165998220, 0.6872619390
4357, 0.4728906150, 0.3239240940
4358, 0.2408767040, 0.1162478330
4359, 0.2243127820, 0.4267086680
4360, 0.8963198070, 0.1560916160
4361, 0.5229996440, 0.8870123030
4362, 0.2052893940, 0.1053701040
4363, 0.5200879570, 0.0985716805
4364, 0.7631670830, 0.8850994710
4365, 0.2202814820, 0.8807026150
4366, 0.5248216390, 0.7108354570
4367, 0.7697718140, 0.7018098240
4368, 0.0981597528, 0.6913359760
4369, 0.0990104526, 0.7819434400
4370, 0.0970646665, 0.2784476880
4371, 0.2429482040, 0.6110138300
4372, 0.6832125190, 0.7100344300
4373, 0.6365882160, 0.7021574380
4374, 0.5904009340, 0.6861876850
4375, 0.4520369170, 0.3178737760
4376, 0.2218290420, 0.6049166920
4377, 0.1161199660, 0.7279109360
4378, 0.0585099272, 0.8040890690
4379, 0.1117049980, 0.2290786950
4380, 0.7941274640, 0.7029592390
4381, 0.3489166200, 0.3750814800
4382, 0.2688996790, 0.1239317880
4383, 0.2402496190, 0.5384442810
4384, 0.6042706970, 0.1208452950
4385, 0.8866338730, 0.7229955790
4386, 0.8516408210, 0.7035220860
4387, 0.7131366730, 0.8955094220
4388, 0.1228084790, 0.6470545530
4389, 0.3579787610, 0.3499276340
4390, 0.8898404240, 0.2349457000
4391, 0.4500708580, 0.9111224410
4392, 0.6507315040, 0.6921337250
4393, 0.8036606910, 0.3789924380
4394, 0.3480100930, 0.6190813180
4395, 0.8301373720, 0.6973199250
4396, 0.8938478230, 0.1248633120
4397, 0.1416121570, 0.1087906510
4398, 0.8941726680, 0.8395195010
4399, 0.4506028590, 0.8897568580
4400, 0.5992404220, 0.7017564770
4401, 0.9031983020, 0.3326987920
4402, 0.6379173990, 0.8937941190
4403, 0.1419795600, 0.8831209540
4404, 0.1174945310, 0.9033726450
4405, 0.1478282210, 0.5996903780
4406, 0.2599119250, 0.9048513770
4407, 0.6943018440, 0.1154711470
4408, 0.8931053880, 0.7867572310
4409, 0.8990190630, 0.2880280320
4410, 0.3000508250, 0.9034849410
4411, 0.4388988610, 0.1190432910
4412, 0.3611256780, 0.9036308530
4413, 0.7284899950, 0.8913921710
4414, 0.3966599400, 0.1280193920
4415, 0.3094661240, 0.1120329420
4416, 0.9197946190, 0.6689956190
4417, 0.5582136510, 0.7050081490
4418, 0.3084745110, 0.6295941470
4419, 0.8841985460, 0.3282330330
4420, 0.7259746790, 0.6722298860
4421, 0.4086948930, 0.3012349310
4422, 0.3214738370, 0.1221054640
4423, 0.5588769910, 0.2816390690
4424, 0.7662392850, 0.3372935950
4425, 0.8036502600, 0.3654320840
4426, 0.5054880980, 0.6762145760
4427, 0.3420662580, 0.8803240660
4428, 0.6285648350, 0.8819875720
4429, 0.4684977230, 0.3101845380
4430, 0.8778799180, 0.3454228040
4431, 0.3523492520, 0.3395790760
4432, 0.3398245570, 0.3487652540
4433, 0.8385833500, 0.0880265385
4434, 0.5179130430, 0.7260950800
4435, 0.8686840530, 0.3639574350
4436, 0.1970384420, 0.6001952890
4437, 0.3928346930, 0.3068926040
4438, 0.2081774620, 0.6155812740
4439, 0.0968542919, 0.2918140290
4440, 0.7854911680, 0.3510864080
4441, 0.1185068790, 0.7806676630
4442, 0.1016008480, 0.7985388040
4443, 0.1141076980, 0.2777693270
4444, 0.6084257360, 0.8774248360
4445, 0.8060471420, 0.7160949110
4446, 0.8590078350, 0.1153046340
4447, 0.1059631850, 0.1289861050
4448, 0.3611234130, 0.3191099170
4449, 0.4380245210, 0.0952480510
4450, 0.5233473780, 0.3008888960
4451, 0.4833915530, 0.1206140440
4452, 0.6191693540, 0.3144202530
4453, 0.2022675720, 0.4172171350
4454, 0.4513258640, 0.6800466180
4455, 0.8414313790, 0.9058276410
4456, 0.7432351110, 0.0968203619
4457, 0.4303765590, 0.3104093670
4458, 0.2575181130, 0.4145234230
4459, 0.6695957780, 0.3087322120
4460, 0.7779681090, 0.1095946060
4461, 0.8206921820, 0.8879740830
4462, 0.3236652020, 0.6442560550
4463, 0.6052312850, 0.7185831670
4464, 0.2273367350, 0.4107873740
4465, 0.4701094930, 0.8593146800
4466, 0.3491987590, 0.6449878220
4467, 0.8118928670, 0.1019426440
4468, 0.5550726060, 0.7203696370
4469, 0.8749126790, 0.2308164830
4470, 0.8863038420, 0.7349039320
4471, 0.8563788530, 0.7163612250
4472, 0.8175052400, 0.7061318760
4473, 0.2648988370, 0.1365549710
4474, 0.0372722708, 0.8225762840
4475, 0.4284602700, 0.1318712830
4476, 0.7456566100, 0.7039024230
4477, 0.4078911840, 0.1361784930
4478, 0.1429426820, 0.3461778160
4479, 0.1435212050, 0.8594096900
4480, 0.8202665450, 0.3664042650
4481, 0.6119136810, 0.1291518810
4482, 0.1335076690, 0.6305621860
4483, 0.8707048890, 0.7314518090
4484, 0.3102748990, 0.1361815330
4485, 0.7236136790, 0.8743461970
4486, 0.2346724570, 0.1325253250
4487, 0.6077482100, 0.2773089710
4488, 0.6780750160, 0.7238737340
4489, 0.3158939780, 0.3730119760
4490, 0.3361585740, 0.6318724750
4491, 0.8826623560, 0.1049119010
4492, 0.1141531320, 0.1519601790
4493, 0.1363769170, 0.6786416170
4494, 0.1317969560, 0.2295497660
4495, 0.1351025550, 0.7284244300
4496, 0.3913187090, 0.6398279070
4497, 0.7314774990, 0.3192723690
4498, 0.2688899340, 0.8677234650
4499, 0.5475564600, 0.1091377360
4500, 0.8712773320, 0.1887092890
4501, 0.1901811960, 0.1242386700
4502, 0.7747859360, 0.8629897240
4503, 0.5939555760, 0.1236805100
4504, 0.6447903510, 0.7154219150
4505, 0.1278259900, 0.1982432750
4506, 0.4924101230, 0.8628056050
4507, 0.8786726590, 0.7660543320
4508, 0.4639182090, 0.8799736500
4509, 0.6566308140, 0.8708974720
4510, 0.3565680680, 0.1307762120
4511, 0.2998725770, 0.8850762840
4512, 0.5873485210, 0.7082389590
4513, 0.7781763670, 0.1318813410
4514, 0.6551004050, 0.1168626840
4515, 0.2656100990, 0.6274997590
4516, 0.8619833590, 0.8710631130
4517, 0.8893657330, 0.1807195540
4518, 0.5050176980, 0.1235471670
4519, 0.6905598040, 0.8876176480
4520, 0.6491587160, 0.3056400420
4521, 0.8784153460, 0.2186430100
4522, 0.6469725970, 0.1334104540
4523, 0.1451726410, 0.3774479930
4524, 0.5605549810, 0.1356534660
4525, 0.1457092170, 0.6215351220
4526, 0.3376791480, 0.8703696130
4527, 0.8958438040, 0.3046313820
4528, 0.7588273880, 0.7140525580
4529, 0.3003035190, 0.8661305310
4530, 0.2327347400, 0.8584481480
4531, 0.8830288650, 0.1506479530
4532, 0.6836206320, 0.1335973740
4533, 0.4666195210, 0.6828514930
4534, 0.1210673530, 0.3118888440
4535, 0.8081213830, 0.8686159850
4536, 0.5166783330, 0.8680167790
4537, 0.8777810340, 0.8222103710
4538, 0.5556868310, 0.8579082490
4539, 0.7228484750, 0.1238793280
4540, 0.8662200570, 0.2672847810
4541, 0.9116723540, 0.8221947550
4542, 0.8748530150, 0.8575240970
4543, 0.1855352370, 0.8682599070
4544, 0.0813366100, 0.8062923550
4545, 0.1271563770, 0.8543330430
4546, 0.8640197520, 0.3491916360
4547, 0.7362822290, 0.7170751690
4548, 0.8187548520, 0.3508358000
4549, 0.8627097610, 0.1287419200
4550, 0.4500961300, 0.1061206090
4551, 0.4420805870, 0.8778231140
4552, 0.8496274950, 0.3515568080
4553, 0.6022859810, 0.8640493750
4554, 0.5147377250, 0.1126755770
4555, 0.3710718150, 0.2966507380
4556, 0.8355370160, 0.8723728060
4557, 0.6519456510, 0.8608957530
4558, 0.2421567890, 0.3950152700
4559, 0.5028636460, 0.1468777950
4560, 0.8338561060, 0.1102823910
4561, 0.8526475430, 0.7421383860
4562, 0.1340714840, 0.1523564010
4563, 0.8885412220, 0.1379556510
4564, 0.8732051250, 0.3019729260
4565, 0.4055010680, 0.6517497300
4566, 0.1234184580, 0.3221957390
4567, 0.3457481270, 0.3266617660
4568, 0.4806238110, 0.1436934020
4569, 0.5890406970, 0.8700060840
4570, 0.1237214210, 0.1204969360
4571, 0.7684886460, 0.3517936770
4572, 0.7997686860, 0.1110759450
4573, 0.3756598530, 0.6453325150
4574, 0.8426864150, 0.1266701670
4575, 0.7021809220, 0.8633214240
4576, 0.5336712000, 0.7326964140
4577, 0.5102976560, 0.7032331820
4578, 0.3386551740, 0.3701518180
4579, 0.7650992870, 0.3221440910
4580, 0.4561326800, 0.8682002430
4581, 0.4353742300, 0.6803380250
4582, 0.8347406390, 0.3507722020
4583, 0.7412038450, 0.8661107420
4584, 0.5716133710, 0.7226701970
4585, 0.2681523860, 0.4257113040
4586, 0.8641606570, 0.2463405130
4587, 0.4186042850, 0.1447663310
4588, 0.7075797920, 0.7029427890
4589, 0.7947659490, 0.7267352340
4590, 0.1252757310, 0.3348461090
4591, 0.5331143140, 0.2641847430
4592, 0.7041362520, 0.3144010010
4593, 0.3452106120, 0.1435384900
4594, 0.7758832570, 0.0847409219
4595, 0.6227878930, 0.1429522190
4596, 0.2963281870, 0.1506628990
4597, 0.7490845920, 0.3054621820
4598, 0.8635627030, 0.7592620250
4599, 0.6286131740, 0.7253441810
4600, 0.2983306650, 0.3603653910
4601, 0.1732479180, 0.8677498700
4602, 0.5157899860, 0.2838400900
4603, 0.8543745880, 0.1966767910
4604, 0.8733142610, 0.3792151810
4605, 0.8636956210, 0.1579819170
4606, 0.5946949720, 0.2658762340
4607, 0.0559721254, 0.8235022430
4608, 0.3175482750, 0.8525978920
4609, 0.6515469550, 0.7295393350
4610, 0.1368311790, 0.7801948790
4611, 0.6347117420, 0.3057993350
4612, 0.1303845350, 0.2774624820
4613, 0.7470023630, 0.1453842070
4614, 0.7953686710, 0.8640812640
4615, 0.3693144920, 0.8533537980
4616, 0.1905859860, 0.1445787550
4617, 0.6387971040, 0.1505440920
4618, 0.1365156770, 0.8465797310
4619, 0.3877704740, 0.2900106610
4620, 0.4804569480, 0.6888023610
4621, 0.2194742710, 0.6300441620
4622, 0.5724079610, 0.1536955680
4623, 0.2768429820, 0.3614023030
4624, 0.8628274200, 0.8363442420
4625, 0.7376464610, 0.1331652850
4626, 0.8631598350, 0.8235810400
4627, 0.1980533000, 0.8499643800
4628, 0.5715426800, 0.8573694830
4629, 0.7223343250, 0.1406757530
4630, 0.1361064170, 0.1669779720
4631, 0.8858827350, 0.3117945790
4632, 0.2491140370, 0.8534081580
4633, 0.5476130250, 0.1564580350
4634, 0.2808346750, 0.6378201840
4635, 0.8515765670, 0.8628985880
4636, 0.2572119530, 0.3464560510
4637, 0.2517235280, 0.1360999640
4638, 0.3440456090, 0.8604568240
4639, 0.4782735110, 0.2878674570
4640, 0.1350859550, 0.7114449140
4641, 0.5357683900, 0.8565488460
4642, 0.2452482130, 0.6538710590
4643, 0.7872616650, 0.8549655080
4644, 0.3272053000, 0.3595313730
4645, 0.1439936610, 0.1962787210
4646, 0.3379712400, 0.6601517200
4647, 0.5072153210, 0.8528649810
4648, 0.8449964520, 0.2752680480
4649, 0.4248152080, 0.2944200040
4650, 0.6746935840, 0.1500690430
4651, 0.4847844540, 0.3042994140
4652, 0.7858310940, 0.1420311780
4653, 0.1353638170, 0.7454855440
4654, 0.1329116670, 0.2459879370
4655, 0.3671393390, 0.1421123300
4656, 0.8598766920, 0.1713534150
4657, 0.6402694580, 0.8708418610
4658, 0.5937152500, 0.1579015110
4659, 0.8403084870, 0.7268896700
4660, 0.1286067520, 0.3636266890
4661, 0.6199088100, 0.2607562540
4662, 0.3221280570, 0.1464281230
4663, 0.5884627100, 0.7241013650
4664, 0.7183177470, 0.2986027600
4665, 0.7176927330, 0.8590025310
4666, 0.1407650260, 0.6455134150
4667, 0.4462991650, 0.3025117520
4668, 0.6795230510, 0.2848205860
4669, 0.8495516180, 0.2086482200
4670, 0.7224236730, 0.7107884290
4671, 0.2278127370, 0.3951513770
4672, 0.1193902490, 0.8137598040
4673, 0.1150517840, 0.2943186460
4674, 0.6998677250, 0.7423221470
4675, 0.0973700956, 0.8198328610
4676, 0.1051046100, 0.8407773380
4677, 0.4482832850, 0.1515561490
4678, 0.3127583560, 0.6575706010
4679, 0.2586954830, 0.3789122400
4680, 0.1694718000, 0.6244130130
4681, 0.8683855530, 0.3170407410
4682, 0.8481976990, 0.3393391970
4683, 0.6447616820, 0.8492035870
4684, 0.5689076190, 0.7423850890
4685, 0.4402597550, 0.2864536640
4686, 0.7147436740, 0.7305086850
4687, 0.4192556440, 0.2797058520
4688, 0.8209912780, 0.1169681400
4689, 0.6329581740, 0.8592849370
4690, 0.5298071500, 0.1496680530
4691, 0.7379941940, 0.7384418250
4692, 0.8584406380, 0.3342027070
4693, 0.1381507960, 0.3179565670
4694, 0.4001797140, 0.2703723310
4695, 0.8507135510, 0.8816514610
4696, 0.3978200260, 0.6790274380
4697, 0.8548188810, 0.7708740230
4698, 0.3986422120, 0.1492579280
4699, 0.7297680380, 0.8549656870
4700, 0.4888946710, 0.1572967920
4701, 0.6653922200, 0.8539987800
4702, 0.5105485920, 0.7415900230
4703, 0.4287098940, 0.1535153990
4704, 0.8680781130, 0.7455804350
4705, 0.1532934010, 0.6953491570
4706, 0.4340868590, 0.8638637660
4707, 0.4384043510, 0.6931939130
4708, 0.7343319650, 0.3014098410
4709, 0.8124310370, 0.8524502520
4710, 0.2416921260, 0.3786439600
4711, 0.1555998770, 0.6341410280
4712, 0.1587906480, 0.3427668510
4713, 0.3879241350, 0.1404721440
4714, 0.7703261380, 0.8484252100
4715, 0.5698295240, 0.2685943840
4716, 0.5240043400, 0.2537718120
4717, 0.4627010230, 0.6929766540
4718, 0.7713806030, 0.1466708480
4719, 0.6859176750, 0.8672800660
4720, 0.3891527350, 0.8460665940
4721, 0.0365197361, 0.8622064590
4722, 0.2663447260, 0.8484974500
4723, 0.1554290800, 0.7973651890
4724, 0.1385124030, 0.8197918530
4725, 0.8593516950, 0.8086812500
4726, 0.2283245330, 0.8411028980
4727, 0.6610504390, 0.1416839360
4728, 0.1659638580, 0.8539393540
4729, 0.8566195370, 0.1842118200
4730, 0.8072342870, 0.7396387460
4731, 0.1762206260, 0.1404644700
4732, 0.2112189980, 0.1452391300
4733, 0.5036983490, 0.2757619020
4734, 0.6708793640, 0.7334728240
4735, 0.8057534100, 0.1470417830
4736, 0.1444958300, 0.2927723820
4737, 0.5590973500, 0.8382921810
4738, 0.2423982620, 0.3626958430
4739, 0.1399473250, 0.1817589700
4740, 0.3159131710, 0.3466372190
4741, 0.4563435020, 0.2780931000
4742, 0.2063557510, 0.6427313090
4743, 0.1829269230, 0.8505001070
4744, 0.6580737230, 0.2675028740
4745, 0.6880981330, 0.1592790930
4746, 0.8573726420, 0.2305389050
4747, 0.2319592540, 0.1502442810
4748, 0.1536680910, 0.7286783460
4749, 0.6118563410, 0.7354698180
4750, 0.1379591230, 0.7986356020
4751, 0.2036752700, 0.4053527410
4752, 0.1522382940, 0.2285271440
4753, 0.4204348030, 0.6852695350
4754, 0.3224981430, 0.6792652610
4755, 0.6067168710, 0.2522729340
4756, 0.6408915520, 0.2715423110
4757, 0.7711907630, 0.7253676060
4758, 0.8552376630, 0.1380462800
4759, 0.3570783440, 0.6826070550
4760, 0.4594578740, 0.1410587730
4761, 0.2388451700, 0.4280301930
4762, 0.8012752530, 0.0855250955
4763, 0.5500446560, 0.7386088370
4764, 0.7596083880, 0.8665426370
4765, 0.8002551790, 0.3363554180
4766, 0.6997041700, 0.2776040730
4767, 0.2130717340, 0.8462588790
4768, 0.7646886110, 0.3064279260
4769, 0.4697102900, 0.7043371800
4770, 0.4222711030, 0.6529551740
4771, 0.6971912980, 0.1443019660
4772, 0.8538254500, 0.2980969850
4773, 0.1255460380, 0.1072122380
4774, 0.4839307070, 0.8502330180
4775, 0.8552460070, 0.3818594810
4776, 0.3567919140, 0.1542253050
4777, 0.4484719340, 0.8553947810
4778, 0.5607420210, 0.1677087550
4779, 0.2319025700, 0.6425793170
4780, 0.2738407550, 0.3434057240
4781, 0.6371287700, 0.7394810320
4782, 0.1498928670, 0.1526600120
4783, 0.1314586400, 0.2618331610
4784, 0.6201373930, 0.1627433750
4785, 0.2705685200, 0.6531978250
4786, 0.6529012920, 0.1582980600
4787, 0.0740000233, 0.8265045290
4788, 0.8282036780, 0.7180489900
4789, 0.1358978000, 0.7626662850
4790, 0.3505661490, 0.8456465010
4791, 0.2789188620, 0.1487963200
4792, 0.1652371880, 0.6468605400
4793, 0.5210123660, 0.8408367040
4794, 0.3036265670, 0.8448635940
4795, 0.8509432670, 0.2572145160
4796, 0.3834368880, 0.2706566450
4797, 0.3547117410, 0.3043780920
4798, 0.1505286100, 0.1398151670
4799, 0.8441274760, 0.8446970580
4800, 0.7236081960, 0.1674107910
4801, 0.3881323040, 0.6627100110
4802, 0.8358728290, 0.1407376080
4803, 0.8088774090, 0.1249189000
4804, 0.3232854310, 0.3215437230
4805, 0.2655695080, 0.1470631960
4806, 0.4611586330, 0.1181140990
4807, 0.1585399810, 0.8154205080
4808, 0.2720272840, 0.1646669510
4809, 0.7593360540, 0.8502138260
4810, 0.1925851260, 0.3736141920
4811, 0.3981992900, 0.2550657990
4812, 0.7832761410, 0.7378481630
4813, 0.4755560160, 0.8386794330
4814, 0.7602337600, 0.7363166210
4815, 0.8169005510, 0.3356151580
4816, 0.8434008960, 0.1933006790
4817, 0.8458797930, 0.8139699100
4818, 0.7807997470, 0.1646875590
4819, 0.4282484050, 0.8882992270
4820, 0.4876802860, 0.8288611770
4821, 0.8141312600, 0.3212305610
4822, 0.8340612050, 0.7418002490
4823, 0.4755205510, 0.1658620830
4824, 0.5975970630, 0.8513689640
4825, 0.1541509030, 0.1792602540
4826, 0.5109109880, 0.1597234460
4827, 0.5635103580, 0.7608205680
4828, 0.8524333830, 0.3661556540
4829, 0.5287598370, 0.1697502430
4830, 0.5183116790, 0.2654107510
4831, 0.7198787330, 0.2817048130
4832, 0.8316326140, 0.3085699380
4833, 0.3476886150, 0.2896746100
4834, 0.8249422310, 0.0944200382
4835, 0.3781575260, 0.1525227870
4836, 0.7996491190, 0.8489842410
4837, 0.7816938760, 0.8424794080
4838, 0.1536435480, 0.6793107390
4839, 0.1767663960, 0.3575369120
4840, 0.4270106550, 0.6974784140
4841, 0.4331272240, 0.2705925410
4842, 0.5260174870, 0.7495624420
4843, 0.4119491580, 0.8560710550
4844, 0.8171665070, 0.1382348980
4845, 0.1936703030, 0.1637031290
4846, 0.1543792640, 0.7795867920
4847, 0.6570707560, 0.8395959140
4848, 0.4006036220, 0.1710348730
4849, 0.4071213010, 0.6939142940
4850, 0.4415344000, 0.8414834740
4851, 0.3855753840, 0.8271953460
4852, 0.3963801560, 0.8640510440
4853, 0.5714716910, 0.1802370250
4854, 0.5561221240, 0.2587102950
4855, 0.1626215880, 0.1112926080
4856, 0.1457636210, 0.2791639860
4857, 0.6022027130, 0.1695141350
4858, 0.4729056950, 0.2706199290
4859, 0.7212545870, 0.2682614620
4860, 0.6746935840, 0.2679040130
4861, 0.2203287180, 0.6550790070
4862, 0.5853528980, 0.8551148180
4863, 0.2235540600, 0.3788572250
4864, 0.6357503530, 0.2558203340
4865, 0.4787634610, 0.7277974490
4866, 0.1705874060, 0.6622840170
4867, 0.8346604110, 0.2696880400
4868, 0.3370240030, 0.6984330420
4869, 0.6453926560, 0.1750953500
4870, 0.3715734180, 0.2566346530
4871, 0.5089964870, 0.8282297850
4872, 0.2868757840, 0.6684459450
4873, 0.8258872630, 0.1497983630
4874, 0.7349221710, 0.1786180440
4875, 0.3021468220, 0.8224228020
4876, 0.2848340270, 0.3214243350
4877, 0.3075090650, 0.3307768110
4878, 0.6472750310, 0.7530565860
4879, 0.7795021530, 0.2908510570
4880, 0.1637283560, 0.1412826780
4881, 0.4136418400, 0.2684935930
4882, 0.1801950780, 0.6391157510
4883, 0.4286684390, 0.1738184990
4884, 0.4633236230, 0.7214363220
4885, 0.3533705770, 0.8270771500
4886, 0.4270077940, 0.8486005660
4887, 0.3061961530, 0.6740408540
4888, 0.1576761900, 0.3086347280
4889, 0.3735046980, 0.7125604150
4890, 0.1714956910, 0.2238232490
4891, 0.1598784770, 0.1922024340
4892, 0.7244809270, 0.7516325120
4893, 0.1603031900, 0.3593135770
4894, 0.5655953880, 0.8209979530
4895, 0.6073793770, 0.7632398010
4896, 0.4512330290, 0.6926973460
4897, 0.3893105090, 0.1620886470
4898, 0.7579064370, 0.1586924340
4899, 0.2441184820, 0.3497200910
4900, 0.8429760340, 0.2198171320
4901, 0.5021771790, 0.7188561560
4902, 0.6145778890, 0.2407219110
4903, 0.1717918070, 0.7283615470
4904, 0.8194839950, 0.7528955940
4905, 0.1485380380, 0.8373149630
4906, 0.2224855270, 0.8240572810
4907, 0.6794470550, 0.1744960840
4908, 0.1832185390, 0.8294288520
4909, 0.2616288360, 0.8290661570
4910, 0.2279072850, 0.1666114930
4911, 0.8223134280, 0.8712271450
4912, 0.7805459500, 0.3065771160
4913, 0.6818217640, 0.8450935480
4914, 0.6857360600, 0.7636548280
4915, 0.1289833190, 0.3046643440
4916, 0.3684596120, 0.1646165550
4917, 0.7761163710, 0.8301249150
4918, 0.3112767040, 0.1604736890
4919, 0.1945362240, 0.1804799140
4920, 0.8456220030, 0.1670938430
4921, 0.4946860970, 0.7343046070
4922, 0.8269836900, 0.8103669290
4923, 0.3027644160, 0.1753564770
4924, 0.2267840210, 0.3597238060
4925, 0.5951665640, 0.8385524750
4926, 0.8341634870, 0.2290959360
4927, 0.8037838340, 0.8343384270
4928, 0.5272719860, 0.1827424320
4929, 0.1586162000, 0.6116884350
4930, 0.8266572950, 0.1920107600
4931, 0.7545275690, 0.1829642950
4932, 0.1765832600, 0.1834147270
4933, 0.3036820290, 0.6916828750
4934, 0.6435555220, 0.2352615300
4935, 0.2325974260, 0.3396404090
4936, 0.4680645760, 0.8276469110
4937, 0.3827584390, 0.8123527170
4938, 0.1910893170, 0.6582677960
4939, 0.1708146780, 0.6787150500
4940, 0.8235539200, 0.2213064880
4941, 0.8248866800, 0.2750456330
4942, 0.7832955120, 0.7603974340
4943, 0.3477605580, 0.2536989750
4944, 0.2342985120, 0.6660619380
4945, 0.1542539750, 0.7623896000
4946, 0.5156292920, 0.7654259200
4947, 0.7970240710, 0.3066431880
4948, 0.3841491340, 0.2442069800
4949, 0.3160307710, 0.3063400390
4950, 0.7640193700, 0.8370273110
4951, 0.5816295150, 0.1923346520
4952, 0.8162208200, 0.8371756670
4953, 0.8420120480, 0.7802649140
4954, 0.6130611300, 0.1783101710
4955, 0.6363092660, 0.8373279570
4956, 0.2104994800, 0.3572514060
4957, 0.5511026380, 0.2347530720
4958, 0.1772464070, 0.1514600370
4959, 0.1638709010, 0.1313201040
4960, 0.2823341190, 0.1859082730
4961, 0.4180509150, 0.7048890590
4962, 0.4498707350, 0.8211365340
4963, 0.1939145920, 0.3393267100
4964, 0.8135695460, 0.2922352250
4965, 0.8498220440, 0.3171087210
4966, 0.7420240040, 0.1900591250
4967, 0.4116132260, 0.1781772380
4968, 0.6586307290, 0.1825715600
4969, 0.6249207850, 0.1856866030
4970, 0.4476742150, 0.7169804570
4971, 0.7920069690, 0.7741855980
4972, 0.4686748680, 0.2523805800
4973, 0.6472139950, 0.8266326190
4974, 0.4977879820, 0.8174461130
4975, 0.7604789730, 0.2701165970
4976, 0.3004756270, 0.3144253490
4977, 0.2687785920, 0.3268525000
4978, 0.3197495340, 0.6965064410
4979, 0.2815217080, 0.8207210300
4980, 0.5805193780, 0.7670117620
4981, 0.7229663130, 0.7707343700
4982, 0.3537802100, 0.7000311020
4983, 0.2455559520, 0.1782713380
4984, 0.2537848950, 0.8112734560
4985, 0.5537860990, 0.8153415320
4986, 0.1757506730, 0.8112143870
4987, 0.6914623380, 0.8267048000
4988, 0.2149570580, 0.8074664470
4989, 0.5899567010, 0.2272782920
4990, 0.6209589840, 0.7776918410
4991, 0.7150391940, 0.8432922960
4992, 0.6588781480, 0.7657708530
4993, 0.2379397900, 0.8178629280
4994, 0.1997027250, 0.8167510630
4995, 0.6198210720, 0.2234285470
4996, 0.1871767490, 0.7104613780
4997, 0.8475654130, 0.1520509570
4998, 0.6714887020, 0.1899592130
4999, 0.1822005660, 0.2009316380
5000, 0.5586596730, 0.7770989540
5001, 0.4321250320, 0.7103261350
5002, 0.5739899870, 0.8060987590
5003, 0.3948429820, 0.2313302900
5004, 0.5950156450, 0.7780918480
5005, 0.4636275770, 0.1739426700
5006, 0.8151605730, 0.1596071720
5007, 0.1734723150, 0.7455139760
5008, 0.8258033990, 0.8555402160
5009, 0.6922193170, 0.1832943860
5010, 0.1457288410, 0.3934571150
5011, 0.7101432090, 0.7822701930
5012, 0.1783155800, 0.2410115300
5013, 0.3196970220, 0.8225311640
5014, 0.2697803080, 0.6785699130
5015, 0.2132395060, 0.1916467250
5016, 0.8303782340, 0.7669236660
5017, 0.5321854950, 0.8247250320
5018, 0.8339748980, 0.2583888770
5019, 0.7140997050, 0.1803385470
5020, 0.4057237800, 0.8388548490
5021, 0.3705532850, 0.8101475240
5022, 0.3367225830, 0.8241697550
5023, 0.5133831500, 0.2450926450
5024, 0.4315213860, 0.8104225400
5025, 0.2245242890, 0.6791207790
5026, 0.2658429740, 0.1821333910
5027, 0.2101486180, 0.1629220100
5028, 0.3928238450, 0.1843053850
5029, 0.1843977120, 0.1036817510
5030, 0.7936622500, 0.1562151310
5031, 0.4706322550, 0.7441811560
5032, 0.5516234040, 0.1818827840
5033, 0.4418105190, 0.2446689610
5034, 0.1700195670, 0.6952959900
5035, 0.3401166200, 0.2750181560
5036, 0.7399556640, 0.2809960840
5037, 0.1707967370, 0.2647614780
5038, 0.7000889780, 0.2499019500
5039, 0.3709160090, 0.1870668830
5040, 0.8260166050, 0.1709876060
5041, 0.5605096220, 0.1936437040
5042, 0.8299421670, 0.8410240410
5043, 0.1651958970, 0.1756266060
5044, 0.7277074460, 0.1924724880
5045, 0.4409474430, 0.7301277520
5046, 0.6515059470, 0.1990330220
5047, 0.3468046780, 0.1668007220
5048, 0.2635604440, 0.3112136420
5049, 0.2900697290, 0.6903473140
5050, 0.6033436060, 0.1922522190
5051, 0.5197343230, 0.8143332600
5052, 0.8272498250, 0.3205266590
5053, 0.3218733070, 0.8039011360
5054, 0.8300237060, 0.2459872070
5055, 0.2474525720, 0.3161624370
5056, 0.4099597330, 0.7177470330
5057, 0.2369151120, 0.6881945130
5058, 0.4857596760, 0.8076680900
5059, 0.7622106670, 0.1990391760
5060, 0.3161055150, 0.7169271710
5061, 0.5344438550, 0.1882356850
5062, 0.3345473410, 0.1566100720
5063, 0.7316135760, 0.8387293820
5064, 0.1726282390, 0.7626804710
5065, 0.7881457210, 0.8227376940
5066, 0.7335142490, 0.2619920070
5067, 0.7599951030, 0.8255753520
5068, 0.8527671100, 0.7936706540
5069, 0.4718075990, 0.2368657290
5070, 0.8171455860, 0.7768771050
5071, 0.3161252140, 0.1830193100
5072, 0.8187428120, 0.2032675740
5073, 0.5026153920, 0.7564228770
5074, 0.6290292740, 0.2196415960
5075, 0.8284220700, 0.7896266580
5076, 0.4558030370, 0.7353807690
5077, 0.1613368390, 0.3919050690
5078, 0.1847840700, 0.6953283550
5079, 0.8197835680, 0.8225371840
5080, 0.6800594930, 0.2486221490
5081, 0.2285711910, 0.1874571000
5082, 0.4949164690, 0.1909613310
5083, 0.2787461880, 0.3056378070
5084, 0.6839820150, 0.1972817930
5085, 0.4079200630, 0.1935696900
5086, 0.5381385090, 0.2274313570
5087, 0.7797789570, 0.2757949230
5088, 0.6084675190, 0.2298756840
5089, 0.7496865390, 0.7469855550
5090, 0.6581724290, 0.8154757620
5091, 0.5805298690, 0.2352214460
5092, 0.2025819870, 0.6846023800
5093, 0.3051466640, 0.8023137450
5094, 0.4175538720, 0.2352013740
5095, 0.1914791760, 0.8029753570
5096, 0.6936877370, 0.7788745760
5097, 0.1978910860, 0.1957783700
5098, 0.4160953460, 0.8149827120
5099, 0.6339691280, 0.7648062710
5100, 0.1873727440, 0.6791281100
5101, 0.7714597580, 0.7496907110
5102, 0.1887750180, 0.2173763360
5103, 0.7199431060, 0.7853797670
5104, 0.6083038450, 0.7930085660
5105, 0.1882812230, 0.7264841790
5106, 0.3388611380, 0.8056053520
5107, 0.1779345420, 0.2836775480
5108, 0.3387948870, 0.3126579820
5109, 0.5047694440, 0.2303179950
5110, 0.4573156240, 0.2225640270
5111, 0.3163149650, 0.2667143940
5112, 0.3087580200, 0.1952096220
5113, 0.4794269200, 0.7707630400
5114, 0.4253134130, 0.7245576980
5115, 0.7463993430, 0.8469645380
5116, 0.5715633030, 0.7834720610
5117, 0.3841734530, 0.2205025700
5118, 0.1712603420, 0.7793668510
5119, 0.6363499760, 0.8145849700
5120, 0.2117699090, 0.3209441010
5121, 0.2681593600, 0.8037996890
5122, 0.5064505930, 0.1913067250
5123, 0.8108862640, 0.2779069240
5124, 0.7766731980, 0.1902614980
5125, 0.3554773330, 0.7200247050
5126, 0.7747431400, 0.7843627330
5127, 0.2635766570, 0.2012526840
5128, 0.4324374790, 0.1945524070
5129, 0.5385141970, 0.7847563620
5130, 0.6255493760, 0.8475743530
5131, 0.5766642690, 0.8258139490
5132, 0.4448847470, 0.7916461830
5133, 0.7045888300, 0.8133831020
5134, 0.1933418210, 0.3214261530
5135, 0.3508151770, 0.2330324650
5136, 0.1934930680, 0.3567689960
5137, 0.6462334990, 0.7779169680
5138, 0.3939518330, 0.7997762560
5139, 0.6494954820, 0.2497716100
5140, 0.5625096560, 0.7992342710
5141, 0.4941066800, 0.7691892390
5142, 0.7428545950, 0.8247157930
5143, 0.2726309600, 0.2910485860
5144, 0.8035208580, 0.8154929880
5145, 0.1838060170, 0.7932835220
5146, 0.8154604430, 0.8007460240
5147, 0.2307152150, 0.8006343250
5148, 0.2763704360, 0.6940622930
5149, 0.7907320260, 0.1809042250
5150, 0.8034321070, 0.7880267500
5151, 0.6579200630, 0.2246096130
5152, 0.5707854630, 0.2288195940
5153, 0.3077932300, 0.7829363940
5154, 0.1861053710, 0.2583606240
5155, 0.5171516540, 0.7899931070
5156, 0.2610504030, 0.7871055010
5157, 0.8136148450, 0.2321538030
5158, 0.8023679260, 0.1974839720
5159, 0.6764395240, 0.2263402640
5160, 0.7380284070, 0.7753873470
5161, 0.5953856710, 0.8235378860
5162, 0.7699023490, 0.8193662760
5163, 0.7174875740, 0.8137531280
5164, 0.3933280410, 0.7069380280
5165, 0.7189499740, 0.2250040770
5166, 0.6955540780, 0.2056118700
5167, 0.7955425380, 0.2658966480
5168, 0.4790378810, 0.8197349310
5169, 0.1767556520, 0.3742276730
5170, 0.4899433260, 0.7872333530
5171, 0.1879240570, 0.7813760040
5172, 0.4692628090, 0.1872547860
5173, 0.2660912870, 0.7256315950
5174, 0.4486194250, 0.7477742430
5175, 0.3346869650, 0.7278304100
5176, 0.3082660140, 0.2139604390
5177, 0.2166737620, 0.6931259630
5178, 0.6380193230, 0.1918612570
5179, 0.7342839840, 0.2110515090
5180, 0.7725385430, 0.2544066610
5181, 0.1703457240, 0.2954439220
5182, 0.4077641070, 0.2202480580
5183, 0.6467687490, 0.8027277590
5184, 0.4362457390, 0.2237659390
5185, 0.3616321090, 0.2217851280
5186, 0.3087341490, 0.2907890380
5187, 0.5038024780, 0.7811166050
5188, 0.4833035470, 0.2371444700
5189, 0.1907615360, 0.7647476200
5190, 0.4372158940, 0.1811890600
5191, 0.2630525230, 0.2193694110
5192, 0.7663316730, 0.8009587530
5193, 0.6920254830, 0.8025482890
5194, 0.4734138550, 0.2214564530
5195, 0.5848913790, 0.8138454560
5196, 0.7849984770, 0.2062105690
5197, 0.7694966790, 0.2151361550
5198, 0.3079708810, 0.2501927610
5199, 0.5228403210, 0.2248223420
5200, 0.8205391760, 0.2612797920
5201, 0.8034729360, 0.1701733920
5202, 0.3391270940, 0.2243326900
5203, 0.1965015080, 0.6989066600
5204, 0.3677775260, 0.7365917560
5205, 0.4703146820, 0.7723417280
5206, 0.3492060900, 0.1893994360
5207, 0.6448217630, 0.2143507000
5208, 0.2284362610, 0.3025321660
5209, 0.4440089460, 0.7766488790
5210, 0.3189134000, 0.2039651270
5211, 0.4011056720, 0.7350198630
5212, 0.6012777690, 0.2163363700
5213, 0.3413061500, 0.7860485910
5214, 0.2168807540, 0.2039836790
5215, 0.2110322710, 0.2216097410
5216, 0.5079947110, 0.8044274450
5217, 0.2113919110, 0.7314976450
5218, 0.1929252590, 0.2749205530
5219, 0.7543145420, 0.7811409240
5220, 0.3959682880, 0.2078127560
5221, 0.6343036890, 0.7903144360
5222, 0.6039765480, 0.8093032840
5223, 0.3962817790, 0.7768760920
5224, 0.6874874830, 0.2173667550
5225, 0.3080429140, 0.7377014160
5226, 0.7228516940, 0.2478956580
5227, 0.2316962930, 0.2017604560
5228, 0.7327861190, 0.7908307910
5229, 0.5250662570, 0.2043466270
5230, 0.4756065910, 0.2029194680
5231, 0.8166934850, 0.2479106190
5232, 0.2240827080, 0.7839751240
5233, 0.2908354400, 0.2589414420
5234, 0.3281139140, 0.1920937300
5235, 0.2993766070, 0.2347985360
5236, 0.2550621630, 0.7703303690
5237, 0.8385075930, 0.8014688490
5238, 0.2065098880, 0.7695581320
5239, 0.7345249060, 0.8131470080
5240, 0.2303311230, 0.7019636030
5241, 0.6983813640, 0.2273329200
5242, 0.7360577580, 0.2323939650
5243, 0.4449254270, 0.7618707420
5244, 0.7630923390, 0.8116644620
5245, 0.3909467760, 0.7230370040
5246, 0.7987243530, 0.2371989790
5247, 0.7538266780, 0.2240267100
5248, 0.2920953630, 0.7802185420
5249, 0.7770764830, 0.2304868400
5250, 0.2943983970, 0.2193568800
5251, 0.4432746470, 0.1879154440
5252, 0.1915872250, 0.3011325600
5253, 0.2525204120, 0.2765297890
5254, 0.3608924750, 0.1994131650
5255, 0.3833046260, 0.7393046620
5256, 0.4845610260, 0.7778092620
5257, 0.4148547650, 0.7583442330
5258, 0.3446752730, 0.7358606460
5259, 0.2286498250, 0.2850826080
5260, 0.4462456410, 0.1713549350
5261, 0.1430381980, 0.3057561220
5262, 0.3794287740, 0.7742371560
5263, 0.2232283800, 0.2286116480
5264, 0.5918509960, 0.2041635070
5265, 0.6156312230, 0.8163607720
5266, 0.3234348600, 0.7327985760
5267, 0.2151750180, 0.2377071680
5268, 0.2123262440, 0.7558984760
5269, 0.2221176030, 0.7169540520
5270, 0.3833066520, 0.1972415890
5271, 0.4888906180, 0.2240435780
5272, 0.5702942610, 0.2050914620
5273, 0.3159078060, 0.2262157650
5274, 0.2102292930, 0.2698192600
5275, 0.7533345220, 0.8151661160
5276, 0.2822922470, 0.7419939040
5277, 0.4304909410, 0.7603032590
5278, 0.3503205780, 0.2116675820
5279, 0.2088164690, 0.7071321010
5280, 0.2579421100, 0.7196065190
5281, 0.2783757450, 0.7954021100
5282, 0.2666057940, 0.7491493820
5283, 0.2723689970, 0.7644473310
5284, 0.2508320210, 0.7335724830
5285, 0.4583989380, 0.7751085760
5286, 0.2761269810, 0.7814236280
5287, 0.7067630890, 0.2153536230
5288, 0.4484114050, 0.1950968500
5289, 0.2399790730, 0.7773236040
5290, 0.2194761480, 0.2137738470
5291, 0.3988870680, 0.7565603260
5292, 0.2125759720, 0.2862956230
5293, 0.3620132510, 0.7703440790
5294, 0.3107009830, 0.7654663920
5295, 0.2468775510, 0.2216035280
5296, 0.3433779780, 0.7639868860
5297, 0.3251823480, 0.7676728370
5298, 0.2273046670, 0.7446028590
5299, 0.4125753050, 0.7965794800
5300, 0.2196567950, 0.7680222390
5301, 0.2787431180, 0.2211469410
5302, 0.4566175640, 0.1622503850
5303, 0.2212938820, 0.2490617930
5304, 0.2319782530, 0.2655872400
5305, 0.2636742290, 0.2588343020
5306, 0.7850426440, 0.2440627520
5307, 0.3006300330, 0.2750001850
5308, 0.3194960650, 0.7537592050
5309, 0.2333584730, 0.7615089420
5310, 0.4600099920, 0.8036078810
5311, 0.2593979540, 0.2337952850
5312, 0.4734072390, 0.7830901740
5313, 0.4739339350, 0.8117205500
5314, 0.0199747719, 0.5200038550
5315, 0.9807769660, 0.0191293545
5316, 0.0198754352, 0.4798107150
5317, 0.9862630960, 0.4945372640
5318, 0.9944619540, 0.5092749600
5319, 0.9957561490, 0.5120706560
5320, 0.4578310850, 0.5095638040
5321, 0.5036609170, 0.5082057710
5322, 0.0383721292, 0.0821677372
5323, 0.4954352380, 0.5062520500
5324, 0.4618594350, 0.5149891970
5325, 0.9874464270, 0.5118249060
5326, 0.9846497180, 0.5013219120
5327, 0.5059738160, 0.5101345180
5328, 0.5036267040, 0.5177630780
5329, 0.4073633250, 0.4719397130
5330, 0.4837193790, 0.5092104080
5331, 0.9616417880, 0.7492751480
5332, 0.8245617150, 0.0367198363
5333, 0.0387548245, 0.7635861040
5334, 0.9434253570, 0.4123931230
5335, 0.9343583580, 0.3649904730
5336, 0.5016288760, 0.4896076320
5337, 0.4758677780, 0.5103309150
5338, 0.9766702060, 0.5010244850
5339, 0.5088710780, 0.5088433620
5340, 0.9255055190, 0.3727063240
5341, 0.9888702030, 0.5191571710
5342, 0.9885864850, 0.5269716380
5343, 0.2989132700, 0.5530331130
5344, 0.9867541190, 0.5163188580
5345, 0.9140391950, 0.3866216240
5346, 0.9223518370, 0.3552218680
5347, 0.2427238370, 0.5569981930
5348, 0.0543497875, 0.2091955390
5349, 0.1428948640, 0.9466534850
5350, 0.9473465090, 0.8583765030
5351, 0.5118162630, 0.9463726880
5352, 0.9797481300, 0.5065750480
5353, 0.5102217200, 0.5117527250
5354, 0.5101410150, 0.5182731150
5355, 0.9875869150, 0.5305593010
5356, 0.9826961160, 0.5223239060
5357, 0.0676916391, 0.1714236440
5358, 0.5056855080, 0.4870537520
5359, 0.5101507310, 0.4884629850
5360, 0.4702514710, 0.5190263390
5361, 0.4626536370, 0.5194386240
5362, 0.4795776900, 0.4931410250
5363, 0.4754635690, 0.4918879870
5364, 0.4706775840, 0.4896993640
5365, 0.5038073060, 0.4817039670
5366, 0.4218140540, 0.4596448540
5367, 0.9424538610, 0.7326394920
5368, 0.4000787730, 0.4573049250
5369, 0.0683594644, 0.1153255700
5370, 0.9025601150, 0.4055019620
5371, 0.9239748720, 0.3341530260
5372, 0.0987796783, 0.0752224326
5373, 0.0764091387, 0.1574037520
5374, 0.0700345263, 0.1856114860
5375, 0.3644868430, 0.5675296780
5376, 0.3510742190, 0.5718869570
5377, 0.6608294840, 0.0696691945
5378, 0.9260089990, 0.2801016570
5379, 0.3478002250, 0.9274974470
5380, 0.0699127465, 0.8438985940
5381, 0.9296329620, 0.8570828440
5382, 0.9297392960, 0.8400619630
5383, 0.1924273520, 0.4216932360
5384, 0.3938204940, 0.4303362370
5385, 0.9111589190, 0.2291331290
5386, 0.2289526610, 0.5799883010
5387, 0.3489151900, 0.5898773070
5388, 0.4659087060, 0.5250297190
5389, 0.0775400549, 0.1803371910
5390, 0.5122749210, 0.5151516800
5391, 0.4886716600, 0.5271425250
5392, 0.4748185580, 0.5230747460
5393, 0.9857305880, 0.5326380130
5394, 0.0854010284, 0.9219411610
5395, 0.9377982020, 0.1181217950
5396, 0.9413194060, 0.1057882460
5397, 0.9145383240, 0.3042492570
5398, 0.9043846130, 0.2413362260
5399, 0.6685350540, 0.0859340280
5400, 0.3787418310, 0.9007241130
5401, 0.3499128820, 0.9091022610
5402, 0.9089347720, 0.2799886470
5403, 0.0949510336, 0.1614559290
5404, 0.0852351040, 0.1739137170
5405, 0.1087672190, 0.0844067633
5406, 0.1128519030, 0.6302286980
5407, 0.3037814200, 0.4340770840
5408, 0.2413415760, 0.4119395910
5409, 0.2150470320, 0.4090687040
5410, 0.1909906860, 0.4054159220
5411, 0.3935648200, 0.4130511580
5412, 0.2680243550, 0.5892618890
5413, 0.4335709210, 0.5536217090
5414, 0.8206390740, 0.9052907230
5415, 0.9284886720, 0.7333986760
5416, 0.9048303370, 0.6974001530
5417, 0.8918601270, 0.4242222010
5418, 0.8988436460, 0.2106871900
5419, 0.2557625470, 0.8888882400
5420, 0.6618967650, 0.9037262800
5421, 0.6740224960, 0.9031231400
5422, 0.9121233820, 0.8726907370
5423, 0.9056991930, 0.0937742591
5424, 0.4847487210, 0.4912450310
5425, 0.4858459830, 0.4883238080
5426, 0.5003391500, 0.5331614610
5427, 0.9786127210, 0.5228798390
5428, 0.5181503300, 0.4863033000
5429, 0.4816932980, 0.4915415350
5430, 0.5136905310, 0.5125297310
5431, 0.5144539480, 0.5144799350
5432, 0.5154665110, 0.5170683860
5433, 0.4781963530, 0.4904899600
5434, 0.1056047530, 0.8105704780
5435, 0.9162279370, 0.7572593690
5436, 0.4742502870, 0.4882244470
5437, 0.2832053010, 0.5852658150
5438, 0.9841088650, 0.5350764390
5439, 0.4446078540, 0.4668835700
5440, 0.1490204630, 0.0620740205
5441, 0.2913330200, 0.0796288252
5442, 0.2593804300, 0.0686179176
5443, 0.5238940720, 0.0805628151
5444, 0.6931789520, 0.9101450440
5445, 0.7566077710, 0.0912922025
5446, 0.8900431390, 0.0773324445
5447, 0.4353016320, 0.4441747370
5448, 0.2970028220, 0.4190797210
5449, 0.0820953771, 0.8616443280
5450, 0.5331979990, 0.1053164750
5451, 0.7098552580, 0.0949023888
5452, 0.2081437110, 0.9033508300
5453, 0.8988783360, 0.7180204390
5454, 0.3530454640, 0.4020116030
5455, 0.3928731980, 0.3960261940
5456, 0.4091230330, 0.3927696650
5457, 0.3232704100, 0.5962353350
5458, 0.9164838790, 0.6239469050
5459, 0.9126524930, 0.6002454160
5460, 0.9679709080, 0.5213492510
5461, 0.2579259870, 0.3959345220
5462, 0.3462691010, 0.8943858150
5463, 0.6644944550, 0.8925103550
5464, 0.6750549670, 0.8887135390
5465, 0.8923678990, 0.1682789030
5466, 0.8795131440, 0.9138406520
5467, 0.2554160950, 0.6076296570
5468, 0.1231580300, 0.6362548470
5469, 0.1163200210, 0.7104784850
5470, 0.1171005890, 0.7631244660
5471, 0.1125132290, 0.8276524540
5472, 0.0991160795, 0.8534827830
5473, 0.1152472720, 0.9150540830
5474, 0.1124964060, 0.0943921283
5475, 0.1919425730, 0.3895290490
5476, 0.4712728260, 0.1307486590
5477, 0.1291578110, 0.3792651300
5478, 0.8903027180, 0.2799829840
5479, 0.0933636352, 0.3225382570
5480, 0.7973015310, 0.1336852460
5481, 0.8366366030, 0.8874454500
5482, 0.2364486600, 0.8760754470
5483, 0.1132332910, 0.2615208920
5484, 0.8873336320, 0.2634175720
5485, 0.8850374820, 0.4614259000
5486, 0.8835018280, 0.4709805250
5487, 0.5206245180, 0.4820847510
5488, 0.4888491930, 0.4824726280
5489, 0.4903047380, 0.4786917270
5490, 0.4805072550, 0.5235738160
5491, 0.8991998430, 0.9171602730
5492, 0.9636662600, 0.5228028890
5493, 0.2172811630, 0.3976135550
5494, 0.1135910080, 0.1861559000
5495, 0.9061724540, 0.9066067930
5496, 0.8985117080, 0.6246555450
5497, 0.9717306490, 0.5337460040
5498, 0.8753711580, 0.2561173740
5499, 0.0884885192, 0.9074664120
5500, 0.3715805110, 0.0853910372
5501, 0.4235376120, 0.3906272050
5502, 0.3994094430, 0.0890164524
5503, 0.3756313920, 0.3830826280
5504, 0.5254752640, 0.4874412120
5505, 0.1007052730, 0.5910066370
5506, 0.4142808020, 0.0993531346
5507, 0.5418189170, 0.1289855990
5508, 0.8796991110, 0.3187465370
5509, 0.1603929850, 0.5900156500
5510, 0.1512651000, 0.5824651720
5511, 0.5995413660, 0.1370440570
5512, 0.5858684780, 0.1444164070
5513, 0.4914703970, 0.4747599960
5514, 0.1404469010, 0.0937417969
5515, 0.2238587590, 0.0769994259
5516, 0.2089201810, 0.0749986842
5517, 0.4090780320, 0.3751490710
5518, 0.0996681526, 0.8758372660
5519, 0.2715774180, 0.4127144810
5520, 0.3554979860, 0.8705453280
5521, 0.1133133620, 0.3649732770
5522, 0.1443676650, 0.3615925010
5523, 0.2080830340, 0.3741965290
5524, 0.7100684050, 0.1105172340
5525, 0.7582790260, 0.1340543480
5526, 0.4740101990, 0.5544365050
5527, 0.8458269240, 0.8725653290
5528, 0.8631935120, 0.2147658170
5529, 0.8746476170, 0.1760629560
5530, 0.2754398880, 0.1103971970
5531, 0.4903435410, 0.8985970020
5532, 0.3596608040, 0.6326900720
5533, 0.1354814770, 0.6947644950
5534, 0.1110853930, 0.8618944290
5535, 0.8840466140, 0.2876642350
5536, 0.8735384350, 0.2864080970
5537, 0.8592669370, 0.2819167080
5538, 0.8706849810, 0.4775114060
5539, 0.8928958180, 0.9028562900
5540, 0.4681448340, 0.1531383840
5541, 0.8993349670, 0.5969899300
5542, 0.9022960070, 0.5874010320
5543, 0.8663962480, 0.6989406940
5544, 0.8587383630, 0.6853454110
5545, 0.8291608100, 0.4044877590
5546, 0.2167173330, 0.8630907540
5547, 0.2518965900, 0.6201468710
5548, 0.1201939660, 0.1348771300
5549, 0.1357329490, 0.1377500150
5550, 0.8753753300, 0.8046618700
5551, 0.8706588150, 0.8819727900
5552, 0.4387831390, 0.1414908470
5553, 0.1255226730, 0.1839013550
5554, 0.2756433190, 0.3795180020
5555, 0.1539166870, 0.8697309490
5556, 0.2849524020, 0.8657715320
5557, 0.1121063750, 0.3507182000
5558, 0.9650012850, 0.5292414430
5559, 0.4787884350, 0.4887663720
5560, 0.5071812870, 0.4682012500
5561, 0.4757613240, 0.4859468640
5562, 0.5250770450, 0.4746357500
5563, 0.2476711270, 0.1003296600
5564, 0.2339133020, 0.0953361392
5565, 0.2064697300, 0.0894582123
5566, 0.1272191550, 0.3488176170
5567, 0.8742389080, 0.2407140880
5568, 0.5165176990, 0.1355556850
5569, 0.3070107100, 0.6100220080
5570, 0.5026441810, 0.4666633310
5571, 0.8553078770, 0.0954689980
5572, 0.3942580220, 0.6098032000
5573, 0.8746128680, 0.1324187670
5574, 0.6062303190, 0.1493004560
5575, 0.4949656130, 0.4629699290
5576, 0.4892924130, 0.4728046360
5577, 0.8768843410, 0.6441403630
5578, 0.8669729830, 0.6676947470
5579, 0.1479690670, 0.2115134890
5580, 0.1485723850, 0.2645626660
5581, 0.1761828360, 0.3405737580
5582, 0.5300272700, 0.5201457140
5583, 0.4711653890, 0.8911774750
5584, 0.9606540200, 0.5245624180
5585, 0.2560481730, 0.6415998340
5586, 0.1803366240, 0.0762688369
5587, 0.1921891720, 0.0866054446
5588, 0.1075320090, 0.8974139090
5589, 0.3143629730, 0.8682479860
5590, 0.3273329140, 0.8696069120
5591, 0.4503313300, 0.5654459600
5592, 0.7131222490, 0.1221351400
5593, 0.7320570350, 0.1235693100
5594, 0.6144788270, 0.8566867710
5595, 0.1279236230, 0.8693451880
5596, 0.1529785390, 0.8503308300
5597, 0.2806295450, 0.1293663080
5598, 0.3884966370, 0.3622299130
5599, 0.3773639500, 0.6310972570
5600, 0.4008258280, 0.8204933400
5601, 0.8584756260, 0.4830865860
5602, 0.8921049240, 0.5840203760
5603, 0.8442258830, 0.6907163260
5604, 0.8362740870, 0.6771126390
5605, 0.1539083270, 0.1261023430
5606, 0.8583711390, 0.8501785990
5607, 0.4379321630, 0.1623524580
5608, 0.3850222830, 0.1209986810
5609, 0.1640935990, 0.8332994580
5610, 0.8690969940, 0.1450724150
5611, 0.8203674550, 0.4160911140
5612, 0.5160077210, 0.1731854380
5613, 0.6996157770, 0.8466107850
5614, 0.3630529050, 0.6572267410
5615, 0.4595240060, 0.4361050430
5616, 0.9042954440, 0.5783441660
5617, 0.8762957450, 0.6255328660
5618, 0.9358367320, 0.5291185980
5619, 0.9809833170, 0.5405215620
5620, 0.4802178740, 0.4786609110
5621, 0.6099714040, 0.1604520530
5622, 0.2264641670, 0.1099692580
5623, 0.9764342900, 0.5430774690
5624, 0.1400485490, 0.3319921490
5625, 0.1752078980, 0.3236319720
5626, 0.5362365250, 0.5179907680
5627, 0.8551601770, 0.7295350430
5628, 0.8655683400, 0.6169173120
5629, 0.2175482360, 0.1023517700
5630, 0.5923962000, 0.1805719140
5631, 0.6085225340, 0.8458227520
5632, 0.9691584110, 0.5404223200
5633, 0.9664153460, 0.5393173690
5634, 0.7676590680, 0.1740158350
5635, 0.5060974960, 0.1782659140
5636, 0.4809884730, 0.1788800810
5637, 0.3372580710, 0.1795000430
5638, 0.2584241930, 0.6653312440
5639, 0.4357970950, 0.8264456390
5640, 0.3776396210, 0.1313627810
5641, 0.4812083240, 0.4713098700
5642, 0.4803213480, 0.5701050760
5643, 0.3307908770, 0.8555218580
5644, 0.1536559460, 0.6645346880
5645, 0.7111141680, 0.1553653180
5646, 0.1705261470, 0.7116277220
5647, 0.5172925590, 0.4595541060
5648, 0.8494298460, 0.8295061590
5649, 0.9347923400, 0.5587083700
5650, 0.3858772810, 0.3455074430
5651, 0.3733989000, 0.6727396850
5652, 0.8478914500, 0.4893516000
5653, 0.1641009600, 0.1525847320
5654, 0.1651920230, 0.1647987370
5655, 0.5181504490, 0.1878487020
5656, 0.8222397570, 0.4354880750
5657, 0.2747888270, 0.1380727740
5658, 0.1604512930, 0.2704174520
5659, 0.1583481730, 0.2945190670
5660, 0.1965507860, 0.8364896180
5661, 0.5843659640, 0.8409736750
5662, 0.4194336240, 0.1658039690
5663, 0.3588396610, 0.1769345100
5664, 0.8208209280, 0.6838738920
5665, 0.8021969800, 0.3508988020
5666, 0.8140211110, 0.3066633050
5667, 0.7110787030, 0.8288308380
5668, 0.6806022520, 0.8158615230
5669, 0.7233601210, 0.8238304850
5670, 0.3529612420, 0.6662311550
5671, 0.7346568700, 0.1556347760
5672, 0.8146967890, 0.1824840900
5673, 0.3194648920, 0.8396323920
5674, 0.8307855130, 0.2111728190
5675, 0.4195616540, 0.6255508070
5676, 0.3553033770, 0.8078486320
5677, 0.5142903330, 0.4554654960
5678, 0.9795399310, 0.5429221990
5679, 0.1741549820, 0.3074426350
5680, 0.4940425160, 0.4225975570
5681, 0.5082023140, 0.4558698830
5682, 0.5315155980, 0.4750872850
5683, 0.4651232060, 0.4691908060
5684, 0.4774133270, 0.4845820070
5685, 0.5276775960, 0.5692501070
5686, 0.5180347560, 0.5758559700
5687, 0.6036465170, 0.8376908900
5688, 0.6081495880, 0.8284296390
5689, 0.6267116670, 0.8262036440
5690, 0.4565339090, 0.3466301560
5691, 0.4647315140, 0.3396296200
5692, 0.8264029030, 0.2358442690
5693, 0.4716566800, 0.3480660620
5694, 0.5336930750, 0.5298562650
5695, 0.5432544350, 0.1923199000
5696, 0.4156057540, 0.6386368870
5697, 0.4553737340, 0.8345995550
5698, 0.4577862320, 0.1926799120
5699, 0.2040331360, 0.2534798680
5700, 0.4538337590, 0.5762096050
5701, 0.8393664360, 0.1811956910
5702, 0.3392885330, 0.2018294330
5703, 0.6694279310, 0.8032060860
5704, 0.6773446200, 0.2111524340
5705, 0.8448151350, 0.7174885870
5706, 0.9363191720, 0.5390366910
5707, 0.2299011050, 0.3199801450
5708, 0.5176493530, 0.4516151850
5709, 0.5261037350, 0.4610628780
5710, 0.3582866490, 0.7889700530
5711, 0.8425448540, 0.7585330610
5712, 0.7983284590, 0.3215675950
5713, 0.3385373060, 0.6807760600
5714, 0.1789057700, 0.1654757560
5715, 0.5403395890, 0.5590273740
5716, 0.7044046520, 0.1929492060
5717, 0.2567346390, 0.6876115200
5718, 0.2466952200, 0.7088655230
5719, 0.2365377250, 0.7263880970
5720, 0.9419059160, 0.5467112060
5721, 0.6317648890, 0.2073851820
5722, 0.4845436220, 0.1905534860
5723, 0.4954503180, 0.4508724210
5724, 0.8061367270, 0.7635566590
5725, 0.7873475550, 0.3646654780
5726, 0.4126109480, 0.7773334980
5727, 0.4286723140, 0.7771596910
5728, 0.9324954150, 0.5342378620
5729, 0.7244145870, 0.8039229510
5730, 0.5849836470, 0.8298505540
5731, 0.5416562560, 0.8081464770
5732, 0.8155316110, 0.2136596740
5733, 0.7782077790, 0.4213595990
5734, 0.4403930600, 0.6491140130
5735, 0.6811873320, 0.7905016540
5736, 0.3241693380, 0.2827603520
5737, 0.2963671090, 0.1897557530
5738, 0.3677832480, 0.6966163520
5739, 0.7955825330, 0.2783308630
5740, 0.9141997690, 0.5560829040
5741, 0.9081020950, 0.5555304290
5742, 0.8800205590, 0.5687077640
5743, 0.8841122980, 0.5625658040
5744, 0.8080157640, 0.2640736400
5745, 0.4463801680, 0.8064288500
5746, 0.4920672770, 0.2071200010
5747, 0.4440684020, 0.2051596190
5748, 0.9312741760, 0.5421603320
5749, 0.5144433980, 0.4468425210
5750, 0.5354487900, 0.4652244450
5751, 0.4679548440, 0.4673644300
5752, 0.4742501970, 0.4716992080
5753, 0.5353310110, 0.4762241840
5754, 0.5378994350, 0.4824016990
5755, 0.5451227430, 0.5067105290
5756, 0.5292974710, 0.7994162440
5757, 0.5362191200, 0.5275371070
5758, 0.8355264070, 0.8175451760
5759, 0.4825651940, 0.3391001520
5760, 0.8654093740, 0.6013762350
5761, 0.7818679210, 0.3218960170
5762, 0.5138164160, 0.5825557110
5763, 0.8041138050, 0.2509309350
5764, 0.9274716380, 0.5308455820
5765, 0.2114551960, 0.3031635880
5766, 0.4594510200, 0.5887450580
5767, 0.5591208930, 0.2191636560
5768, 0.4764222500, 0.5786364080
5769, 0.5057090520, 0.4471851590
5770, 0.8330730800, 0.4897224900
5771, 0.5944633480, 0.8018459680
5772, 0.7794037460, 0.8103409410
5773, 0.7917287950, 0.2222865520
5774, 0.2584527130, 0.2954790590
5775, 0.2863584760, 0.2835798260
5776, 0.4991308150, 0.4459620120
5777, 0.5313991900, 0.4587489370
5778, 0.5238441820, 0.4524557890
5779, 0.5189421770, 0.4430556300
5780, 0.6707296370, 0.7778400180
5781, 0.7841733100, 0.2632609310
5782, 0.4206992090, 0.1851584610
5783, 0.4627241490, 0.5806035400
5784, 0.7020074730, 0.7905259730
5785, 0.8524546030, 0.5050545930
5786, 0.8456707600, 0.5038709040
5787, 0.5504254700, 0.5656299590
5788, 0.4834693970, 0.5933923720
5789, 0.2626568380, 0.7003518940
5790, 0.7676768900, 0.3939922150
5791, 0.4689888950, 0.6019989250
5792, 0.4627330600, 0.8164691330
5793, 0.8186315300, 0.7289835210
5794, 0.3325293060, 0.2595350440
5795, 0.4523605700, 0.6670940520
5796, 0.6892957690, 0.2382178310
5797, 0.2791356740, 0.2030783150
5798, 0.5644721390, 0.4028225540
5799, 0.2225423750, 0.1772997380
5800, 0.5413125160, 0.4260215760
5801, 0.5379180910, 0.4662065800
5802, 0.5394048690, 0.5277662280
5803, 0.5408722160, 0.4809846880
5804, 0.2686111330, 0.7117102740
5805, 0.5158794520, 0.4386371970
5806, 0.5277938250, 0.7747833130
5807, 0.7234043480, 0.2130926550
5808, 0.2414850440, 0.2872248290
5809, 0.2801877260, 0.7083569170
5810, 0.7624108200, 0.2404301170
5811, 0.4702433050, 0.8033708930
5812, 0.7638521190, 0.2896773520
5813, 0.3031389120, 0.2045971600
5814, 0.3825024370, 0.7557608490
5815, 0.7713462110, 0.7659649850
5816, 0.2675127980, 0.2789460720
5817, 0.2644752860, 0.7358575460
5818, 0.6706431510, 0.7537634370
5819, 0.5644033550, 0.2435277700
5820, 0.2305887940, 0.2165680380
5821, 0.3420770760, 0.2426487060
5822, 0.3560569290, 0.2669227420
5823, 0.4926545320, 0.2816015780
5824, 0.2352662090, 0.2376519890
5825, 0.8564019800, 0.5129470230
5826, 0.8446956280, 0.5104983450
5827, 0.6886981730, 0.2610808310
5828, 0.6723997590, 0.2392224520
5829, 0.9206534030, 0.5473770500
5830, 0.5970153810, 0.2403427510
5831, 0.6365298030, 0.2265406700
5832, 0.7736743690, 0.4493057730
5833, 0.5515184400, 0.3352519270
5834, 0.5590861440, 0.3430556650
5835, 0.7479401830, 0.3215701580
5836, 0.4820086660, 0.6170618530
5837, 0.4592107240, 0.2383423150
5838, 0.5231005550, 0.2374406610
5839, 0.5031110640, 0.2600394490
5840, 0.3323838110, 0.7468982930
5841, 0.4346857370, 0.7442566750
5842, 0.3552037480, 0.7474537490
5843, 0.5434608460, 0.2498772140
5844, 0.5471131800, 0.7734904890
5845, 0.5413536430, 0.5290561320
5846, 0.9218356010, 0.5444090960
5847, 0.5297266240, 0.4367484150
5848, 0.5431864260, 0.4795056280
5849, 0.2768425350, 0.2694938480
5850, 0.4766727690, 0.7945618030
5851, 0.2748957870, 0.7336277370
5852, 0.2919224800, 0.7276025410
5853, 0.2770614920, 0.7217246290
5854, 0.5480962990, 0.4839543400
5855, 0.5275037880, 0.4500882920
5856, 0.7421227690, 0.7601737980
5857, 0.9183212520, 0.5414456130
5858, 0.4583748880, 0.7621392010
5859, 0.5440269110, 0.5274260640
5860, 0.4885669650, 0.2660421730
5861, 0.5655084250, 0.3249879480
5862, 0.5307837720, 0.4496354160
5863, 0.4706906970, 0.7601203920
5864, 0.4034007490, 0.2403050360
5865, 0.3611218630, 0.2441189440
5866, 0.8402350540, 0.6048349140
5867, 0.9002364280, 0.5315763950
5868, 0.6689336900, 0.2560362820
5869, 0.7317016720, 0.6954497100
5870, 0.8439809080, 0.5168024900
5871, 0.5546287300, 0.5491355060
5872, 0.5599046350, 0.5522629020
5873, 0.7078525420, 0.7717570070
5874, 0.4520615040, 0.7047878500
5875, 0.8980067970, 0.5360372660
5876, 0.5431066750, 0.4566968080
5877, 0.5334378480, 0.4509404300
5878, 0.7420727610, 0.4461257460
5879, 0.7592608930, 0.7541326880
5880, 0.6797982450, 0.7420784240
5881, 0.6882140040, 0.7491030690
5882, 0.8432090880, 0.5679921510
5883, 0.8353797200, 0.5731571910
5884, 0.8652428390, 0.5541738870
5885, 0.5654865500, 0.5527455210
5886, 0.4830998480, 0.7618972660
5887, 0.5461095570, 0.2736580970
5888, 0.5583761930, 0.5138186810
5889, 0.5450060370, 0.3051696120
5890, 0.6655036210, 0.7226431370
5891, 0.5323734280, 0.2797832190
5892, 0.6896564360, 0.7313899990
5893, 0.7108889820, 0.2607523500
5894, 0.5535018440, 0.5418772700
5895, 0.5498231650, 0.5360662340
5896, 0.7109268900, 0.3265139160
5897, 0.5458022950, 0.4558376070
5898, 0.5512680410, 0.4478319880
5899, 0.5691244010, 0.5951737760
5900, 0.8637855650, 0.5484606620
5901, 0.6913976070, 0.6945509910
5902, 0.5957250600, 0.2933825850
5903, 0.6851122380, 0.3022903800
5904, 0.7120542530, 0.6173831820
5905, 0.6998879910, 0.4175625150
5906, 0.6282352210, 0.2735804920
5907, 0.4957030420, 0.6952139140
5908, 0.8816100360, 0.5340678100
5909, 0.8803890350, 0.5344610210
5910, 0.8194818500, 0.5758844610
5911, 0.5555339460, 0.4464741350
5912, 0.5487850900, 0.2869120840
5913, 0.8592785600, 0.5486180190
5914, 0.8765807150, 0.5379613640
5915, 0.5603609090, 0.5097517370
5916, 0.5567048190, 0.5294086340
5917, 0.5542968510, 0.5359493490
5918, 0.6277457480, 0.3795302210
5919, 0.5578225850, 0.4852537810
5920, 0.5595833660, 0.4874741140
5921, 0.7297410370, 0.7289997940
5922, 0.6927578450, 0.3583496210
5923, 0.6407842040, 0.2882361710
5924, 0.5579832200, 0.4505771400
5925, 0.8680353760, 0.5349704030
5926, 0.6039710640, 0.3168637160
5927, 0.6758248810, 0.3245603140
5928, 0.6198053360, 0.4260627030
5929, 0.7829731110, 0.5863111620
5930, 0.8189885620, 0.5286555890
5931, 0.8219760660, 0.5324386360
5932, 0.6618068810, 0.3279022870
5933, 0.7455388900, 0.4707865120
5934, 0.7700952290, 0.4937212770
5935, 0.6798606510, 0.4185943310
5936, 0.6899679300, 0.6351757050
5937, 0.7032107710, 0.5871243480
5938, 0.5778579710, 0.5554772620
5939, 0.5866990690, 0.4578525420
5940, 0.8455533390, 0.5528053050
5941, 0.8416715860, 0.5492492320
5942, 0.8230155710, 0.5598697070
5943, 0.8166537880, 0.5596288440
5944, 0.5553837420, 0.5395520930
5945, 0.5616505740, 0.4941849710
5946, 0.5624463560, 0.5058727860
5947, 0.6546272040, 0.3187336620
5948, 0.6792994140, 0.6465225220
5949, 0.5620714430, 0.5225681070
5950, 0.5581989880, 0.5365595220
5951, 0.6090441940, 0.4434126910
5952, 0.5605045560, 0.5259944200
5953, 0.8193016650, 0.5354303120
5954, 0.6536607740, 0.3282046020
5955, 0.6522815820, 0.3351662760
5956, 0.5965768690, 0.5682460670
5957, 0.7678875330, 0.5044813160
5958, 0.6409227250, 0.6817278860
5959, 0.5300231580, 0.6981102820
5960, 0.7860540750, 0.5183571580
5961, 0.7832641600, 0.5139372940
5962, 0.6608073120, 0.6780209540
5963, 0.5649724010, 0.5219346280
5964, 0.5656570200, 0.5252166390
5965, 0.5617158410, 0.5280845760
5966, 0.5610622170, 0.5309223530
5967, 0.5777701140, 0.4551899730
5968, 0.6720838550, 0.6154922840
5969, 0.7717111710, 0.5095906260
5970, 0.6343542930, 0.6710030440
5971, 0.5627085570, 0.4803743960
5972, 0.5645923610, 0.4837746620
5973, 0.5662837030, 0.4982042910
5974, 0.8329085710, 0.5449469690
5975, 0.6131530400, 0.4476304350
5976, 0.6096360090, 0.4510980550
5977, 0.6944145560, 0.5641904470
5978, 0.8045726420, 0.5344667430
5979, 0.7670055030, 0.5140866040
5980, 0.7816655640, 0.5216986540
5981, 0.7452695370, 0.4874883000
5982, 0.5754136440, 0.5355644230
5983, 0.5817264320, 0.5459447500
5984, 0.7459514740, 0.5646890400
5985, 0.6362724900, 0.6346854570
5986, 0.5631525520, 0.5300573110
5987, 0.6062723400, 0.4525888260
5988, 0.5650681260, 0.5282734630
5989, 0.5791504380, 0.5389589070
5990, 0.7709560990, 0.5183301570
5991, 0.6093255280, 0.4626478850
5992, 0.8330377340, 0.5400519970
5993, 0.5712516310, 0.5233455900
5994, 0.7917812470, 0.5358914140
5995, 0.5703389050, 0.5000463130
5996, 0.5728396180, 0.5053792600
5997, 0.5916407110, 0.5504485370
5998, 0.5951775310, 0.5520465370
5999, 0.6639111640, 0.4612879750
6000, 0.6055042150, 0.4687560500
6001, 0.7670839430, 0.5229205490
6002, 0.7583113910, 0.5148577690
6003, 0.6194707160, 0.5599051120
6004, 0.7811072470, 0.5601525900
6005, 0.7336170670, 0.5568525790
6006, 0.7546252010, 0.5584847330
6007, 0.7167407270, 0.4878468810
6008, 0.7107490300, 0.4876997770
6009, 0.6966776250, 0.5571304560
6010, 0.6680979730, 0.4654385450
6011, 0.7985760570, 0.5504752400
6012, 0.6219516400, 0.4539338650
6013, 0.6186190840, 0.4568904640
6014, 0.7399883270, 0.4931652840
6015, 0.5751488210, 0.4853535890
6016, 0.5753754970, 0.4880441130
6017, 0.6119399070, 0.4555926320
6018, 0.6355223660, 0.4601577520
6019, 0.7028116580, 0.5523796080
6020, 0.5742736460, 0.5013054610
6021, 0.5774729850, 0.5065785650
6022, 0.6003640890, 0.5490270850
6023, 0.6241552230, 0.5533084870
6024, 0.6641315820, 0.4701915090
6025, 0.7633547190, 0.5275703670
6026, 0.7509188060, 0.5185148120
6027, 0.7423086170, 0.5089068410
6028, 0.7396403550, 0.5043479200
6029, 0.7001200910, 0.4963420630
6030, 0.5824444290, 0.5289599300
6031, 0.7302441600, 0.4943078160
6032, 0.6764566300, 0.4666024450
6033, 0.6677142980, 0.4740964770
6034, 0.6017712350, 0.4739207030
6035, 0.5752961640, 0.4901609720
6036, 0.7338887450, 0.4995731710
6037, 0.5784099100, 0.4859942500
6038, 0.7275068760, 0.5377649660
6039, 0.6546694040, 0.5548749570
6040, 0.6709587570, 0.5413047080
6041, 0.7834903000, 0.5499449970
6042, 0.7862935070, 0.5511034730
6043, 0.5766979460, 0.5176397560
6044, 0.6337289210, 0.4659254550
6045, 0.7018072010, 0.5019641520
6046, 0.7225232120, 0.5011680130
6047, 0.5749068260, 0.4960230590
6048, 0.6971222760, 0.5038414000
6049, 0.7330780030, 0.5065437560
6050, 0.6100798250, 0.5461950900
6051, 0.6644721030, 0.4779806140
6052, 0.6096349360, 0.4783637520
6053, 0.6057819720, 0.4779914320
6054, 0.7340518240, 0.5383470060
6055, 0.6864792700, 0.4933564360
6056, 0.7270551320, 0.5038785340
6057, 0.6744684580, 0.4744861130
6058, 0.5828449730, 0.4847998620
6059, 0.5808850530, 0.4877406950
6060, 0.7593632340, 0.5316973920
6061, 0.7706354860, 0.5423319340
6062, 0.5899793510, 0.5453330280
6063, 0.5876063110, 0.5301667450
6064, 0.5984480380, 0.4785521630
6065, 0.6315134170, 0.4727258090
6066, 0.6274251940, 0.4747945960
6067, 0.6990309360, 0.5420627590
6068, 0.6905540230, 0.5016201140
6069, 0.7521952390, 0.5395624040
6070, 0.7312945720, 0.5348294380
6071, 0.5831991430, 0.4894014890
6072, 0.5866348150, 0.5173250440
6073, 0.5770506860, 0.4938784840
6074, 0.6294578310, 0.4783466160
6075, 0.6765301820, 0.4778311250
6076, 0.6747202280, 0.4811569450
6077, 0.6276423340, 0.4828121360
6078, 0.6721472140, 0.4850074050
6079, 0.7413730030, 0.5325097440
6080, 0.7343139650, 0.5321200490
6081, 0.5933163170, 0.5194996600
6082, 0.5889162420, 0.5046404600
6083, 0.6320892570, 0.5383551120
6084, 0.7310729620, 0.5237826110
6085, 0.6756793860, 0.4866381290
6086, 0.6770631070, 0.5260080700
6087, 0.6923419830, 0.5268185140
6088, 0.7127564550, 0.5323165060
6089, 0.6699662210, 0.5308902260
6090, 0.6661114690, 0.5295580630
6091, 0.6671963930, 0.5266561510
6092, 0.7553394440, 0.5340962410
6093, 0.6902525420, 0.5127722020
6094, 0.6348437670, 0.5399358270
6095, 0.5954592820, 0.5282420520
6096, 0.5981827970, 0.5179151890
6097, 0.6723471880, 0.5223864320
6098, 0.6876677270, 0.5188723800
6099, 0.6978100540, 0.5180418490
6100, 0.6057049630, 0.5326109530
6101, 0.7215737100, 0.5209648610
6102, 0.6402334570, 0.5404417510
6103, 0.5976268650, 0.5280914310
6104, 0.6693019870, 0.5230776070
6105, 0.6612032650, 0.5361759660
6106, 0.6590377690, 0.5359132890
6107, 0.6021026970, 0.4950479570
6108, 0.6362001300, 0.5383552310
6109, 0.5959850550, 0.4963366690
6110, 0.6275171640, 0.5327433350
6111, 0.6328169700, 0.5328059790
6112, 0.6356939080, 0.5333175660
6113, 0.6829094290, 0.5160210730
6114, 0.6698946950, 0.5197854040
6115, 0.6409316660, 0.5378022790
6116, 0.6056810620, 0.5299544930
6117, 0.6552103760, 0.5313473340
6118, 0.6002846960, 0.5145805480
6119, 0.6010913850, 0.5273105500
6120, 0.6844131950, 0.5102218990
6121, 0.6056698560, 0.5257508750
6122, 0.6425437930, 0.5344742540
6123, 0.6540283560, 0.5263341070
6124, 0.6256864670, 0.5298384430
6125, 0.6331206560, 0.5295290950
6126, 0.6131188270, 0.5094707010
6127, 0.6197087760, 0.5141226050
6128, 0.6394127610, 0.5308138130
6129, 0.6296302680, 0.5264508720
6130, 0.6280348900, 0.5144579410
6131, 0.6487638350, 0.5158313510
6132, 0.6297346950, 0.5180189010
6133, 0.6347401140, 0.5171910520
6134, 0.6448321340, 0.5170448420
6135, 0.6423670050, 0.5224367980
6136, 0.6421806220, 0.5158482190
6137, 0.4979003670, 0.5000000000
6138, 0.4958112540, 0.5000000000
6139, 0.4937325720, 0.5000000000
6140, 0.4916642900, 0.5000000000
6141, 0.4896063800, 0.5000000000
6142, 0.4875587220, 0.5000000000
6143, 0.4855213170, 0.5000000000
6144, 0.4834918380, 0.5000000000
6145, 0.4814494250, 0.5000000000
6146, 0.4793753920, 0.5000000000
6147, 0.4772462250, 0.5000000000
6148, 0.4750120640, 0.5000000000
6149, 0.4726423030, 0.5000000000
6150, 0.4701285960, 0.5000000000
6151, 0.4674621820, 0.5000000000
6152, 0.4646337630, 0.5000000000
6153, 0.4615966680, 0.5000000000
6154, 0.4580538870, 0.5000000000
6155, 0.4535197320, 0.5000000000
6156, 0.4474951920, 0.5000000000
6157, 0.4394504130, 0.5000000000
6158, 0.4294404390, 0.5000000000
6159, 0.4186019300, 0.5000000000
6160, 0.4066129620, 0.5000000000
6161, 0.3923495110, 0.5000000000
6162, 0.3758404550, 0.5000000000
6163, 0.3573712110, 0.5000000000
6164, 0.3379517500, 0.5000000000
6165, 0.3182925580, 0.5000000000
6166, 0.2984269260, 0.5000000000
6167, 0.2784776390, 0.5000000000
6168, 0.2585207220, 0.5000000000
6169, 0.2385677990, 0.5000000000
6170, 0.2186359170, 0.5000000000
6171, 0.1987793450, 0.5000000000
6172, 0.1790075600, 0.5000000000
6173, 0.1592645650, 0.5000000000
6174, 0.1395149230, 0.5000000000
6175, 0.1197033820, 0.5000000000
6176, 0.0997925997, 0.5000000000
6177, 0.0798361301, 0.5000000000
6178, 0.0598774254, 0.5000000000
6179, 0.0399182737, 0.5000000000
6180, 0.0199591517, 0.5000000000
6181, 0.0000000000, 0.5000000000
999999, 0.5000000000, 1.0000000000
*ELEMENT, TYPE=U1, ELSET=PHASE_QUADS
1, 626, 3249, 753, 25
2, 753, 3249, 3384, 98
3, 99, 754, 3383, 3380
4, 3359, 3355, 100, 755
5, 101, 756, 3315, 3319
6, 3319, 3357, 757, 101
7, 3378, 3381, 758, 102
8, 3382, 3385, 759, 103
9, 3305, 3222, 105, 761
10, 762, 105, 3222, 3198
11, 3208, 3237, 763, 106
12, 3322, 3360, 764, 107
13, 6181, 765, 5316, 6180
14, 765, 108, 3386, 5316
15, 625, 3199, 3225, 23
16, 3199, 625, 22, 3182
17, 3503, 3663, 153, 5322
18, 153, 3815, 3527, 5322
19, 3519, 3628, 3823, 198
20, 3607, 3949, 3760, 5348
21, 3837, 3599, 3938, 243
22, 3965, 3837, 243, 4145
23, 290, 3718, 3700, 3676
24, 3881, 3714, 3580, 3700
25, 334, 3464, 3642, 3752
26, 3532, 357, 3500, 3657
27, 6179, 3332, 3334, 6178
28, 3329, 3334, 3532, 356
29, 624, 3176, 3182, 22
30, 3443, 3615, 3175, 3178
31, 4294, 4245, 3993, 4196
32, 4089, 4355, 4253, 220
33, 243, 4269, 4260, 4145
34, 4145, 4260, 4370, 266
35, 4307, 4176, 5479, 4066
36, 4335, 4090, 289, 4266
37, 355, 3522, 3638, 3763
38, 6176, 3325, 3313, 6175
39, 3325, 6176, 6177, 3329
40, 3175, 21, 623, 3178
41, 3824, 150, 4007, 5440
42, 5514, 4397, 4773, 4216
43, 4630, 4562, 4782, 195
44, 4505, 5553, 4739, 4645
45, 4654, 4494, 4752, 241
46, 4856, 4612, 4783, 5580
47, 4566, 4693, 5624, 4590
48, 4660, 5521, 5557, 5566
49, 332, 4107, 4207, 4333
50, 355, 3763, 3612, 3517
51, 6174, 3303, 3274, 6173
52, 3274, 354, 3480, 3266
53, 20, 3231, 3194, 622
54, 3194, 3231, 3684, 3450
55, 3631, 3524, 126, 3770
56, 4362, 5029, 5587, 5565
57, 4845, 4616, 4732, 5027
58, 4932, 4919, 5097, 4999
59, 4999, 5102, 4890, 218
60, 5012, 5154, 5037, 241
61, 5625, 5134, 4963, 5581
62, 5136, 4810, 5169, 4839
63, 331, 4195, 4034, 3908
64, 354, 3730, 3559, 3480
65, 3266, 6172, 6173, 3274
66, 19, 3288, 3262, 621
67, 3288, 3292, 3534, 126
68, 3655, 3534, 125, 3789
69, 5564, 5563, 4358, 5622
70, 4637, 193, 4747, 4486
71, 5799, 5081, 5015, 194
72, 5263, 5215, 5290, 5820
73, 5208, 5765, 5292, 5259
74, 286, 5120, 5707, 4935
75, 4636, 307, 4738, 4899
76, 4458, 5408, 4558, 5461
77, 3960, 3836, 352, 4085
78, 3317, 3307, 747, 746
79, 3308, 353, 4085, 3318
80, 619, 3291, 3299, 18
81, 18, 3299, 3292, 620
82, 3670, 3487, 124, 3794
83, 4222, 5530, 4382, 171
84, 4473, 5657, 4791, 4805
85, 216, 4983, 5026, 5127
86, 5305, 239, 5311, 238
87, 5774, 5253, 5816, 5143
88, 4876, 284, 4780, 4977
89, 4623, 307, 4636, 4780
90, 4332, 5519, 4458, 5461
91, 352, 3836, 3600, 3512
92, 6168, 3323, 3327, 6167
93, 3320, 3327, 3512, 351
94, 618, 3246, 3277, 17
95, 3277, 3246, 3475, 124
96, 3671, 3475, 123, 3768
97, 4017, 4415, 4350, 4229
98, 4662, 5062, 191, 4918
99, 5112, 5210, 5176, 5813
100, 5235, 5250, 5176, 5273
101, 260, 5736, 5035, 4833
102, 4877, 4804, 283, 4740
103, 4600, 4489, 4349, 306
104, 4205, 306, 4349, 4234
105, 3591, 350, 3482, 3740
106, 6165, 3309, 3243, 6164
107, 3243, 3309, 3482, 350
108, 617, 3211, 3224, 16
109, 3211, 617, 15, 3202
110, 3769, 3461, 3627, 122
111, 4655, 4776, 4593, 4510
112, 191, 5637, 5234, 5071
113, 5278, 5254, 213, 5185
114, 4943, 5822, 5035, 5794
115, 283, 4804, 5108, 4567
116, 4138, 304, 4249, 4389
117, 4135, 3976, 326, 3974
118, 3974, 3753, 3741, 4070
119, 6163, 3217, 3165, 6162
120, 3165, 3217, 3543, 349
121, 3202, 15, 616, 3213
122, 3202, 3213, 3457, 3627
123, 4053, 3587, 3722, 144
124, 4414, 4273, 167, 4477
125, 5028, 4848, 4967, 5085
126, 236, 5117, 5003, 4948
127, 4694, 258, 4619, 4796
128, 4186, 4271, 4289, 4437
129, 4138, 5650, 5598, 304
130, 5455, 5411, 326, 3976
131, 5366, 3395, 5447, 348
132, 841, 1288, 741, 87
133, 6160, 1255, 840, 6159
134, 14, 3230, 3213, 616
135, 3230, 3252, 3472, 3678
136, 4037, 120, 4258, 4033
137, 5260, 5607, 4677, 5302
138, 5260, 5190, 4883, 5607
139, 5033, 235, 5094, 5184
140, 258, 4687, 4649, 4421
141, 4283, 281, 4304, 4457
142, 3826, 303, 3952, 4084
143, 1110, 1109, 1016, 5439
144, 737, 86, 824, 827
145, 6154, 823, 821, 6153
146, 13, 3279, 3273, 614
147, 3273, 3279, 4258, 120
148, 3565, 3712, 3885, 4033
149, 165, 4451, 4193, 4518
150, 4823, 5005, 5302, 5540
151, 210, 5746, 5082, 5122
152, 4639, 257, 4741, 4858
153, 279, 3932, 5759, 4248
154, 324, 3400, 3160, 1251
155, 1141, 347, 1146, 1174
156, 788, 785, 724, 723
157, 791, 6139, 6140, 789
158, 612, 3295, 3300, 12
159, 12, 3300, 3296, 613
160, 3906, 3613, 3746, 141
161, 4056, 4363, 4277, 142
162, 4690, 5568, 164, 5507
163, 5229, 5655, 4928, 5061
164, 5023, 5839, 233, 5109
165, 4830, 4591, 5891, 4602
166, 278, 4123, 4247, 4297
167, 301, 3910, 3797, 3604
168, 3394, 3510, 1588, 1437
169, 1365, 1340, 1308, 1342
170, 1030, 935, 873, 980
171, 1104, 1138, 370, 1061
172, 3675, 3717, 3418, 3420
173, 4496, 4565, 4801, 4573
174, 5713, 4646, 5670, 4759
175, 5060, 461, 4933, 4978
176, 5236, 5156, 506, 5289
177, 5147, 4993, 4906, 4988
178, 4543, 4743, 4627, 552
179, 4341, 4403, 4240, 4118
180, 3525, 598, 3637, 3820
181, 3347, 3348, 3531, 598
182, 680, 3227, 3340, 50
183, 719, 3227, 680, 73
184, 718, 3200, 3207, 84
185, 3880, 3710, 3583, 3721
186, 5472, 4201, 5449, 4032
187, 4905, 4618, 531, 4724
188, 5171, 5145, 508, 5118
189, 5217, 5269, 5719, 5298
190, 439, 4872, 4785, 4634
191, 438, 4678, 4462, 4646
192, 3867, 4394, 4122, 5387
193, 371, 3143, 1062, 1017
194, 827, 894, 899, 830
195, 815, 817, 735, 734
196, 779, 854, 856, 783
197, 611, 3283, 3293, 11
198, 118, 3485, 3283, 3276
199, 3644, 3485, 118, 3780
200, 4319, 4178, 163, 4524
201, 4622, 4778, 4633, 4524
202, 185, 4853, 4778, 4622
203, 5091, 231, 5819, 5152
204, 5891, 5887, 5912, 255
205, 4100, 277, 3979, 5861
206, 3690, 300, 3799, 3798
207, 1790, 3393, 321, 1923
208, 1598, 5715, 1581, 368
209, 5899, 3336, 3404, 3148
210, 3883, 3635, 3584, 410
211, 4417, 455, 4584, 4468
212, 4980, 5116, 5000, 4827
213, 522, 4985, 4894, 4737
214, 544, 4641, 4538, 4342
215, 567, 4232, 4021, 3931
216, 586, 3514, 3609, 3767
217, 63, 3341, 3311, 696
218, 695, 3352, 3341, 63
219, 694, 3286, 3338, 62
220, 3448, 3634, 3203, 3170
221, 3926, 3840, 568, 4009
222, 4361, 4237, 545, 4536
223, 4647, 4793, 4641, 4536
224, 523, 4871, 4793, 4647
225, 5129, 5844, 5000, 499
226, 456, 4576, 4434, 4366
227, 4366, 4577, 4156, 5959
228, 3791, 411, 3701, 3937
229, 1558, 3392, 1559, 1497
230, 1372, 1347, 1346, 1376
231, 870, 937, 990, 932
232, 610, 3263, 3276, 10
233, 3479, 3263, 3241, 117
234, 3479, 117, 3790, 3665
235, 4384, 4481, 5511, 4503
236, 4622, 5512, 4658, 185
237, 4954, 4784, 184, 4969
238, 5830, 231, 5091, 4989
239, 254, 4606, 4487, 5902
240, 5902, 4100, 4339, 254
241, 3804, 299, 3944, 3961
242, 3405, 320, 3119, 3158
243, 1890, 1790, 1923, 1952
244, 1999, 1965, 2031, 5993
245, 2091, 1912, 1984, 2052
246, 3431, 3505, 3150, 3152
247, 409, 3711, 3590, 3431
248, 4400, 4512, 455, 4374
249, 4663, 4463, 4749, 477
250, 5004, 4895, 4990, 5104
251, 5161, 5195, 5771, 5222
252, 4862, 4824, 4553, 4569
253, 585, 3529, 3624, 3745
254, 64, 3236, 3195, 697
255, 3236, 3311, 3529, 585
256, 609, 3229, 3241, 9
257, 3241, 3229, 3469, 117
258, 3783, 3469, 116, 3742
259, 4322, 162, 4192, 139
260, 4727, 4786, 4617, 4522
261, 4786, 183, 4968, 4869
262, 5074, 5831, 230, 4995
263, 4756, 5923, 253, 5906
264, 276, 4452, 4611, 4274
265, 3959, 298, 4099, 4120
266, 320, 3509, 3133, 2218
267, 5928, 2218, 2256, 2172
268, 2244, 343, 2292, 2324
269, 2413, 2294, 6003, 2372
270, 3132, 387, 2851, 3417
271, 3725, 3953, 3969, 3814
272, 4373, 454, 4268, 4097
273, 4504, 4609, 4781, 4599
274, 5099, 5137, 5221, 4990
275, 5689, 5119, 4973, 4955
276, 542, 4689, 4657, 4428
277, 4402, 565, 4164, 4428
278, 3662, 584, 3540, 3747
279, 65, 3180, 3179, 698
280, 3180, 3195, 3540, 584
281, 8, 3232, 3229, 609
282, 3232, 3250, 3537, 116
283, 3646, 3537, 115, 3756
284, 4279, 4407, 4168, 4064
285, 183, 4650, 4745, 4907
286, 5009, 5716, 5166, 5084
287, 252, 4744, 4860, 4668
288, 275, 5932, 5927, 4077
289, 297, 3933, 3795, 3687
290, 3432, 3135, 5935, 319
291, 342, 2619, 2614, 2573
292, 6024, 6010, 2615, 6033
293, 2738, 2773, 2812, 2775
294, 2889, 3127, 2813, 2850
295, 3563, 3692, 3873, 5936
296, 4166, 3985, 4272, 5901
297, 5881, 4674, 474, 4914
298, 5784, 5011, 5103, 495
299, 5090, 5703, 5668, 519
300, 4575, 540, 4519, 4719
301, 3666, 3813, 3447, 584
302, 698, 3179, 3181, 66
303, 3447, 3179, 3180, 584
304, 7, 3287, 3250, 608
305, 3287, 3294, 3521, 115
306, 3622, 3521, 114, 3765
307, 4183, 4539, 5592, 5524
308, 5671, 4800, 5645, 4629
309, 181, 4874, 4800, 5671
310, 251, 4766, 4831, 4664
311, 4664, 274, 4592, 251
312, 4115, 3871, 4098, 4165
313, 2980, 2922, 2984, 3015
314, 2458, 2496, 2538, 2459
315, 2825, 2787, 2733, 2802
316, 4148, 428, 4303, 4420
317, 5089, 5856, 4892, 4691
318, 5160, 5228, 5103, 4981
319, 5142, 517, 5115, 5063
320, 4665, 4699, 4583, 4485
321, 4239, 4387, 563, 4111
322, 3598, 583, 3807, 3945
323, 699, 3196, 3235, 67
324, 3621, 3463, 3196, 3181
325, 606, 3281, 3298, 6
326, 3281, 3253, 113, 3484
327, 3835, 4594, 3934, 3606
328, 159, 4224, 4340, 5525
329, 4652, 5030, 4818, 4718
330, 5124, 5059, 4931, 5634
331, 5810, 5249, 5306, 5180
332, 5812, 4975, 5087, 4879
333, 5835, 4597, 4768, 4579
334, 4292, 4152, 4002, 4161
335, 317, 3713, 3649, 3414
336, 3145, 5832, 2499, 340
337, 2096, 2173, 2136, 2057
338, 2414, 2375, 2374, 2453
339, 3138, 2420, 2460, 3146
340, 406, 3571, 3403, 3138
341, 4367, 4278, 3987, 4197
342, 4942, 5101, 4812, 472
343, 4971, 5126, 5815, 4942
344, 4917, 4950, 5067, 5162
345, 539, 4583, 4764, 4364
346, 562, 4250, 4045, 3935
347, 582, 3757, 3605, 3493
348, 700, 3312, 3349, 68
349, 582, 3493, 3312, 3235
350, 605, 3238, 3253, 5
351, 112, 5332, 3228, 3233
352, 4762, 3835, 3958, 4351
353, 4688, 4467, 4834, 4560
354, 4735, 5030, 4652, 5480
355, 5201, 5006, 5040, 5672
356, 4926, 225, 5054, 5692
357, 248, 4941, 4867, 4648
358, 4815, 4821, 5052, 271
359, 4480, 4301, 4393, 4425
360, 3852, 316, 3983, 3968
361, 1887, 1822, 5785, 5786
362, 1957, 5882, 5883, 1992
363, 3146, 2460, 2215, 2259
364, 426, 3793, 3723, 4131
365, 4244, 4380, 4197, 427
366, 4589, 4730, 472, 4812
367, 5016, 4953, 5075, 5070
368, 4952, 5079, 515, 5042
369, 4614, 4535, 4344, 538
370, 561, 4221, 4011, 3909
371, 580, 3555, 3909, 4071
372, 69, 701, 3353, 3351
373, 3353, 701, 68, 3349
374, 4, 3233, 3228, 604
375, 3733, 3901, 3575, 111
376, 4446, 4305, 5571, 4169
377, 4758, 4997, 4802, 4574
378, 4500, 4729, 4656, 5529
379, 4669, 5528, 4746, 4900
380, 4772, 4965, 4832, 248
381, 293, 4582, 4552, 4828
382, 5545, 3705, 315, 5611
383, 3705, 3977, 3586, 315
384, 1644, 1587, 1615, 1669
385, 1788, 1733, 1761, 1823
386, 1791, 1761, 1733, 382
387, 3888, 4055, 4131, 3723
388, 5543, 4386, 5603, 5544
389, 470, 4704, 4483, 4470
390, 4598, 4697, 5711, 471
391, 4817, 4725, 4626, 5648
392, 5527, 4635, 4516, 4695
393, 4911, 4461, 4344, 4535
394, 3551, 4057, 4191, 3893
395, 70, 3316, 3251, 704
396, 3316, 3346, 3496, 579
397, 3, 3278, 3248, 603
398, 3248, 3278, 3679, 3471
399, 3520, 110, 3625, 3834
400, 5446, 4184, 3733, 4114
401, 4280, 4041, 4179, 4360
402, 4343, 4215, 201, 4500
403, 5398, 4390, 4010, 5385
404, 5478, 4043, 5402, 4409
405, 4076, 4527, 4188, 5397
406, 4604, 4435, 4306, 4242
407, 3956, 3829, 314, 4038
408, 1496, 1557, 3144, 336
409, 1436, 1253, 1320, 1404
410, 1491, 1524, 5616, 1551
411, 3134, 1791, 382, 1703
412, 3973, 3709, 3818, 424
413, 4212, 4325, 3991, 5416
414, 4470, 4141, 4214, 470
415, 470, 4214, 4337, 4507
416, 4223, 4336, 4537, 5550
417, 71, 3212, 3188, 705
418, 3212, 3251, 3467, 3683
419, 601, 3289, 3297, 2
420, 2, 3297, 3290, 602
421, 3653, 3486, 109, 3441
422, 155, 3996, 3821, 3855
423, 3528, 177, 3632, 3831
424, 3654, 3536, 199, 3774
425, 3672, 3477, 222, 3792
426, 3787, 3465, 245, 3744
427, 4035, 3636, 3697, 3719
428, 4044, 3570, 4181, 291
429, 3900, 3702, 313, 5370
430, 3428, 335, 3151, 3530
431, 1105, 1059, 1103, 1144
432, 1184, 1248, 1213, 1139
433, 3566, 3508, 3504, 3399
434, 3566, 3399, 3810, 3698
435, 3541, 446, 3667, 3782
436, 3660, 3476, 468, 5367
437, 490, 3640, 3468, 3630
438, 3579, 3453, 512, 4063
439, 3726, 3899, 3568, 534
440, 3620, 3750, 3902, 4129
441, 3452, 3683, 3803, 3652
442, 705, 3188, 3189, 72
443, 600, 5315, 3282, 1
444, 3282, 5315, 3183, 109
445, 3167, 3439, 3438, 3168
446, 3439, 3167, 3169, 3442
447, 3688, 3177, 3215, 3528
448, 3536, 3268, 3272, 199
449, 3261, 222, 3477, 3271
450, 3465, 3234, 3210, 245
451, 3184, 3686, 3449, 3186
452, 3451, 3185, 3190, 4181
453, 4295, 3219, 3242, 3474
454, 3270, 3269, 39, 667
455, 836, 1108, 666, 665
456, 852, 5319, 850, 945
457, 787, 796, 661, 660
458, 645, 809, 801, 646
459, 822, 892, 890, 819
460, 638, 3120, 908, 35
461, 3538, 3254, 3259, 423
462, 3541, 3256, 3258, 446
463, 3476, 3257, 3255, 468
464, 3630, 3468, 3221, 3201
465, 3191, 3193, 4285, 512
466, 3204, 3223, 3681, 3454
467, 578, 3478, 3264, 3260
468, 706, 3214, 627, 49
469, 627, 3214, 3260, 26
470, 693, 3170, 3203, 61
471, 3436, 3440, 3163, 3164
472, 3585, 3954, 3832, 588
473, 569, 4101, 3975, 3995
474, 4820, 4813, 4936, 5168
475, 5874, 4769, 4884, 4970
476, 434, 4426, 4308, 4158
477, 412, 3876, 3796, 5836
478, 3419, 3544, 5788, 390
479, 1246, 5526, 1210, 1318
480, 60, 3164, 3163, 692
481, 3436, 3539, 3659, 589
482, 3805, 570, 3942, 3659
483, 4218, 4399, 4508, 5583
484, 4465, 4580, 4777, 524
485, 5745, 5024, 502, 5132
486, 5257, 481, 5841, 5277
487, 5001, 4970, 5045, 5114
488, 4581, 4329, 5795, 4454
489, 4000, 4155, 3862, 413
490, 3717, 3693, 3574, 3418
491, 59, 3205, 3172, 691
492, 3205, 3302, 3542, 590
493, 3668, 3542, 591, 3785
494, 4313, 547, 4819, 4170
495, 4615, 526, 4851, 4720
496, 5098, 5600, 5138, 5299
497, 5814, 5291, 5223, 5262
498, 4581, 4753, 436, 4329
499, 58, 3339, 3302, 690
500, 3339, 3350, 3535, 591
501, 3784, 3535, 592, 3775
502, 4316, 548, 4171, 5400
503, 4790, 4615, 5520, 4638
504, 5022, 5106, 5676, 4885
505, 5213, 5296, 5293, 5710
506, 5125, 4889, 459, 5204
507, 688, 3344, 3345, 57
508, 3344, 688, 56, 3342
509, 3641, 3497, 593, 3762
510, 4321, 549, 4177, 3998
511, 4529, 4794, 4608, 5589
512, 4875, 4794, 528, 4979
513, 5248, 483, 5294, 5153
514, 5308, 5225, 5266, 5840
515, 3342, 56, 687, 3343
516, 3614, 3516, 594, 3761
517, 550, 4231, 4014, 4354
518, 4984, 506, 5156, 5121
519, 5156, 5286, 5281, 5121
520, 686, 3306, 3337, 55
521, 3306, 3239, 595, 3491
522, 3936, 3603, 3727, 575
523, 4365, 5482, 4251, 4144
524, 4726, 529, 4632, 4530
525, 529, 4993, 4984, 4909
526, 685, 3216, 3239, 54
527, 3680, 3458, 3206, 3209
528, 576, 4094, 3839, 3856
529, 553, 4346, 576, 4240
530, 53, 3209, 3206, 684
531, 4284, 3588, 3729, 577
532, 52, 3301, 3226, 683
533, 3331, 682, 51, 3347
534, 3207, 3200, 3455, 599
535, 83, 3220, 3200, 718
536, 4675, 5471, 4676, 532
537, 4846, 4610, 4789, 4945
538, 4996, 5105, 4903, 5646
539, 5025, 5177, 5092, 441
540, 4642, 5585, 4785, 5638
541, 5457, 4287, 5569, 4036
542, 3589, 3691, 3828, 5375
543, 966, 1288, 841, 909
544, 834, 838, 740, 739
545, 3220, 3280, 3470, 3685
546, 82, 3356, 3280, 717
547, 4378, 4262, 510, 4544
548, 4146, 4263, 4369, 510
549, 4748, 4495, 4640, 464
550, 4866, 4938, 5100, 4939
551, 4779, 4642, 4944, 4861
552, 4225, 417, 4353, 4003
553, 3915, 3616, 3754, 394
554, 3411, 3444, 3218, 3166
555, 3122, 3155, 1288, 966
556, 3356, 3377, 4721, 556
557, 3371, 715, 714, 3376
558, 3966, 3838, 488, 4146
559, 488, 4270, 4263, 4146
560, 5644, 4838, 4493, 443
561, 4742, 4938, 4882, 419
562, 396, 5467, 4371, 4143
563, 3494, 374, 5343, 3569
564, 3166, 3218, 743, 88
565, 3371, 4474, 533, 3361
566, 3362, 80, 713, 3370
567, 3838, 3601, 3940, 488
568, 4345, 465, 4368, 4004
569, 5644, 443, 4666, 442
570, 396, 3967, 3841, 5412
571, 3328, 3324, 91, 745
572, 3244, 3310, 744, 89
573, 712, 3369, 3372, 79
574, 467, 3513, 3611, 3766
575, 3994, 4388, 4219, 444
576, 4206, 4330, 420, 4226
577, 3907, 3558, 4060, 4029
578, 376, 3307, 3317, 4383
579, 3321, 3328, 745, 90
580, 79, 3372, 3370, 713
581, 3363, 78, 711, 3375
582, 445, 3518, 3633, 3771
583, 4023, 5505, 4206, 4226
584, 3921, 3610, 3735, 398
585, 3481, 3267, 3285, 4203
586, 3307, 3285, 92, 747
587, 3363, 467, 3501, 3369
588, 3364, 77, 710, 3368
589, 422, 3526, 3648, 3777
590, 3639, 3492, 378, 3759
591, 377, 3275, 3267, 3481
592, 748, 92, 3285, 3267
593, 3364, 445, 3513, 3375
594, 3365, 76, 709, 3374
595, 401, 3533, 3661, 3786
596, 750, 94, 3314, 3326
597, 3275, 3304, 749, 93
598, 3518, 3368, 3365, 422
599, 3367, 708, 74, 3373
600, 3335, 3333, 96, 751
601, 3366, 3367, 3533, 401
602, 707, 5314, 3373, 74
603, 3330, 3335, 751, 95
604, 3373, 5314, 3333, 380
605, 3500, 3360, 3322, 334
606, 3464, 3237, 3208, 3626
607, 3459, 3198, 3222, 3676
608, 244, 4086, 3385, 3382
609, 3378, 221, 3502, 3381
610, 3319, 198, 3499, 3357
611, 3319, 3315, 3519, 198
612, 3359, 3380, 5322, 3527
613, 130, 3503, 3383, 3384
614, 3168, 3171, 678, 47
615, 3486, 3653, 3816, 110
616, 3679, 3520, 3834, 111
617, 112, 3471, 3575, 4050
618, 3958, 3835, 113, 4082
619, 114, 3484, 3606, 3765
620, 115, 3521, 3622, 3756
621, 116, 3537, 3646, 3742
622, 3673, 117, 3469, 3783
623, 118, 3479, 3665, 3780
624, 3485, 3644, 3746, 119
625, 3830, 3677, 3488, 3613
626, 3565, 4033, 4258, 3483
627, 3553, 121, 3678, 3472
628, 3457, 3587, 122, 3627
629, 3650, 123, 3461, 3769
630, 124, 3475, 3671, 3794
631, 125, 3487, 3670, 3789
632, 126, 3534, 3655, 3770
633, 3524, 3631, 3825, 3684
634, 3443, 3550, 128, 3615
635, 3663, 3503, 130, 3460
636, 677, 676, 3169, 3167
637, 5395, 3874, 4026, 5396
638, 4160, 3996, 155, 4396
639, 4433, 4054, 5571, 4305
640, 4467, 4572, 135, 4762
641, 4052, 5445, 3934, 4594
642, 137, 3911, 4027, 5451
643, 138, 3882, 4064, 5399
644, 139, 3865, 4031, 4322
645, 4016, 4320, 4108, 3870
646, 3999, 4334, 4125, 3927
647, 3986, 4056, 142, 3712
648, 4081, 144, 3722, 3889
649, 145, 5500, 4075, 4198
650, 146, 3914, 4015, 4199
651, 4017, 147, 5441, 3864
652, 4008, 148, 5442, 3866
653, 5515, 4124, 3947, 3990
654, 4265, 4007, 150, 4282
655, 4112, 152, 5372, 5405
656, 3651, 3815, 153, 3779
657, 3215, 3177, 46, 675
658, 3855, 3821, 3831, 3632
659, 4758, 5610, 4605, 4997
660, 5480, 4652, 4513, 158
661, 5525, 4340, 4513, 4718
662, 160, 5592, 4539, 4629
663, 4407, 4532, 161, 4168
664, 4522, 162, 4322, 4514
665, 5507, 4524, 4633, 4690
666, 4277, 4554, 4518, 4193
667, 5476, 4760, 166, 4806
668, 4411, 4475, 167, 4174
669, 4713, 4414, 4477, 4698
670, 4655, 4510, 168, 5640
671, 170, 4350, 4484, 4596
672, 171, 4382, 4473, 4637
673, 4486, 172, 5622, 4358
674, 5029, 4501, 173, 4855
675, 4798, 4782, 4562, 5549
676, 175, 4157, 4030, 3891
677, 3628, 3519, 176, 3749
678, 3268, 3245, 45, 674
679, 177, 3536, 3654, 3758
680, 4312, 4179, 4041, 178
681, 4605, 179, 5529, 4656
682, 4920, 5701, 5040, 180
683, 4931, 181, 4898, 5634
684, 5019, 4800, 4874, 5044
685, 4786, 4869, 184, 4617
686, 185, 4658, 4857, 5630
687, 5032, 4778, 4853, 5041
688, 4826, 5612, 5635, 187
689, 5302, 5005, 188, 5260
690, 5662, 4883, 5782, 4967
691, 5028, 190, 4897, 4848
692, 5663, 5206, 5637, 5047
693, 4918, 191, 5071, 4923
694, 4808, 193, 4805, 4791
695, 194, 5027, 4910, 5799
696, 4825, 195, 5654, 5043
697, 4630, 4739, 5553, 196
698, 198, 3808, 3607, 3499
699, 3261, 3271, 673, 43
700, 199, 3477, 3672, 3774
701, 4521, 4010, 4390, 4469
702, 4669, 4603, 201, 5528
703, 4900, 4926, 4940, 5674
704, 5247, 5197, 5249, 5810
705, 5242, 5165, 5807, 5179
706, 5038, 5827, 5080, 5796
707, 5074, 5721, 5207, 5831
708, 4902, 5088, 4995, 230
709, 5843, 4957, 5819, 4854
710, 5199, 5109, 210, 5229
711, 5837, 4972, 234, 5033
712, 5128, 5747, 5184, 212
713, 5220, 5117, 213, 5270
714, 5135, 5202, 5278, 5185
715, 216, 5127, 5191, 5295
716, 5290, 5214, 5227, 5820
717, 4932, 4999, 218, 4891
718, 4645, 5579, 219, 4505
719, 4042, 220, 4253, 4379
720, 221, 5348, 3599, 3502
721, 3210, 3234, 672, 42
722, 3669, 222, 3465, 3787
723, 4347, 5484, 4043, 5478
724, 4648, 4795, 4540, 5537
725, 5200, 4941, 5123, 5744
726, 5180, 4975, 227, 5810
727, 5036, 4831, 4859, 5066
728, 5827, 4766, 4668, 4860
729, 4756, 4864, 5139, 4744
730, 4755, 4661, 4487, 4606
731, 4606, 254, 4715, 231
732, 5823, 4733, 4602, 256
733, 234, 4972, 4858, 4741
734, 4687, 4841, 4685, 4649
735, 4619, 4555, 259, 4796
736, 5135, 5865, 4943, 5821
737, 5794, 5111, 5198, 237
738, 239, 5305, 5253, 5304
739, 5304, 5253, 5808, 5259
740, 242, 4654, 4783, 5483
741, 244, 3837, 3965, 4086
742, 3184, 3186, 671, 41
743, 3886, 3744, 3636, 4035
744, 4527, 4076, 4311, 4631
745, 4648, 5537, 4772, 248
746, 4964, 5666, 4947, 249
747, 5947, 4520, 252, 4459
748, 4520, 4611, 5923, 252
749, 4109, 5926, 4452, 276
750, 4100, 5861, 4235, 4339
751, 279, 4247, 4123, 3910
752, 4357, 4128, 5691, 280
753, 4555, 4619, 4437, 4289
754, 4797, 4448, 4567, 5108
755, 4804, 4949, 260, 5108
756, 285, 4977, 4780, 4636
757, 5055, 5707, 5208, 262
758, 264, 5107, 5181, 5659
759, 4736, 4856, 264, 5659
760, 4439, 4370, 4443, 4673
761, 3549, 4049, 3895, 3718
762, 3185, 3184, 41, 670
763, 3719, 3697, 268, 3570
764, 4242, 4306, 4096, 292
765, 4425, 4393, 294, 5725
766, 295, 4161, 4002, 3923
767, 4098, 3871, 296, 5922
768, 4099, 276, 4274, 4120
769, 3798, 3799, 5834, 3979
770, 5833, 3941, 4123, 278
771, 5691, 4128, 5759, 5693
772, 280, 5691, 5690, 4084
773, 5650, 4138, 282, 4271
774, 4740, 4600, 284, 4877
775, 4956, 5136, 4963, 286
776, 288, 4590, 5566, 5557
777, 5479, 4266, 289, 3895
778, 3700, 3580, 3459, 3676
779, 3242, 3219, 40, 668
780, 5335, 4246, 3857, 5340
781, 4106, 3956, 4604, 4242
782, 3956, 4038, 4775, 4604
783, 3968, 3983, 4153, 4039
784, 3923, 4002, 5790, 3713
785, 3597, 3548, 3416, 3972
786, 3972, 3515, 3687, 296
787, 3509, 3618, 3707, 3608
788, 3158, 3424, 3594, 3405
789, 3435, 3402, 5798, 322
790, 3602, 3434, 3174, 3400
791, 1287, 3197, 3429, 324
792, 5501, 5456, 5517, 303
793, 5503, 4095, 4264, 304
794, 4349, 4489, 305, 4159
795, 4205, 4332, 5554, 306
796, 4464, 4671, 4558, 5408
797, 5077, 4195, 4327, 5010
798, 4207, 310, 5477, 4333
799, 4072, 311, 4154, 4040
800, 3464, 3626, 3751, 3642
801, 3157, 3270, 667, 38
802, 3425, 3547, 3530, 336
803, 3456, 3121, 337, 3581
804, 1993, 338, 3162, 3407
805, 3397, 3674, 3388, 3149
806, 3414, 3572, 3145, 3159
807, 2952, 2985, 3061, 2984
808, 2661, 2807, 2619, 2571
809, 2256, 2288, 2214, 2172
810, 1951, 1913, 1983, 1981
811, 1643, 5800, 1672, 1701
812, 1365, 1396, 5776, 1340
813, 1219, 1183, 1109, 1110
814, 3433, 3511, 5384, 3592
815, 3974, 326, 3645, 3753
816, 3740, 3482, 351, 3764
817, 3836, 4585, 3930, 3600
818, 3836, 3960, 4761, 329
819, 3908, 3559, 3730, 331
820, 3612, 3763, 3920, 4113
821, 3638, 3522, 356, 3781
822, 356, 3532, 3657, 3781
823, 1064, 1185, 1014, 958
824, 1286, 1320, 1253, 1218
825, 1525, 1587, 1556, 1495
826, 1821, 1853, 1789, 1759
827, 2132, 2173, 2096, 2092
828, 2458, 2419, 5934, 2496
829, 6051, 6033, 2657, 2693
830, 2287, 2354, 2328, 2230
831, 1963, 1972, 2002, 2038
832, 871, 934, 799, 798
833, 1180, 1139, 1213, 1233
834, 1457, 1432, 1491, 1515
835, 1756, 1700, 1733, 1788
836, 2021, 5883, 1958, 2131
837, 2297, 2374, 2375, 2336
838, 2698, 2617, 2620, 385
839, 2773, 2809, 2848, 2812
840, 1954, 1982, 2025, 1984
841, 1379, 1347, 1409, 3173
842, 1640, 5787, 1699, 1589
843, 1147, 1065, 1061, 370
844, 1065, 1107, 1015, 1012
845, 3143, 3567, 3413, 1062
846, 372, 3629, 3444, 3411
847, 374, 3643, 3616, 5343
848, 3494, 3569, 375, 3842
849, 375, 3841, 3967, 5347
850, 377, 3481, 3558, 3735
851, 378, 3489, 3610, 3759
852, 379, 3492, 3639, 3778
853, 3533, 380, 3495, 3661
854, 35, 908, 837, 639
855, 3399, 3504, 3125, 3390
856, 3389, 3134, 1703, 5541
857, 1823, 1761, 1855, 1920
858, 2259, 2131, 383, 5866
859, 2461, 2380, 2420, 3124
860, 2846, 385, 3142, 3128
861, 2813, 2851, 387, 2775
862, 2575, 2624, 2739, 2774
863, 2213, 3150, 3139, 2133
864, 3392, 3506, 3387, 1559
865, 389, 1917, 1953, 2091
866, 392, 3868, 3776, 3619
867, 3988, 5572, 4162, 414
868, 5376, 5387, 394, 3754
869, 3915, 4036, 395, 3737
870, 4003, 4353, 5412, 5437
871, 4256, 4376, 4143, 4371
872, 3907, 4029, 4173, 5509
873, 399, 3921, 4028, 4206
874, 399, 4206, 5505, 3943
875, 3648, 3526, 401, 3786
876, 34, 3254, 3187, 637
877, 404, 5617, 3576, 5577
878, 3556, 405, 3423, 4022
879, 3578, 3793, 3724, 406
880, 3571, 3971, 3695, 3403
881, 407, 4137, 4291, 4006
882, 3715, 408, 5968, 3563
883, 3422, 3582, 5985, 409
884, 3819, 3590, 3711, 3859
885, 3791, 3937, 4047, 3904
886, 3635, 3701, 411, 3507
887, 4646, 4462, 4490, 4466
888, 4394, 5532, 4466, 4490
889, 439, 4418, 4462, 4678
890, 5547, 4515, 5585, 418
891, 419, 4438, 4621, 4742
892, 420, 4330, 4525, 4482
893, 4023, 4226, 421, 4105
894, 3633, 3518, 422, 3777
895, 3258, 635, 32, 3257
896, 4212, 448, 5543, 4325
897, 4131, 4055, 5578, 4267
898, 3858, 3971, 428, 4148
899, 4356, 4420, 4303, 5869
900, 4272, 3985, 4048, 429
901, 432, 3859, 4257, 4374
902, 4047, 433, 4156, 4426
903, 4156, 433, 4172, 5959
904, 3982, 3981, 3853, 3796
905, 4167, 4151, 3981, 3982
906, 438, 4754, 4887, 4678
907, 4785, 4872, 5014, 5638
908, 5025, 4944, 440, 5057
909, 4004, 444, 4219, 4345
910, 3611, 3513, 445, 3771
911, 634, 3255, 3257, 32
912, 446, 3476, 3660, 3788
913, 4212, 5453, 4385, 448
914, 4386, 4471, 5705, 449
915, 450, 4380, 4445, 4589
916, 4476, 4528, 451, 4547
917, 452, 4588, 4670, 4686
918, 454, 4373, 4504, 4599
919, 4463, 4663, 4512, 4400
920, 4842, 4576, 4763, 478
921, 4417, 4468, 456, 4172
922, 4620, 4769, 4717, 4533
923, 4454, 4896, 4707, 4581
924, 4753, 4840, 4961, 4849
925, 5853, 5809, 461, 5852
926, 5173, 5280, 5804, 5853
927, 463, 5279, 5269, 5217
928, 5646, 4903, 4748, 464
929, 5469, 4640, 4495, 4377
930, 466, 4252, 4025, 3940
931, 467, 3766, 3601, 3501
932, 633, 3221, 3240, 31
933, 3640, 3773, 5331, 3468
934, 4337, 4214, 5435, 4013
935, 4561, 4704, 4598, 471
936, 4730, 4904, 5724, 472
937, 5219, 473, 5815, 5126
938, 474, 4892, 4981, 5873
939, 5818, 4914, 5780, 4992
940, 476, 4781, 4878, 5099
941, 4895, 477, 4749, 476
942, 5844, 5129, 5806, 478
943, 4865, 4884, 4769, 457
944, 5045, 5076, 5174, 5841
945, 5211, 5056, 5114, 481
946, 5147, 506, 4984, 4993
947, 507, 5232, 5147, 4988
948, 5007, 485, 5189, 5064
949, 487, 4653, 4789, 5470
950, 3838, 3966, 5333, 489
951, 632, 3192, 3201, 30
952, 3579, 3897, 3728, 490
953, 4336, 4223, 4080, 4541
954, 5550, 4725, 5068, 492
955, 5065, 5144, 4927, 516
956, 5244, 5162, 5067, 5275
957, 5784, 5193, 5735, 5096
958, 5119, 497, 5221, 5183
959, 5161, 5222, 5265, 5688
960, 5017, 4793, 4871, 5051
961, 5116, 5140, 499, 5000
962, 5243, 5858, 5285, 5209
963, 5726, 5299, 5138, 5223
964, 5153, 504, 5053, 5093
965, 5660, 4908, 4994, 530
966, 4988, 4994, 5095, 507
967, 4750, 4723, 4807, 4724
968, 510, 4369, 4442, 4544
969, 4262, 4378, 511, 4087
970, 3193, 631, 630, 3204
971, 4063, 512, 4285, 4068
972, 4083, 4348, 4398, 4228
973, 4635, 5606, 4542, 4516
974, 4714, 4837, 4643, 4502
975, 4699, 5063, 5115, 4583
976, 4719, 4519, 5464, 541
977, 4847, 4701, 4557, 4683
978, 4647, 4536, 545, 4506
979, 4737, 521, 4628, 4538
980, 4813, 4820, 523, 4774
981, 524, 4777, 4850, 5697
982, 4843, 5020, 525, 4886
983, 4790, 4885, 526, 4615
984, 4794, 4875, 5013, 5673
985, 528, 4722, 4909, 4979
986, 4728, 5555, 4479, 5596
987, 4403, 5595, 4479, 5555
988, 3557, 4721, 533, 4061
989, 28, 3223, 3204, 630
990, 4220, 4059, 5495, 5539
991, 536, 5551, 4516, 4542
992, 4221, 538, 4344, 4011
993, 4250, 539, 4364, 4045
994, 4387, 540, 4485, 4413
995, 4338, 4519, 4239, 5444
996, 4204, 4323, 4509, 541
997, 4569, 4553, 4444, 4302
998, 4009, 568, 4237, 4361
999, 4342, 543, 4217, 4021
1000, 547, 4706, 4551, 4819
1001, 548, 4615, 4720, 4852
1002, 548, 4316, 5520, 4615
1003, 550, 4354, 4498, 5556
1004, 551, 5482, 4530, 4632
1005, 4404, 5473, 4019, 5588
1006, 628, 3264, 3265, 27
1007, 3478, 3652, 3817, 557
1008, 3879, 3720, 559, 4318
1009, 4182, 4057, 3551, 3496
1010, 3909, 3555, 3732, 561
1011, 3935, 3605, 3757, 562
1012, 3747, 3540, 585, 3745
1013, 3624, 3529, 586, 3767
1014, 588, 3832, 3840, 5351
1015, 3931, 3609, 3738, 567
1016, 3832, 4092, 568, 3840
1017, 4391, 4117, 4399, 4218
1018, 570, 3918, 4005, 4170
1019, 571, 3925, 3989, 5400
1020, 572, 3924, 3998, 4177
1021, 4014, 4231, 3929, 4142
1022, 574, 3936, 4144, 4251
1023, 3903, 4079, 5452, 575
1024, 3455, 3685, 3802, 3656
1025, 3531, 3656, 3812, 598
1026, 3585, 588, 3448, 3440
1027, 590, 3542, 3668, 3805
1028, 3658, 591, 3535, 3784
1029, 592, 3497, 3641, 3775
1030, 593, 3516, 3614, 3762
1031, 594, 3491, 3603, 3761
1032, 595, 3466, 3552, 3727
1033, 3680, 3462, 5349, 3827
1034, 24, 679, 5315, 600
1035, 1, 3282, 3289, 601
1036, 602, 3290, 3278, 3
1037, 603, 3248, 3233, 4
1038, 604, 3228, 3238, 605
1039, 5, 3253, 3281, 606
1040, 607, 3294, 3287, 7
1041, 608, 3250, 3232, 8
1042, 9, 3241, 3263, 610
1043, 10, 3276, 3283, 611
1044, 11, 3293, 3295, 612
1045, 613, 3296, 3279, 13
1046, 614, 3273, 3252, 615
1047, 615, 3252, 3230, 14
1048, 16, 3224, 3246, 618
1049, 17, 3277, 3291, 619
1050, 620, 3292, 3288, 19
1051, 621, 3262, 3231, 20
1052, 622, 3194, 3178, 623
1053, 21, 3175, 3176, 624
1054, 23, 3225, 3249, 626
1055, 26, 3260, 3264, 628
1056, 629, 3247, 3223, 28
1057, 631, 3193, 3191, 29
1058, 29, 3191, 3192, 632
1059, 30, 3201, 3221, 633
1060, 31, 3240, 3255, 634
1061, 33, 3256, 3259, 636
1062, 637, 3187, 3120, 638
1063, 3430, 3390, 1066, 1018
1064, 639, 837, 833, 640
1065, 641, 829, 825, 642
1066, 642, 825, 822, 643
1067, 643, 822, 819, 36
1068, 644, 814, 809, 645
1069, 646, 801, 776, 647
1070, 647, 776, 774, 648
1071, 649, 772, 770, 650
1072, 650, 770, 769, 651
1073, 651, 769, 768, 652
1074, 652, 768, 767, 653
1075, 653, 767, 766, 654
1076, 654, 766, 771, 655
1077, 655, 771, 773, 656
1078, 656, 773, 775, 657
1079, 657, 775, 777, 658
1080, 658, 777, 778, 659
1081, 659, 778, 787, 660
1082, 662, 661, 796, 806
1083, 663, 37, 897, 826
1084, 826, 832, 664, 663
1085, 832, 836, 665, 664
1086, 3412, 3157, 1108, 959
1087, 3269, 3242, 668, 39
1088, 3219, 3190, 669, 40
1089, 3190, 3185, 670, 669
1090, 3186, 3210, 42, 671
1091, 3234, 3261, 43, 672
1092, 3271, 3272, 44, 673
1093, 3245, 3215, 675, 45
1094, 3177, 3169, 676, 46
1095, 3167, 3168, 47, 677
1096, 3171, 3183, 48, 678
1097, 50, 3340, 3348, 681
1098, 682, 3331, 3301, 52
1099, 683, 3226, 3209, 53
1100, 684, 3206, 3216, 685
1101, 54, 3239, 3306, 686
1102, 55, 3337, 3343, 687
1103, 57, 3345, 3350, 689
1104, 690, 3302, 3205, 59
1105, 691, 3172, 3164, 60
1106, 692, 3163, 3170, 693
1107, 61, 3203, 3286, 694
1108, 62, 3338, 3352, 695
1109, 696, 3311, 3236, 64
1110, 697, 3195, 3180, 65
1111, 66, 3181, 3196, 699
1112, 67, 3235, 3312, 700
1113, 69, 3351, 3354, 702
1114, 703, 3346, 3316, 70
1115, 704, 3251, 3212, 71
1116, 72, 3189, 3214, 706
1117, 85, 752, 5314, 707
1118, 708, 3367, 3366, 75
1119, 75, 3366, 3374, 709
1120, 77, 3364, 3375, 711
1121, 78, 3363, 3369, 712
1122, 80, 3362, 3376, 714
1123, 715, 3371, 3361, 81
1124, 81, 3361, 3377, 716
1125, 717, 3280, 3220, 83
1126, 84, 3207, 3227, 719
1127, 6138, 795, 798, 6137
1128, 794, 790, 722, 721
1129, 785, 781, 725, 724
1130, 789, 6140, 6141, 786
1131, 781, 779, 726, 725
1132, 786, 6141, 6142, 782
1133, 723, 722, 790, 788
1134, 782, 6142, 6143, 780
1135, 727, 726, 779, 783
1136, 784, 6144, 6145, 793
1137, 793, 6145, 6146, 803
1138, 728, 727, 783, 792
1139, 803, 6146, 6147, 805
1140, 784, 793, 863, 857
1141, 728, 792, 802, 729
1142, 805, 6147, 6148, 808
1143, 730, 729, 802, 804
1144, 6144, 784, 780, 6143
1145, 804, 807, 731, 730
1146, 807, 810, 732, 731
1147, 810, 812, 733, 732
1148, 812, 815, 734, 733
1149, 6149, 811, 808, 6148
1150, 6151, 816, 813, 6150
1151, 6150, 813, 811, 6149
1152, 6153, 821, 818, 6152
1153, 86, 736, 820, 824
1154, 738, 737, 827, 830
1155, 6155, 828, 823, 6154
1156, 830, 834, 739, 738
1157, 823, 895, 891, 821
1158, 6158, 839, 835, 6157
1159, 6157, 835, 831, 6156
1160, 6159, 840, 839, 6158
1161, 838, 841, 87, 740
1162, 3136, 3131, 5329, 1255
1163, 3391, 5329, 3131, 5368
1164, 6162, 3165, 3136, 6161
1165, 3155, 3166, 88, 742
1166, 6164, 3243, 3217, 6163
1167, 3218, 3244, 89, 743
1168, 6166, 3320, 3309, 6165
1169, 3310, 3321, 90, 744
1170, 6169, 3318, 3323, 6168
1171, 3324, 3317, 746, 91
1172, 6171, 3284, 3308, 6170
1173, 6170, 3308, 3318, 6169
1174, 6172, 3266, 3284, 6171
1175, 3267, 3275, 93, 748
1176, 6175, 3313, 3303, 6174
1177, 3304, 3314, 94, 749
1178, 3326, 3330, 95, 750
1179, 752, 96, 3333, 5314
1180, 3383, 754, 98, 3384
1181, 3380, 3359, 755, 99
1182, 3355, 3315, 756, 100
1183, 3357, 3378, 102, 757
1184, 3381, 3382, 103, 758
1185, 3379, 3358, 760, 104
1186, 3358, 3305, 761, 760
1187, 3198, 3208, 106, 762
1188, 3237, 3322, 107, 763
1189, 3386, 3360, 3500, 357
1190, 766, 842, 844, 771
1191, 772, 649, 648, 774
1192, 843, 767, 768, 845
1193, 845, 768, 769, 846
1194, 846, 769, 770, 847
1195, 847, 770, 772, 849
1196, 767, 843, 842, 766
1197, 771, 844, 848, 773
1198, 814, 644, 36, 819
1199, 773, 848, 850, 775
1200, 832, 826, 5317, 900
1201, 782, 780, 855, 858
1202, 859, 781, 785, 862
1203, 793, 803, 875, 863
1204, 721, 720, 797, 794
1205, 862, 785, 788, 866
1206, 786, 782, 858, 861
1207, 848, 844, 915, 920
1208, 788, 790, 868, 866
1209, 6139, 791, 795, 6138
1210, 720, 97, 800, 797
1211, 5323, 868, 794, 797
1212, 789, 786, 861, 865
1213, 783, 856, 864, 792
1214, 803, 805, 877, 875
1215, 781, 859, 854, 779
1216, 791, 789, 865, 867
1217, 853, 5318, 852, 945
1218, 37, 662, 806, 897
1219, 795, 791, 867, 869
1220, 6137, 798, 799, 97
1221, 979, 1029, 871, 869
1222, 872, 800, 97, 935
1223, 922, 857, 863, 927
1224, 874, 802, 792, 864
1225, 857, 855, 780, 784
1226, 796, 787, 5318, 853
1227, 876, 804, 802, 874
1228, 816, 6151, 6152, 818
1229, 880, 807, 804, 876
1230, 812, 810, 881, 940
1231, 774, 851, 849, 772
1232, 736, 735, 817, 820
1233, 882, 879, 808, 811
1234, 817, 815, 886, 889
1235, 882, 811, 813, 883
1236, 801, 878, 860, 776
1237, 817, 889, 5320, 820
1238, 828, 6155, 6156, 831
1239, 885, 883, 813, 816
1240, 829, 641, 640, 833
1241, 809, 884, 878, 801
1242, 885, 816, 818, 887
1243, 894, 827, 5320, 954
1244, 814, 888, 884, 809
1245, 826, 897, 961, 5317
1246, 951, 955, 899, 894
1247, 821, 891, 887, 818
1248, 825, 896, 892, 822
1249, 830, 899, 903, 834
1250, 831, 902, 898, 828
1251, 832, 900, 904, 836
1252, 944, 892, 896, 946
1253, 834, 903, 906, 838
1254, 898, 956, 952, 895
1255, 1108, 836, 904, 959
1256, 833, 905, 901, 829
1257, 838, 906, 909, 841
1258, 835, 907, 902, 831
1259, 1255, 6160, 6161, 3136
1260, 839, 910, 907, 835
1261, 842, 843, 914, 913
1262, 843, 845, 916, 914
1263, 913, 915, 844, 842
1264, 851, 774, 776, 860
1265, 918, 917, 846, 847
1266, 912, 919, 849, 851
1267, 850, 848, 920, 945
1268, 5319, 852, 778, 777
1269, 911, 912, 851, 860
1270, 948, 796, 853, 994
1271, 893, 806, 796, 948
1272, 922, 923, 855, 857
1273, 856, 921, 5330, 864
1274, 808, 879, 877, 805
1275, 927, 863, 875, 5362
1276, 858, 855, 923, 924
1277, 921, 862, 866, 989
1278, 888, 814, 819, 890
1279, 878, 931, 911, 860
1280, 797, 800, 870, 5323
1281, 877, 933, 5362, 875
1282, 858, 924, 926, 861
1283, 929, 866, 868, 5323
1284, 865, 861, 926, 928
1285, 798, 795, 869, 871
1286, 867, 865, 928, 930
1287, 5323, 870, 932, 929
1288, 800, 872, 937, 870
1289, 866, 929, 991, 989
1290, 873, 935, 97, 799
1291, 5327, 5321, 982, 1027
1292, 925, 874, 864, 5330
1293, 933, 877, 879, 5363
1294, 876, 874, 925, 936
1295, 807, 880, 881, 810
1296, 973, 922, 927, 5429
1297, 878, 884, 939, 931
1298, 880, 876, 936, 5337
1299, 886, 815, 812, 940
1300, 976, 5362, 933, 5433
1301, 884, 888, 942, 939
1302, 5363, 879, 882, 938
1303, 895, 823, 828, 898
1304, 891, 947, 950, 887
1305, 889, 886, 949, 5324
1306, 896, 825, 829, 901
1307, 998, 5364, 941, 1004
1308, 970, 913, 914, 5341
1309, 961, 893, 948, 5326
1310, 5320, 827, 824, 820
1311, 1035, 5559, 1046, 1090
1312, 943, 942, 888, 890
1313, 897, 806, 893, 961
1314, 895, 952, 947, 891
1315, 1007, 1012, 955, 951
1316, 904, 900, 958, 1014
1317, 900, 5317, 1011, 958
1318, 905, 833, 837, 960
1319, 953, 901, 905, 957
1320, 902, 963, 956, 898
1321, 955, 962, 903, 899
1322, 960, 837, 908, 1018
1323, 1010, 1066, 381, 1106
1324, 962, 964, 906, 903
1325, 910, 839, 840, 1290
1326, 956, 1013, 1008, 952
1327, 1018, 908, 3120, 3430
1328, 966, 909, 1017, 1062
1329, 1290, 840, 1255, 5329
1330, 907, 965, 963, 902
1331, 911, 1019, 967, 912
1332, 5355, 968, 969, 1020
1333, 1048, 5344, 970, 5341
1334, 845, 846, 917, 916
1335, 917, 918, 968, 5342
1336, 915, 913, 970, 920
1337, 969, 968, 918, 919
1338, 967, 969, 919, 912
1339, 918, 847, 849, 919
1340, 922, 973, 5424, 923
1341, 5362, 976, 5429, 927
1342, 974, 924, 923, 5424
1343, 1039, 925, 5330, 1038
1344, 924, 974, 975, 926
1345, 938, 882, 883, 5364
1346, 5363, 995, 5433, 933
1347, 926, 975, 977, 928
1348, 869, 867, 930, 979
1349, 5330, 921, 989, 1038
1350, 983, 931, 939, 985
1351, 932, 990, 1036, 992
1352, 885, 941, 5364, 883
1353, 5429, 976, 1035, 1040
1354, 981, 934, 1028, 1073
1355, 799, 934, 981, 873
1356, 1030, 1076, 982, 935
1357, 993, 936, 925, 1039
1358, 5337, 996, 881, 880
1359, 872, 5321, 984, 937
1360, 990, 937, 984, 1080
1361, 941, 885, 887, 950
1362, 976, 5433, 5559, 1035
1363, 892, 944, 943, 890
1364, 985, 939, 942, 986
1365, 940, 881, 996, 1003
1366, 949, 886, 940, 1003
1367, 1004, 941, 950, 999
1368, 986, 942, 943, 987
1369, 931, 983, 1019, 911
1370, 901, 953, 946, 896
1371, 988, 944, 946, 1000
1372, 853, 945, 5325, 994
1373, 5559, 5433, 995, 1046
1374, 1074, 5438, 1031, 1032
1375, 5361, 1006, 954, 5324
1376, 951, 894, 954, 1006
1377, 951, 1006, 1060, 1007
1378, 947, 1001, 999, 950
1379, 964, 962, 1015, 3153
1380, 952, 1008, 1001, 947
1381, 960, 1010, 957, 905
1382, 953, 1009, 1000, 946
1383, 1103, 1058, 1101, 1140
1384, 959, 904, 1014, 1068
1385, 1108, 3157, 38, 666
1386, 1066, 1010, 960, 1018
1387, 948, 994, 1005, 5326
1388, 1012, 1015, 962, 955
1389, 965, 907, 910, 348
1390, 5439, 965, 348, 1110
1391, 1017, 964, 3153, 371
1392, 909, 906, 964, 1017
1393, 963, 1016, 1013, 956
1394, 3122, 966, 1062, 3413
1395, 1020, 969, 967, 1019
1396, 5342, 971, 916, 917
1397, 5325, 1042, 1054, 994
1398, 916, 971, 972, 914
1399, 945, 920, 997, 5325
1400, 5341, 914, 972, 1048
1401, 1022, 975, 974, 5425
1402, 975, 1022, 1023, 977
1403, 928, 977, 978, 930
1404, 5364, 998, 5436, 938
1405, 977, 1023, 1024, 978
1406, 979, 930, 978, 1026
1407, 980, 873, 981, 1025
1408, 1075, 1029, 979, 1026
1409, 1112, 1025, 1113, 1148
1410, 935, 982, 5321, 872
1411, 987, 943, 944, 988
1412, 983, 985, 1031, 1079
1413, 1072, 934, 871, 1029
1414, 5327, 1044, 984, 5321
1415, 985, 986, 1032, 1031
1416, 987, 1033, 1032, 986
1417, 988, 1034, 1033, 987
1418, 1039, 1084, 1045, 993
1419, 929, 932, 992, 991
1420, 989, 991, 1041, 1038
1421, 991, 992, 1043, 1041
1422, 992, 1036, 1086, 1043
1423, 936, 993, 996, 5337
1424, 5561, 5436, 998, 1049
1425, 1049, 998, 1004, 1051
1426, 1084, 1039, 1038, 1119
1427, 949, 1003, 5360, 1002
1428, 997, 920, 970, 5344
1429, 1021, 1094, 971, 5342
1430, 1051, 1004, 999, 1052
1431, 1022, 1078, 1069, 1023
1432, 1009, 953, 957, 1055
1433, 5684, 5561, 1049, 1121
1434, 1002, 5360, 1053, 5388
1435, 5361, 5324, 949, 1002
1436, 1005, 994, 1054, 5352
1437, 5326, 1011, 5317, 961
1438, 1060, 1006, 5388, 1102
1439, 1012, 1007, 1061, 1065
1440, 1001, 1056, 1052, 999
1441, 1055, 957, 1010, 1106
1442, 1047, 1000, 1009, 1057
1443, 1059, 5338, 1058, 1103
1444, 1016, 963, 965, 5439
1445, 1013, 1067, 1063, 1008
1446, 1059, 958, 1011, 5338
1447, 1185, 1064, 1145, 1220
1448, 3197, 5447, 3395, 325
1449, 1067, 1013, 1016, 1109
1450, 3390, 3125, 381, 1066
1451, 1155, 1166, 1129, 1157
1452, 1019, 983, 1079, 1020
1453, 5344, 1048, 1096, 1042
1454, 1094, 5356, 972, 971
1455, 5424, 1037, 5425, 974
1456, 1069, 1070, 1024, 1023
1457, 1026, 978, 1024, 1071
1458, 1124, 1028, 5336, 1160
1459, 1080, 5328, 1154, 1120
1460, 1029, 1075, 1126, 1072
1461, 1025, 1112, 1123, 980
1462, 1000, 1047, 1034, 988
1463, 1074, 1032, 1033, 5619
1464, 1047, 5623, 5678, 1034
1465, 1116, 1129, 1077, 1083
1466, 5561, 1046, 995, 5436
1467, 1081, 1037, 1040, 1035
1468, 984, 1044, 5328, 1080
1469, 1082, 5425, 1037, 1081
1470, 973, 1040, 1037, 5424
1471, 1137, 5490, 1161, 1169
1472, 1050, 996, 993, 1045
1473, 1041, 1043, 1172, 1119
1474, 1080, 1120, 1036, 990
1475, 1043, 1086, 1135, 1172
1476, 1044, 5327, 1088, 1122
1477, 1089, 1045, 1084, 5490
1478, 1003, 996, 1050, 5360
1479, 1074, 1077, 1127, 5438
1480, 1118, 1082, 1081, 1087
1481, 1045, 1089, 5392, 1050
1482, 1087, 1081, 1035, 1090
1483, 1056, 1001, 1008, 1063
1484, 1091, 1121, 1049, 1051
1485, 5392, 1089, 5490, 1137
1486, 1102, 5388, 1053, 1095
1487, 1092, 1101, 1054, 1042
1488, 5352, 1058, 5338, 1005
1489, 1057, 1009, 1055, 1139
1490, 1093, 1091, 1051, 1052
1491, 5619, 1083, 1077, 1074
1492, 1144, 1103, 1140, 1179
1493, 1181, 1105, 1144, 1217
1494, 1064, 958, 1059, 1105
1495, 1060, 1104, 1061, 1007
1496, 3143, 371, 3396, 3619
1497, 1067, 1100, 5683, 1063
1498, 1220, 1145, 1218, 1253
1499, 1107, 1065, 1147, 3137
1500, 1107, 3137, 3129, 5413
1501, 347, 1100, 1067, 1109
1502, 1078, 1022, 5425, 1082
1503, 1111, 1070, 1069, 5488
1504, 1070, 1111, 1150, 1114
1505, 1071, 1024, 1070, 1114
1506, 1075, 1114, 1163, 1126
1507, 1152, 1076, 1030, 1123
1508, 1028, 934, 1072, 5336
1509, 1113, 1073, 1149, 1195
1510, 1025, 981, 1073, 1113
1511, 5356, 1096, 1048, 972
1512, 1114, 1075, 1026, 1071
1513, 1027, 982, 1076, 1117
1514, 1047, 1057, 1098, 5623
1515, 1046, 5561, 5684, 1090
1516, 5438, 5393, 1079, 1031
1517, 1086, 1036, 1120, 1135
1518, 5623, 1098, 1162, 1131
1519, 1173, 1202, 5427, 1130
1520, 5490, 1084, 1119, 1161
1521, 1085, 1158, 1094, 1021
1522, 1021, 5355, 5393, 1085
1523, 1164, 5488, 1115, 1151
1524, 1154, 5328, 1196, 1205
1525, 1102, 1143, 1104, 1060
1526, 1095, 1053, 5392, 1137
1527, 1052, 1056, 1099, 1093
1528, 1115, 1082, 1118, 1151
1529, 5683, 1100, 1142, 5751
1530, 5427, 1128, 1096, 5356
1531, 1118, 5620, 1168, 1151
1532, 1092, 1042, 1096, 1128
1533, 1139, 1055, 1106, 1184
1534, 1098, 1057, 1097, 1132
1535, 1127, 1166, 1158, 1085
1536, 5683, 1099, 1056, 1063
1537, 1091, 1125, 5620, 1121
1538, 1100, 347, 1141, 1142
1539, 5752, 1093, 1099, 1133
1540, 1134, 1140, 1101, 1092
1541, 1101, 1058, 5352, 1054
1542, 1138, 1104, 1143, 1175
1543, 1218, 1145, 1181, 1250
1544, 1216, 1184, 1106, 381
1545, 3396, 5413, 3129, 3573
1546, 5413, 3396, 371, 3153
1547, 3412, 959, 1068, 335
1548, 1146, 1183, 5615, 1214
1549, 3197, 1287, 1219, 5447
1550, 5488, 1069, 1078, 1115
1551, 1123, 1112, 1159, 1152
1552, 1073, 1028, 1124, 1149
1553, 1126, 1160, 5336, 1072
1554, 1121, 1087, 1090, 5684
1555, 5623, 1131, 1116, 1083
1556, 1152, 1189, 1117, 1076
1557, 1117, 1153, 5339, 1027
1558, 1091, 1093, 5752, 1125
1559, 1087, 1121, 5620, 1118
1560, 1122, 1196, 5328, 1044
1561, 1120, 1154, 1170, 1135
1562, 1168, 5620, 1125, 5641
1563, 5353, 1088, 5339, 1153
1564, 1156, 1122, 1088, 5353
1565, 1112, 1148, 1194, 1159
1566, 1152, 1159, 1186, 1189
1567, 1191, 1221, 1262, 5365
1568, 1125, 5752, 1165, 5641
1569, 1114, 1150, 1193, 1163
1570, 1124, 5358, 1187, 1149
1571, 1130, 1094, 1158, 1173
1572, 1085, 5393, 5438, 1127
1573, 1134, 1092, 1128, 1167
1574, 1127, 1077, 1129, 1166
1575, 1157, 1129, 1116, 1131
1576, 5427, 5356, 1094, 1130
1577, 358, 1300, 1267, 1259
1578, 1097, 1171, 1203, 1132
1579, 1131, 1162, 5632, 1198
1580, 1199, 5641, 1165, 1206
1581, 1190, 1155, 1157, 5497
1582, 1172, 1135, 1204, 5391
1583, 1178, 1175, 1143, 1136
1584, 1102, 1095, 1136, 1143
1585, 1136, 1095, 1137, 1169
1586, 1138, 1281, 1245, 370
1587, 1171, 1097, 1180, 1201
1588, 1097, 1057, 1139, 1180
1589, 1177, 1179, 1140, 1134
1590, 1182, 1141, 1174, 1208
1591, 1146, 347, 1109, 1183
1592, 1182, 1176, 1142, 1141
1593, 5751, 1142, 1176, 1133
1594, 1178, 1136, 1169, 1209
1595, 1105, 1181, 1145, 1064
1596, 1252, 1185, 1220, 1289
1597, 1214, 1243, 1174, 1146
1598, 1281, 1138, 1175, 5526
1599, 3154, 1350, 5700, 391
1600, 1159, 1194, 1224, 1186
1601, 5488, 1164, 5489, 1111
1602, 1126, 1163, 1191, 1160
1603, 1151, 1168, 1188, 1164
1604, 1196, 1122, 1156, 5354
1605, 1156, 5353, 1230, 5390
1606, 1192, 1230, 5353, 1153
1607, 1237, 1196, 5354, 1270
1608, 1202, 1207, 5460, 1167
1609, 1298, 1225, 1256, 1323
1610, 5359, 1256, 1225, 1195
1611, 1209, 1169, 1211, 1239
1612, 1171, 1201, 1259, 1235
1613, 1238, 1190, 5497, 1333
1614, 1221, 1193, 1222, 1269
1615, 1163, 1193, 1221, 1191
1616, 1164, 1188, 1228, 5489
1617, 5641, 1200, 1188, 1168
1618, 1190, 1202, 1173, 1155
1619, 1167, 1128, 5427, 1202
1620, 1177, 1134, 1167, 5460
1621, 1264, 5576, 1200, 1229
1622, 1210, 1178, 1209, 1316
1623, 1161, 5391, 1211, 1169
1624, 1119, 1172, 5391, 1161
1625, 1204, 1135, 1170, 1240
1626, 1173, 1158, 1166, 1155
1627, 1175, 1178, 1210, 5526
1628, 1133, 1176, 1165, 5752
1629, 1177, 5460, 5492, 1215
1630, 1217, 1284, 1250, 1181
1631, 1217, 1144, 1179, 1247
1632, 1214, 5615, 1251, 1313
1633, 1249, 1248, 1184, 1216
1634, 1185, 1252, 1068, 1014
1635, 1231, 1189, 1186, 1260
1636, 1225, 1148, 1113, 1195
1637, 1195, 1149, 1187, 5359
1638, 1222, 1193, 1150, 1197
1639, 1260, 1186, 1224, 1292
1640, 1117, 1189, 1226, 1153
1641, 1207, 1202, 1190, 1238
1642, 1157, 1131, 1198, 5497
1643, 1160, 1191, 5365, 1223
1644, 1306, 1237, 1270, 1335
1645, 5358, 1223, 1265, 1187
1646, 1227, 5359, 1187, 1265
1647, 5430, 1230, 1192, 1261
1648, 1197, 1150, 1111, 5489
1649, 1222, 1197, 5513, 1272
1650, 5633, 5632, 1203, 1235
1651, 1206, 1165, 1176, 1182
1652, 1229, 1200, 5641, 1199
1653, 1235, 1259, 1267, 5633
1654, 1162, 1132, 1203, 5632
1655, 1205, 1236, 1170, 1154
1656, 1212, 1285, 1239, 1211
1657, 1237, 1271, 1205, 1196
1658, 1199, 1234, 1263, 1229
1659, 1244, 1241, 1277, 1274
1660, 1316, 1209, 1239, 369
1661, 1282, 1318, 1210, 1316
1662, 1212, 1211, 5391, 1204
1663, 1240, 1285, 1212, 1204
1664, 1275, 1303, 1233, 1213
1665, 1275, 1213, 1248, 1311
1666, 1314, 1245, 1281, 3161
1667, 1183, 1219, 1287, 5615
1668, 1179, 1177, 1215, 1247
1669, 1254, 1216, 381, 3125
1670, 1280, 1249, 1312, 1345
1671, 1206, 1182, 1208, 1244
1672, 1251, 5615, 1287, 324
1673, 1289, 1220, 1253, 1436
1674, 1296, 5365, 1262, 1331
1675, 5489, 1228, 5513, 1197
1676, 1322, 1265, 1296, 1356
1677, 1226, 1189, 1231, 1266
1678, 1225, 1258, 1194, 1148
1679, 1226, 1257, 1192, 1153
1680, 1223, 5365, 1296, 1265
1681, 1272, 1264, 1304, 1302
1682, 1234, 1199, 1206, 1244
1683, 1332, 1260, 1292, 1354
1684, 1238, 1333, 1268, 5558
1685, 1232, 1198, 5632, 5633
1686, 1201, 1180, 1233, 1273
1687, 1234, 1244, 1274, 1263
1688, 1259, 1201, 1273, 358
1689, 1240, 5426, 1317, 1285
1690, 1240, 1170, 1236, 5426
1691, 5431, 5432, 1270, 5390
1692, 1242, 1207, 1238, 5558
1693, 1271, 1278, 1236, 1205
1694, 1208, 1243, 1276, 1241
1695, 1242, 1307, 5584, 5492
1696, 1313, 1276, 1243, 1214
1697, 1147, 370, 1245, 3137
1698, 1283, 3161, 1281, 1246
1699, 1215, 5492, 5584, 1279
1700, 1303, 1275, 1337, 1328
1701, 1311, 1248, 1249, 1280
1702, 1249, 1216, 1254, 1312
1703, 1280, 1345, 5649, 1341
1704, 1284, 1217, 1247, 1315
1705, 1349, 1286, 1319, 1408
1706, 1251, 3160, 1406, 1313
1707, 1313, 1406, 1378, 1276
1708, 3151, 1252, 1289, 3123
1709, 335, 1068, 1252, 3151
1710, 1218, 1250, 1319, 1286
1711, 1461, 1312, 1254, 3130
1712, 5329, 3391, 5366, 1290
1713, 1294, 1261, 1257, 1299
1714, 1297, 1325, 1266, 1231
1715, 358, 1321, 1330, 1300
1716, 1297, 1231, 1260, 1332
1717, 5390, 1230, 5430, 5431
1718, 1269, 1302, 1326, 1295
1719, 1295, 1262, 1221, 1269
1720, 1272, 1302, 1269, 1222
1721, 5576, 1264, 1272, 5513
1722, 1264, 1229, 1263, 1304
1723, 1265, 1322, 1293, 1227
1724, 1257, 1226, 1266, 1299
1725, 1232, 1329, 1268, 1333
1726, 1232, 5633, 1267, 1329
1727, 1339, 1317, 1278, 1310
1728, 1270, 5354, 1156, 5390
1729, 1306, 1338, 1271, 1237
1730, 5575, 1336, 1302, 1304
1731, 1328, 1321, 1291, 1303
1732, 1233, 1303, 1291, 1273
1733, 1342, 1241, 1276, 1378
1734, 1277, 5723, 1309, 1274
1735, 5426, 1236, 1278, 1317
1736, 1367, 1343, 1307, 1362
1737, 1247, 1215, 1279, 1315
1738, 1311, 1280, 1341, 1370
1739, 5642, 1283, 1246, 1318
1740, 1350, 5591, 1314, 5700
1741, 1282, 1346, 1347, 1379
1742, 369, 1239, 1285, 1317
1743, 1319, 1250, 1284, 1348
1744, 1405, 1349, 1408, 1420
1745, 5447, 1219, 1110, 348
1746, 1288, 3155, 742, 741
1747, 348, 910, 1290, 5366
1748, 358, 1273, 1291, 1321
1749, 1298, 1327, 1258, 1225
1750, 1325, 1297, 1352, 1389
1751, 1351, 1293, 1322, 1388
1752, 1323, 1227, 1293, 1351
1753, 1294, 1299, 1359, 1324
1754, 1331, 1262, 1295, 1363
1755, 1363, 1295, 1326, 1385
1756, 1325, 1359, 1299, 1266
1757, 1357, 1298, 1323, 5428
1758, 1361, 1330, 1321, 1328
1759, 5431, 1301, 1358, 5432
1760, 1329, 1267, 1300, 1362
1761, 1337, 1275, 1311, 1370
1762, 1369, 1361, 1328, 1337
1763, 1305, 5575, 1274, 1309
1764, 1383, 1331, 1363, 1411
1765, 1338, 1306, 1355, 1360
1766, 5584, 1307, 1343, 1279
1767, 1277, 1308, 1340, 5723
1768, 1309, 346, 1334, 1305
1769, 1317, 1339, 1344, 369
1770, 1310, 1278, 1271, 1338
1771, 1375, 5649, 1399, 1428
1772, 5768, 3173, 5788, 3398
1773, 1367, 1362, 1300, 1330
1774, 1316, 369, 1346, 1282
1775, 5642, 1318, 1282, 1379
1776, 1348, 1284, 1315, 1377
1777, 1320, 1286, 1349, 1381
1778, 1433, 1381, 1431, 1460
1779, 1404, 1320, 1381, 1433
1780, 324, 3429, 3147, 3400
1781, 1331, 1383, 1356, 1296
1782, 1357, 5428, 1386, 1413
1783, 1323, 1256, 5359, 1227
1784, 1335, 1358, 1414, 1390
1785, 1327, 1354, 1292, 1258
1786, 1447, 1467, 1446, 1414
1787, 1302, 1336, 1353, 1326
1788, 1387, 1371, 1343, 1367
1789, 1387, 1367, 1330, 1361
1790, 1441, 1423, 1392, 1422
1791, 1468, 1352, 1382, 1438
1792, 1352, 1297, 1332, 1382
1793, 1198, 1232, 1333, 5497
1794, 1368, 1305, 1334, 1392
1795, 1398, 346, 1364, 5769
1796, 5575, 1304, 1263, 1274
1797, 1305, 1368, 1336, 5575
1798, 1355, 1306, 1335, 1390
1799, 1310, 1338, 1360, 1400
1800, 1339, 1310, 1400, 1374
1801, 1364, 5776, 1396, 5769
1802, 1364, 5723, 1340, 5776
1803, 1377, 1393, 1427, 1407
1804, 1365, 1342, 1378, 1401
1805, 1308, 1277, 1241, 1342
1806, 1279, 1343, 1371, 1315
1807, 1372, 1376, 1402, 1434
1808, 1373, 1345, 1312, 1461
1809, 1373, 1399, 5649, 1345
1810, 1376, 1346, 369, 1344
1811, 1409, 1347, 1372, 1527
1812, 1380, 1408, 1319, 1348
1813, 1459, 1405, 1420, 1492
1814, 3129, 1350, 3154, 3573
1815, 1350, 3129, 3137, 5591
1816, 1388, 1356, 1383, 1419
1817, 1352, 1468, 1443, 1389
1818, 1385, 1326, 1353, 5570
1819, 1357, 1384, 1327, 1298
1820, 1354, 1327, 1384, 1412
1821, 1394, 1355, 1390, 1424
1822, 1391, 1324, 1359, 1418
1823, 1414, 1358, 1391, 1447
1824, 1389, 1418, 1359, 1325
1825, 1400, 1360, 1415, 1421
1826, 1395, 1387, 1361, 1369
1827, 1268, 1362, 1307, 5558
1828, 5570, 1353, 1336, 1368
1829, 1363, 1385, 5560, 1411
1830, 5723, 1364, 346, 1309
1831, 1396, 1435, 1426, 5769
1832, 1410, 1351, 1388, 1442
1833, 1366, 1334, 346, 1398
1834, 1334, 1366, 1422, 1392
1835, 1393, 1371, 1387, 1395
1836, 1375, 1397, 1341, 5649
1837, 1483, 1500, 1541, 5748
1838, 1377, 1315, 1371, 1393
1839, 1403, 1402, 1376, 1344
1840, 1372, 1434, 5762, 1527
1841, 1399, 1373, 1432, 1457
1842, 1344, 1339, 1374, 1403
1843, 5720, 1416, 1449, 1369
1844, 1396, 1365, 1401, 1435
1845, 1348, 1377, 1407, 1380
1846, 1381, 1349, 1405, 1431
1847, 1459, 1490, 1431, 1405
1848, 1498, 1531, 1468, 1438
1849, 1413, 1439, 1384, 1357
1850, 1368, 1392, 1423, 5570
1851, 1386, 5487, 1440, 1475
1852, 1390, 1414, 1446, 1424
1853, 1447, 1391, 1418, 1480
1854, 1324, 1391, 1358, 1301
1855, 1366, 1398, 5681, 1422
1856, 5560, 1454, 1445, 1411
1857, 1449, 1417, 1395, 1369
1858, 5706, 1450, 5748, 1481
1859, 5720, 1369, 1337, 1370
1860, 1370, 1341, 1397, 5720
1861, 1444, 1394, 1424, 1479
1862, 1360, 1355, 1394, 1415
1863, 5805, 1489, 1464, 5779
1864, 5769, 1426, 5749, 1453
1865, 1397, 1375, 1425, 1450
1866, 1481, 5728, 1451, 5706
1867, 1422, 5681, 1482, 1441
1868, 1375, 1428, 1452, 1425
1869, 1401, 5680, 1437, 1435
1870, 1434, 1402, 1465, 5686
1871, 1421, 1429, 1374, 1400
1872, 1429, 1430, 1403, 1374
1873, 1254, 3125, 3504, 3130
1874, 1432, 1373, 1461, 1494
1875, 1463, 1404, 1433, 1495
1876, 1404, 1463, 1466, 1436
1877, 1460, 1431, 1490, 1521
1878, 323, 5680, 1406, 3160
1879, 1420, 1408, 1380, 1458
1880, 1409, 390, 5788, 3173
1881, 1412, 1438, 1382, 1354
1882, 1413, 1386, 1475, 5504
1883, 5428, 1410, 5487, 1386
1884, 1419, 1383, 1411, 1445
1885, 1412, 1384, 1439, 1474
1886, 1415, 1394, 1444, 1448
1887, 1416, 5720, 1397, 1450
1888, 1451, 1417, 1449, 5706
1889, 1393, 1395, 1417, 1427
1890, 1504, 1443, 1468, 1531
1891, 1410, 1442, 1472, 5487
1892, 1442, 1388, 1419, 1471
1893, 1407, 1455, 1458, 1380
1894, 1448, 1456, 1421, 1415
1895, 1398, 5769, 1453, 5681
1896, 1454, 1473, 1502, 1445
1897, 5570, 1423, 5560, 1385
1898, 1424, 1446, 1469, 1479
1899, 1492, 1420, 1458, 1519
1900, 5749, 5779, 1485, 5708
1901, 1452, 1476, 1505, 1470
1902, 1456, 1462, 1429, 1421
1903, 1493, 1462, 1516, 1553
1904, 1402, 1403, 1430, 1465
1905, 1491, 1432, 1494, 1524
1906, 1428, 1399, 1457, 1487
1907, 1495, 1433, 1460, 1525
1908, 1497, 1559, 5762, 5686
1909, 5680, 1401, 1378, 1406
1910, 1436, 1466, 3123, 1289
1911, 1489, 1588, 1554, 1523
1912, 1474, 1439, 1503, 1537
1913, 5504, 1503, 1439, 1413
1914, 1472, 1534, 1440, 5487
1915, 1471, 1419, 1445, 1502
1916, 1442, 1471, 1501, 1472
1917, 1504, 1543, 1480, 1443
1918, 1418, 1389, 1443, 1480
1919, 1477, 1444, 1479, 1506
1920, 1446, 1467, 5582, 1469
1921, 1447, 1480, 1507, 1467
1922, 1477, 1484, 1448, 1444
1923, 1483, 1425, 1452, 1470
1924, 1427, 5618, 1455, 1407
1925, 1427, 1417, 1451, 5618
1926, 1476, 1452, 1428, 1487
1927, 1471, 1502, 1532, 1501
1928, 1423, 1441, 1454, 5560
1929, 1473, 1454, 1441, 1482
1930, 1478, 1488, 1455, 5618
1931, 1484, 1486, 1456, 1448
1932, 1514, 1487, 5740, 1542
1933, 1458, 1455, 1488, 1519
1934, 1490, 1520, 1550, 1521
1935, 1560, 1494, 1461, 3130
1936, 1465, 1430, 1493, 5685
1937, 1430, 1429, 1462, 1493
1938, 1529, 1463, 1495, 1556
1939, 1496, 1466, 1463, 1529
1940, 1464, 1518, 1485, 5779
1941, 5685, 1493, 1553, 1526
1942, 336, 3123, 1466, 1496
1943, 1469, 5582, 1510, 1499
1944, 1474, 1498, 1438, 1412
1945, 1499, 1506, 1479, 1469
1946, 1511, 5764, 1478, 5728
1947, 1472, 1501, 5562, 1534
1948, 1571, 1596, 1537, 1503
1949, 1540, 5504, 1475, 1569
1950, 1470, 1505, 1500, 1483
1951, 1511, 1509, 1541, 1565
1952, 1499, 1510, 1535, 1533
1953, 5708, 1485, 5778, 1512
1954, 1547, 1548, 1512, 5778
1955, 1425, 1483, 5748, 1450
1956, 1508, 1517, 1484, 1477
1957, 1473, 5647, 1513, 1502
1958, 5779, 5749, 1426, 5805
1959, 1516, 1486, 1546, 1581
1960, 1462, 1456, 1486, 1516
1961, 1549, 1492, 1519, 1536
1962, 1489, 1435, 1437, 1588
1963, 1523, 1554, 5800, 1584
1964, 1520, 1490, 1459, 1522
1965, 1544, 1582, 1520, 1522
1966, 1497, 5685, 1526, 1558
1967, 1528, 1524, 1494, 1560
1968, 1525, 1460, 1521, 1555
1969, 1527, 5762, 1559, 3387
1970, 1499, 1533, 5694, 1506
1971, 1565, 1541, 1500, 1530
1972, 1501, 1532, 1567, 5562
1973, 1513, 5647, 1512, 1548
1974, 5647, 5677, 5708, 1512
1975, 1440, 1534, 1569, 1475
1976, 1537, 1562, 1498, 1474
1977, 1572, 1504, 1531, 1593
1978, 1561, 1563, 5829, 1514
1979, 5694, 1533, 5757, 1545
1980, 1477, 1506, 5694, 1508
1981, 1507, 1480, 1543, 1566
1982, 1507, 1538, 5582, 1467
1983, 1509, 1511, 5728, 1481
1984, 1509, 1481, 5748, 1541
1985, 1538, 1568, 1510, 5582
1986, 1591, 1570, 1565, 1530
1987, 5855, 5778, 1485, 1518
1988, 1532, 1502, 1513, 1574
1989, 1476, 1487, 1514, 5829
1990, 1551, 1579, 1515, 1491
1991, 1457, 1515, 5740, 1487
1992, 1516, 1581, 5715, 1553
1993, 1576, 1517, 1545, 1603
1994, 1486, 1484, 1517, 1546
1995, 1464, 1489, 1523, 5847
1996, 5862, 5855, 1518, 1552
1997, 1536, 1519, 5764, 1570
1998, 1522, 1459, 1492, 1549
1999, 1522, 1549, 1577, 1544
2000, 5847, 1584, 1616, 1552
2001, 1645, 1671, 1700, 5742
2002, 1590, 1617, 1674, 5486
2003, 1589, 1558, 1526, 1640
2004, 390, 1409, 1527, 3387
2005, 1585, 1551, 5616, 1614
2006, 1590, 1529, 1556, 1617
2007, 1500, 1505, 5846, 1530
2008, 1549, 1536, 1575, 1577
2009, 1592, 1566, 1620, 1633
2010, 1573, 5802, 1539, 1564
2011, 1564, 1539, 1535, 1600
2012, 1595, 1534, 5562, 1623
2013, 1538, 1507, 1566, 1592
2014, 1539, 5757, 1533, 1535
2015, 1563, 1561, 359, 5857
2016, 1505, 1476, 5829, 5846
2017, 5764, 1519, 1488, 1478
2018, 1511, 1565, 1570, 5764
2019, 1540, 1571, 1503, 5504
2020, 1630, 1655, 1596, 1571
2021, 1508, 5694, 1545, 1517
2022, 1599, 1540, 1569, 1626
2023, 1601, 1604, 1544, 1577
2024, 1561, 1514, 1542, 1578
2025, 1562, 1593, 1531, 1498
2026, 1568, 1538, 1592, 5626
2027, 1597, 1619, 1578, 1542
2028, 1550, 1520, 1582, 1611
2029, 1546, 1517, 1576, 1607
2030, 368, 1581, 1546, 1607
2031, 1574, 1513, 1548, 5709
2032, 1548, 1547, 1580, 5709
2033, 1628, 5777, 1610, 1664
2034, 1551, 1585, 1612, 1579
2035, 1610, 1583, 5862, 5877
2036, 5847, 1552, 1518, 1464
2037, 1637, 1667, 1598, 368
2038, 1640, 1526, 1553, 5715
2039, 5800, 1554, 322, 1672
2040, 1521, 1550, 1586, 1555
2041, 1555, 1615, 1587, 1525
2042, 1529, 1590, 1557, 1496
2043, 1557, 5485, 3121, 3144
2044, 3148, 3392, 1558, 1589
2045, 3389, 3427, 5496, 3408
2046, 1602, 1620, 1566, 1543
2047, 1530, 5846, 1563, 5857
2048, 1564, 1600, 1625, 1605
2049, 1570, 1591, 1575, 1536
2050, 1572, 1602, 1543, 1504
2051, 1646, 1567, 1606, 1636
2052, 1623, 5562, 1567, 1646
2053, 1568, 1600, 1535, 1510
2054, 1595, 1626, 1569, 1534
2055, 1596, 1621, 1562, 1537
2056, 5859, 1573, 1605, 1653
2057, 1574, 1606, 1567, 1532
2058, 5709, 1580, 5777, 1594
2059, 1608, 1601, 1577, 1575
2060, 1603, 1545, 5802, 5845
2061, 5741, 1579, 1612, 1635
2062, 1743, 1692, 1725, 1771
2063, 5741, 5740, 1515, 1579
2064, 1659, 1594, 5777, 1628
2065, 1629, 1647, 1619, 1648
2066, 1604, 1634, 1582, 1544
2067, 5855, 1583, 1547, 5778
2068, 5877, 1609, 1664, 1610
2069, 5800, 1643, 1616, 1584
2070, 1609, 1552, 1616, 1642
2071, 1524, 1528, 5542, 5616
2072, 1612, 1585, 1639, 1663
2073, 1611, 1638, 1586, 1550
2074, 1613, 1615, 1555, 1586
2075, 1641, 1669, 1615, 1613
2076, 3394, 1437, 5680, 323
2077, 1554, 1588, 3510, 322
2078, 1850, 1917, 1918, 1883
2079, 1590, 5486, 5485, 1557
2080, 1617, 1556, 1587, 1644
2081, 3595, 3144, 3121, 3456
2082, 1632, 5857, 359, 1647
2083, 1631, 1572, 1593, 1649
2084, 1633, 1650, 5626, 1592
2085, 1600, 5626, 1650, 1625
2086, 1636, 1606, 1594, 1659
2087, 5709, 1594, 1606, 1574
2088, 1599, 1630, 1571, 1540
2089, 1745, 1774, 1714, 1687
2090, 5741, 1597, 1542, 5740
2091, 368, 1607, 1624, 1637
2092, 5787, 1598, 1667, 1728
2093, 1660, 1599, 1626, 1684
2094, 1619, 1647, 359, 1578
2095, 1652, 1633, 1620, 1679
2096, 1573, 5859, 5845, 5802
2097, 1607, 1576, 1622, 1624
2098, 1627, 1668, 1604, 1601
2099, 5845, 5859, 1651, 1603
2100, 1622, 1576, 1603, 1651
2101, 1575, 1591, 1632, 1608
2102, 1530, 5857, 1632, 1591
2103, 345, 1664, 1609, 1642
2104, 1636, 1675, 1706, 1646
2105, 1583, 1610, 5777, 1580
2106, 1634, 1662, 1611, 1582
2107, 1627, 1629, 1691, 1668
2108, 5602, 1671, 1645, 1614
2109, 1645, 1639, 1585, 1614
2110, 1644, 1669, 1702, 1670
2111, 1616, 1643, 1665, 1642
2112, 1674, 1670, 1704, 5538
2113, 1762, 1672, 322, 5798
2114, 1701, 1672, 1762, 1734
2115, 337, 3121, 5485, 1618
2116, 1670, 1674, 1617, 1644
2117, 1629, 1627, 1601, 1608
2118, 1657, 1648, 1619, 1597
2119, 1621, 1649, 1593, 1562
2120, 1677, 1650, 1633, 1652
2121, 1620, 1602, 1658, 1679
2122, 1595, 1623, 5682, 1690
2123, 1624, 1622, 1656, 1661
2124, 1605, 1625, 1688, 1653
2125, 1625, 1650, 1677, 1688
2126, 1651, 5859, 1680, 1686
2127, 5801, 5750, 1676, 1710
2128, 1663, 1692, 1635, 1612
2129, 1676, 1628, 1664, 1683
2130, 1608, 1632, 1647, 1629
2131, 5682, 1706, 5753, 1690
2132, 1631, 1658, 1602, 1572
2133, 5875, 5867, 1668, 1720
2134, 1675, 1636, 1659, 5750
2135, 1728, 1667, 5871, 5872
2136, 1641, 1613, 1666, 1695
2137, 1613, 1586, 1638, 1666
2138, 1639, 5743, 1696, 1663
2139, 1641, 1698, 1730, 1669
2140, 1682, 1642, 1665, 5898
2141, 1621, 1596, 1655, 1678
2142, 1656, 1622, 1651, 1686
2143, 1685, 1707, 1658, 1631
2144, 1707, 1685, 1739, 1763
2145, 1687, 1714, 1655, 1630
2146, 1654, 1682, 1711, 5897
2147, 1660, 1687, 1630, 1599
2148, 1635, 1657, 1597, 5741
2149, 1720, 1668, 1691, 1727
2150, 1685, 1631, 1649, 1712
2151, 1678, 1712, 1649, 1621
2152, 1683, 1713, 1710, 1676
2153, 5876, 1681, 1713, 1683
2154, 1667, 1637, 1697, 5871
2155, 1637, 1624, 1661, 1697
2156, 1638, 1611, 1662, 1694
2157, 1604, 1668, 5867, 1634
2158, 1722, 1694, 1693, 1724
2159, 5876, 1683, 1664, 345
2160, 1701, 1721, 1665, 1643
2161, 1694, 1722, 1666, 1638
2162, 1785, 1728, 5872, 5885
2163, 1698, 1641, 1695, 1726
2164, 1730, 1759, 1702, 1669
2165, 5601, 1854, 1922, 1888
2166, 5602, 5542, 5541, 1703
2167, 1671, 382, 1733, 1700
2168, 1818, 1758, 1846, 1884
2169, 1729, 1696, 5743, 1673
2170, 1645, 5742, 5743, 1639
2171, 5538, 1705, 5486, 1674
2172, 1742, 1776, 1715, 5753
2173, 1659, 1628, 1676, 5750
2174, 1809, 1736, 1709, 1741
2175, 1707, 1738, 1679, 1658
2176, 1652, 1679, 1738, 1708
2177, 1653, 1688, 1747, 1716
2178, 1719, 1718, 1686, 1680
2179, 1642, 1682, 1654, 345
2180, 1660, 1684, 1715, 5754
2181, 1690, 1684, 1626, 1595
2182, 1685, 1712, 1768, 1739
2183, 1677, 1652, 1708, 1717
2184, 5895, 1656, 1686, 1718
2185, 1829, 1800, 5755, 1763
2186, 1688, 1677, 1717, 1747
2187, 5894, 1697, 1661, 1689
2188, 1689, 1661, 1656, 5895
2189, 1691, 1648, 1657, 1727
2190, 1635, 1692, 1727, 1657
2191, 1663, 1696, 1725, 1692
2192, 1662, 5867, 1693, 1694
2193, 1695, 1666, 1722, 1750
2194, 1722, 1753, 1779, 1750
2195, 1697, 5894, 1723, 5871
2196, 1699, 5787, 1728, 1757
2197, 1730, 1698, 1754, 1787
2198, 1754, 1698, 1726, 1782
2199, 1883, 1699, 1757, 1850
2200, 1751, 1673, 1731, 1786
2201, 1758, 1721, 1701, 1734
2202, 1704, 1732, 1760, 5601
2203, 1703, 382, 1671, 5602
2204, 5459, 1528, 1560, 3508
2205, 1670, 1702, 1732, 1704
2206, 3126, 1888, 1922, 1993
2207, 1618, 1705, 3126, 337
2208, 5486, 1705, 1618, 5485
2209, 1675, 1709, 1736, 1706
2210, 1765, 1801, 1747, 1717
2211, 1709, 1675, 5750, 5801
2212, 1709, 5801, 1710, 1741
2213, 1737, 1681, 5897, 1711
2214, 1804, 1737, 1772, 1838
2215, 1678, 1655, 1714, 1735
2216, 1735, 1768, 1712, 1678
2217, 1777, 1832, 1806, 1741
2218, 1710, 1713, 1777, 1741
2219, 5754, 1745, 1687, 1660
2220, 1776, 5803, 5754, 1715
2221, 1736, 1742, 5753, 1706
2222, 1740, 1770, 1719, 1680
2223, 1653, 1716, 1680, 5859
2224, 1765, 1769, 1795, 1825
2225, 1773, 5950, 5917, 1744
2226, 1689, 5895, 1718, 5917
2227, 1740, 1680, 1716, 1766
2228, 1783, 1721, 1758, 1818
2229, 1721, 5911, 5898, 1665
2230, 1726, 1695, 1750, 1780
2231, 1755, 5872, 5871, 1723
2232, 1720, 1743, 1749, 5875
2233, 1696, 1729, 1752, 1725
2234, 1727, 1692, 1743, 1720
2235, 1849, 1785, 5885, 1848
2236, 5742, 1731, 1673, 5743
2237, 1729, 1767, 1781, 1752
2238, 1732, 1702, 1759, 1789
2239, 1775, 1751, 1786, 5884
2240, 1767, 1751, 1775, 1807
2241, 1817, 1756, 1788, 1852
2242, 1734, 1762, 1790, 1890
2243, 1707, 1763, 5755, 1738
2244, 1713, 1681, 1737, 1777
2245, 1711, 1748, 1772, 1737
2246, 1769, 1708, 1738, 5755
2247, 1763, 1739, 1796, 1829
2248, 1860, 1794, 1793, 1840
2249, 1766, 1716, 1747, 1801
2250, 5753, 1715, 1684, 1690
2251, 5944, 5917, 5950, 1746
2252, 1718, 1719, 1744, 5917
2253, 1776, 1742, 1764, 1842
2254, 1784, 1755, 1723, 1746
2255, 1723, 5894, 5944, 1746
2256, 1765, 1717, 1708, 1769
2257, 1748, 5924, 1814, 1772
2258, 1682, 5898, 1748, 1711
2259, 1693, 1749, 1778, 1724
2260, 5875, 1749, 1693, 5867
2261, 1753, 1722, 1724, 1778
2262, 1805, 1779, 1792, 1826
2263, 1673, 1751, 1767, 1729
2264, 1835, 1802, 1808, 1833
2265, 1771, 1778, 1749, 1743
2266, 1779, 1753, 1811, 1792
2267, 1782, 1726, 1780, 1813
2268, 1816, 1754, 1782, 1843
2269, 1757, 1728, 1785, 1820
2270, 1807, 1775, 1815, 1861
2271, 1700, 1756, 1731, 5742
2272, 1850, 1757, 1820, 1882
2273, 1760, 1732, 1789, 1822
2274, 1922, 1854, 1919, 1994
2275, 1889, 1823, 1920, 1958
2276, 1762, 5798, 3393, 1790
2277, 1796, 1739, 1768, 1830
2278, 1769, 5755, 1800, 1795
2279, 1764, 1742, 1736, 1809
2280, 1836, 1809, 1741, 1806
2281, 1770, 1740, 1793, 1794
2282, 1766, 1824, 1793, 1740
2283, 1798, 1781, 1767, 1807
2284, 1735, 1714, 1774, 1797
2285, 1744, 1719, 1770, 5916
2286, 1771, 1808, 1802, 1778
2287, 1794, 1827, 5916, 1770
2288, 1799, 5966, 1837, 1773
2289, 1786, 1731, 1756, 1817
2290, 1836, 1806, 1832, 1857
2291, 1834, 1805, 1826, 1863
2292, 1843, 1782, 1813, 1872
2293, 1845, 1783, 1818, 1879
2294, 1783, 5924, 5911, 1721
2295, 1746, 5950, 1812, 1784
2296, 1848, 5885, 1819, 1878
2297, 1755, 1784, 1847, 1819
2298, 1881, 1849, 5938, 1954
2299, 1817, 1844, 5884, 1786
2300, 1759, 1730, 1787, 1821
2301, 1852, 1788, 1823, 1889
2302, 5652, 1887, 1921, 1886
2303, 1913, 1846, 1890, 1952
2304, 5628, 3141, 5760, 3415
2305, 1811, 1753, 1778, 1802
2306, 1863, 1826, 5909, 1858
2307, 1801, 1765, 1825, 1864
2308, 1799, 5916, 1827, 1865
2309, 1744, 5916, 1799, 1773
2310, 1768, 1735, 1797, 1830
2311, 1874, 1803, 1836, 1857
2312, 1870, 1804, 1838, 1902
2313, 5908, 1792, 1811, 1828
2314, 1829, 1866, 1841, 1800
2315, 1824, 1766, 1801, 1864
2316, 1808, 1752, 1781, 1833
2317, 5803, 1810, 1745, 5754
2318, 1842, 1764, 1803, 1874
2319, 1777, 1737, 1804, 1832
2320, 1838, 1772, 1814, 1875
2321, 1780, 1750, 1779, 1805
2322, 1803, 1764, 1809, 1836
2323, 1781, 1798, 1859, 1833
2324, 1810, 1839, 1774, 1745
2325, 1808, 1771, 1725, 1752
2326, 1813, 1834, 1868, 1872
2327, 1895, 1940, 1900, 1856
2328, 1909, 1843, 1872, 1939
2329, 1807, 1861, 1831, 1798
2330, 1821, 1787, 1851, 1885
2331, 1787, 1754, 1816, 1851
2332, 1844, 1817, 1852, 1914
2333, 1846, 1758, 1734, 1890
2334, 1784, 1812, 1876, 1847
2335, 1878, 1819, 1847, 1911
2336, 1882, 1820, 1881, 1912
2337, 1822, 1789, 1853, 5785
2338, 5770, 1991, 1919, 1886
2339, 1854, 5652, 1886, 1919
2340, 1761, 1791, 5760, 1855
2341, 1840, 1862, 1932, 1906
2342, 1840, 1793, 1824, 1862
2343, 1795, 1800, 1841, 1869
2344, 1840, 1906, 5949, 1860
2345, 1835, 1828, 1811, 1802
2346, 1891, 1835, 1833, 1859
2347, 1796, 1830, 1895, 1856
2348, 1829, 1796, 1856, 1866
2349, 1892, 1905, 1873, 1874
2350, 360, 1859, 1798, 1831
2351, 5848, 1873, 1810, 5803
2352, 1834, 1813, 1780, 1805
2353, 1901, 1837, 5966, 5986
2354, 1773, 1837, 1812, 5950
2355, 1875, 1814, 1845, 1910
2356, 1839, 1867, 1797, 1774
2357, 1824, 1864, 1898, 1862
2358, 1869, 1893, 1825, 1795
2359, 5965, 5952, 1894, 1931
2360, 1842, 5848, 5803, 1776
2361, 1924, 1925, 1896, 5914
2362, 1877, 1903, 1815, 5900
2363, 5925, 1939, 1872, 1868
2364, 5884, 1844, 5913, 5900
2365, 1937, 1927, 1899, 1870
2366, 1845, 1814, 5924, 1783
2367, 1876, 1812, 1837, 1901
2368, 1878, 1908, 1871, 1848
2369, 1849, 1848, 1871, 5938
2370, 1820, 1785, 1849, 1881
2371, 1917, 1850, 1882, 1953
2372, 3148, 1883, 1918, 5899
2373, 1853, 1821, 1885, 5825
2374, 1914, 1852, 1889, 5882
2375, 5786, 1956, 1921, 1887
2376, 3126, 1993, 3407, 337
2377, 5652, 1760, 1822, 1887
2378, 3141, 3140, 1855, 5760
2379, 1920, 1855, 3140, 383
2380, 1830, 1797, 1867, 1895
2381, 1892, 1874, 1857, 1899
2382, 1891, 1859, 360, 1924
2383, 1827, 1794, 1860, 5952
2384, 1831, 1861, 1928, 1925
2385, 1864, 1825, 1893, 1898
2386, 5888, 1926, 5915, 1972
2387, 5914, 1896, 1863, 1858
2388, 1868, 1834, 1863, 1896
2389, 1858, 1835, 1891, 5914
2390, 5952, 1860, 5949, 1894
2391, 5965, 1931, 5988, 5986
2392, 1866, 1856, 1900, 1938
2393, 5854, 1839, 1810, 1873
2394, 1902, 1838, 1875, 1945
2395, 1903, 1928, 1861, 1815
2396, 1866, 1938, 1897, 1841
2397, 1869, 1841, 1897, 1930
2398, 1832, 1870, 1899, 1857
2399, 1929, 1896, 1925, 1928
2400, 1874, 1873, 5848, 1842
2401, 1910, 1845, 1879, 1947
2402, 1986, 1955, 1915, 1950
2403, 1911, 1847, 1876, 1944
2404, 1911, 1935, 1908, 1878
2405, 1818, 1884, 1907, 1879
2406, 1945, 1875, 1910, 1977
2407, 1915, 1885, 1851, 1880
2408, 1909, 1880, 1816, 1843
2409, 1949, 1844, 1914, 1985
2410, 1589, 1699, 1883, 3148
2411, 1907, 1884, 1951, 1942
2412, 5786, 5785, 1916, 5826
2413, 1993, 1922, 1994, 338
2414, 5825, 1916, 5785, 1853
2415, 1705, 5538, 1888, 3126
2416, 1704, 5601, 1888, 5538
2417, 5882, 1957, 1987, 1914
2418, 1884, 1846, 1913, 1951
2419, 1873, 1905, 1943, 5854
2420, 1906, 1932, 1963, 1941
2421, 1867, 1904, 1934, 1895
2422, 1896, 1929, 5925, 1868
2423, 1898, 1893, 1926, 5888
2424, 1930, 1926, 1893, 1869
2425, 1862, 1898, 5888, 1932
2426, 1902, 1969, 1937, 1870
2427, 2009, 1947, 1933, 1964
2428, 1901, 5986, 5988, 1968
2429, 1867, 1839, 5854, 1904
2430, 1927, 1905, 1892, 1899
2431, 1909, 1939, 1978, 1950
2432, 1949, 1973, 5913, 1844
2433, 1933, 1907, 1942, 5967
2434, 1970, 1908, 1935, 1995
2435, 5925, 1959, 1966, 1939
2436, 1933, 1947, 1879, 1907
2437, 1938, 1900, 1960, 2001
2438, 1944, 1876, 1901, 1968
2439, 1911, 1944, 1976, 1935
2440, 1912, 2091, 1953, 1882
2441, 1936, 1948, 5938, 1871
2442, 5938, 1948, 1982, 1954
2443, 1983, 1913, 1952, 2017
2444, 1880, 1909, 1950, 1915
2445, 1916, 5825, 1955, 2018
2446, 1915, 1955, 5825, 1885
2447, 1956, 1988, 2049, 2020
2448, 5899, 1918, 1917, 389
2449, 1958, 1920, 383, 2131
2450, 1989, 2022, 1991, 5770
2451, 2024, 1994, 1919, 1991
2452, 2023, 321, 3158, 3119
2453, 2023, 1990, 1923, 321
2454, 360, 1831, 1925, 1924
2455, 2001, 1960, 2027, 2044
2456, 1997, 1941, 1963, 2038
2457, 1979, 1927, 1937, 2003
2458, 1962, 1943, 1905, 1927
2459, 1877, 1966, 1959, 1903
2460, 5925, 1929, 1928, 1959
2461, 1960, 1900, 1940, 1998
2462, 1941, 5963, 5949, 1906
2463, 5988, 5964, 1999, 1968
2464, 1926, 1930, 1961, 5915
2465, 1967, 1961, 1930, 1897
2466, 5913, 1946, 1877, 5900
2467, 1940, 1895, 1934, 1974
2468, 1971, 1943, 1962, 2004
2469, 1908, 1970, 1936, 1871
2470, 1996, 1962, 1927, 1979
2471, 1977, 1910, 1947, 2009
2472, 5946, 2007, 5915, 1961
2473, 5964, 5963, 1965, 1999
2474, 1980, 1964, 1933, 5967
2475, 1904, 5854, 1943, 1971
2476, 1944, 1968, 2008, 1976
2477, 1969, 1902, 1945, 2011
2478, 1973, 2006, 1946, 5913
2479, 2028, 2079, 5919, 2004
2480, 367, 2041, 1975, 5983
2481, 2006, 1973, 2086, 2037
2482, 1946, 2006, 2014, 1966
2483, 344, 1942, 1951, 1981
2484, 1952, 1923, 1990, 2017
2485, 2012, 2053, 1982, 1948
2486, 1912, 1881, 1954, 1984
2487, 5826, 1988, 1956, 5786
2488, 1956, 2020, 1989, 1921
2489, 3336, 5899, 389, 3421
2490, 3336, 3545, 3584, 3404
2491, 1958, 5883, 5882, 1889
2492, 1985, 1914, 1987, 5940
2493, 2021, 2131, 2094, 5910
2494, 2050, 1992, 2056, 5942
2495, 2040, 2002, 2007, 2069
2496, 1932, 5888, 1972, 1963
2497, 2003, 1937, 1969, 2029
2498, 2002, 2040, 2060, 2038
2499, 2031, 1965, 1997, 2070
2500, 1931, 1894, 5964, 5988
2501, 1897, 1938, 2001, 1967
2502, 5993, 2066, 2036, 1999
2503, 2011, 1945, 1977, 2043
2504, 1995, 1935, 1976, 5982
2505, 2034, 1970, 1995, 5989
2506, 1971, 2000, 1934, 1904
2507, 2047, 2087, 2114, 2083
2508, 2043, 1977, 2009, 2076
2509, 1998, 1940, 1974, 2033
2510, 1975, 1948, 1936, 5983
2511, 1968, 1999, 2036, 2008
2512, 2105, 2079, 2028, 5971
2513, 1939, 1966, 2014, 1978
2514, 2153, 2076, 2112, 2188
2515, 2032, 1980, 344, 5939
2516, 2025, 2084, 2090, 5956
2517, 2015, 1983, 2017, 2046
2518, 1978, 2014, 2078, 2016
2519, 2018, 2047, 2083, 5870
2520, 2019, 1957, 1992, 2050
2521, 2042, 1987, 1957, 2019
2522, 2018, 5870, 5826, 1916
2523, 2020, 2049, 2089, 2055
2524, 2024, 1991, 2057, 2097
2525, 2098, 5951, 2051, 2059
2526, 2015, 2054, 1981, 1983
2527, 2021, 2056, 1992, 5883
2528, 3162, 338, 3426, 3586
2529, 2058, 338, 1994, 2024
2530, 1970, 2034, 5983, 1936
2531, 2000, 1971, 2004, 5919
2532, 2004, 1962, 1996, 2028
2533, 1997, 1965, 5963, 1941
2534, 1972, 5915, 2007, 2002
2535, 1967, 2001, 2044, 2005
2536, 2108, 2036, 2066, 2143
2537, 2016, 2078, 2048, 2087
2538, 2013, 1949, 1985, 5940
2539, 1974, 1934, 2000, 2030
2540, 2027, 1960, 1998, 2065
2541, 1961, 1967, 2005, 5946
2542, 5973, 2193, 5995, 2148
2543, 1979, 2026, 2028, 1996
2544, 2003, 2029, 2117, 2026
2545, 2071, 2005, 2044, 2103
2546, 5982, 1976, 2008, 2073
2547, 2010, 1964, 1980, 2032
2548, 5939, 344, 1981, 2054
2549, 2029, 1969, 2011, 2074
2550, 2012, 1975, 2041, 2075
2551, 2072, 2115, 2041, 367
2552, 2085, 2080, 2010, 2032
2553, 1973, 1949, 2013, 2086
2554, 5940, 5941, 2063, 2013
2555, 2037, 2078, 2014, 2006
2556, 2051, 2017, 1990, 2059
2557, 2054, 2015, 2046, 2093
2558, 2016, 1986, 1950, 1978
2559, 2046, 2017, 2051, 2088
2560, 1955, 1986, 2047, 2018
2561, 2082, 2019, 2050, 2122
2562, 2049, 1988, 2045, 2081
2563, 2049, 2081, 2123, 2089
2564, 2126, 5943, 5942, 2056
2565, 1989, 2020, 2055, 2022
2566, 2092, 2128, 2168, 2132
2567, 2057, 1991, 2022, 2096
2568, 2169, 2090, 2124, 2210
2569, 2117, 2029, 2074, 2139
2570, 2033, 1974, 2030, 2067
2571, 2102, 5982, 2073, 2111
2572, 2061, 2101, 2064, 2035
2573, 2202, 2198, 5972, 2138
2574, 2034, 5989, 2061, 2035
2575, 5983, 2034, 2035, 367
2576, 2076, 2009, 1964, 2010
2577, 2013, 2063, 2068, 2086
2578, 2038, 2060, 2070, 1997
2579, 2039, 2069, 2007, 5946
2580, 1995, 5982, 2102, 5989
2581, 2073, 2008, 2036, 2108
2582, 2104, 2040, 2069, 2147
2583, 2100, 2147, 2069, 2039
2584, 2064, 2072, 367, 2035
2585, 2053, 5997, 5998, 2084
2586, 5940, 1987, 2042, 5941
2587, 2074, 2011, 2043, 2118
2588, 5870, 2045, 1988, 5826
2589, 2093, 2046, 2088, 2130
2590, 1986, 2016, 2087, 2047
2591, 2159, 2107, 2157, 2150
2592, 2150, 2157, 2110, 2186
2593, 2063, 5941, 2077, 2110
2594, 2152, 2196, 2197, 2158
2595, 2163, 2223, 2122, 2095
2596, 2122, 2050, 5942, 2095
2597, 2059, 1990, 2023, 2135
2598, 2129, 2133, 2052, 5956
2599, 2052, 1984, 2025, 5956
2600, 2025, 1982, 2053, 2084
2601, 2179, 2146, 2144, 2227
2602, 2055, 2089, 2128, 2092
2603, 5910, 2126, 2056, 2021
2604, 2092, 2096, 2022, 2055
2605, 2058, 2024, 2097, 2137
2606, 2137, 3149, 3388, 2058
2607, 2135, 2023, 3119, 5928
2608, 2144, 2146, 2070, 2060
2609, 2079, 2155, 5920, 5919
2610, 2062, 2103, 2044, 2027
2611, 2107, 2087, 2048, 2109
2612, 2037, 2109, 2048, 2078
2613, 2072, 2064, 2113, 2142
2614, 2065, 1998, 2033, 5945
2615, 2067, 2099, 5945, 2033
2616, 2106, 2031, 2070, 2146
2617, 2138, 5972, 2105, 5971
2618, 2068, 2109, 2037, 2086
2619, 2100, 2039, 2071, 2148
2620, 2148, 2071, 2103, 5973
2621, 2060, 2040, 2104, 2144
2622, 2149, 2177, 2101, 2061
2623, 2005, 2071, 2039, 5946
2624, 2139, 2138, 5971, 2117
2625, 2127, 2199, 2238, 2187
2626, 2143, 2066, 2106, 2184
2627, 2118, 2043, 2076, 2153
2628, 2053, 2012, 2075, 5997
2629, 2112, 2076, 2010, 2080
2630, 5972, 2198, 2178, 2155
2631, 2082, 2116, 2042, 2019
2632, 2110, 2077, 2145, 2186
2633, 2085, 2120, 2154, 2121
2634, 2083, 2119, 2045, 5870
2635, 5974, 2116, 2082, 2219
2636, 2114, 2087, 2107, 2159
2637, 2124, 2090, 2084, 2162
2638, 2164, 2120, 5939, 2054
2639, 2054, 2093, 2125, 2164
2640, 5951, 2166, 2088, 2051
2641, 2089, 2123, 2165, 2128
2642, 2129, 2169, 2212, 2167
2643, 5956, 2090, 2169, 2129
2644, 2204, 2125, 2161, 2245
2645, 2171, 2126, 5910, 2094
2646, 2123, 2158, 2205, 2165
2647, 2211, 2257, 2173, 2132
2648, 2136, 2174, 2097, 2057
2649, 2172, 2098, 2135, 5928
2650, 2154, 2120, 2164, 2189
2651, 2102, 2149, 2061, 5989
2652, 2062, 2156, 5973, 2103
2653, 2140, 2113, 2064, 2101
2654, 2155, 2079, 2105, 5972
2655, 2146, 2179, 2221, 6043
2656, 2031, 2106, 2066, 5993
2657, 2160, 2114, 2159, 2185
2658, 2183, 2220, 2270, 2300
2659, 2160, 2185, 2224, 2196
2660, 2149, 2102, 2111, 2180
2661, 2073, 2108, 2141, 2111
2662, 2080, 2085, 2121, 2151
2663, 2063, 2110, 2157, 2068
2664, 2180, 2237, 2177, 2149
2665, 2185, 2159, 2150, 2186
2666, 2115, 6062, 2075, 2041
2667, 2042, 2116, 2077, 5941
2668, 2139, 2074, 2118, 2191
2669, 2176, 5996, 2228, 6021
2670, 2081, 2045, 2119, 2152
2671, 2119, 2083, 2114, 2160
2672, 2283, 2195, 2247, 2290
2673, 2120, 2085, 2032, 5939
2674, 2104, 2147, 5996, 2176
2675, 2201, 2236, 2163, 2095
2676, 2081, 2152, 2158, 2123
2677, 5998, 5997, 2127, 2187
2678, 2093, 2130, 2161, 2125
2679, 2175, 2094, 2131, 2215
2680, 5943, 2201, 2095, 5942
2681, 2072, 2142, 6062, 2115
2682, 2199, 2127, 6062, 2142
2683, 2129, 2167, 2213, 2133
2684, 2206, 5987, 5976, 6017
2685, 2171, 2094, 2175, 2217
2686, 2209, 2251, 2293, 2254
2687, 2216, 2258, 2174, 2136
2688, 2091, 2052, 2133, 3139
2689, 2134, 5975, 5951, 2098
2690, 2137, 2097, 2174, 2298
2691, 3149, 2137, 2298, 339
2692, 2178, 2067, 5920, 2155
2693, 2151, 2188, 2112, 2080
2694, 2232, 2190, 2178, 2198
2695, 2108, 2143, 2183, 2141
2696, 2113, 2140, 2182, 2142
2697, 2227, 2144, 2104, 2176
2698, 2145, 2077, 2116, 5974
2699, 2177, 2229, 2140, 2101
2700, 2106, 2146, 6043, 2184
2701, 2181, 2100, 2148, 5995
2702, 2147, 2100, 2181, 5996
2703, 2111, 2141, 6030, 2180
2704, 2247, 2154, 2189, 2242
2705, 2122, 2223, 2219, 2082
2706, 2191, 2118, 2153, 2231
2707, 2222, 5974, 2219, 2261
2708, 2178, 2190, 2099, 2067
2709, 2231, 2153, 2188, 2272
2710, 2157, 2107, 2109, 2068
2711, 2262, 2261, 2219, 2223
2712, 2152, 2119, 2160, 2196
2713, 2075, 6062, 2127, 5997
2714, 2161, 2206, 5991, 2245
2715, 2323, 6034, 2365, 6064
2716, 6022, 2192, 2124, 2162
2717, 2170, 5943, 2126, 2207
2718, 2250, 2165, 2205, 5930
2719, 2189, 2164, 2125, 2204
2720, 2158, 2197, 2239, 2205
2721, 2130, 2088, 2166, 5987
2722, 2167, 2212, 2294, 2532
2723, 2213, 2167, 2532, 388
2724, 2128, 2165, 2208, 2168
2725, 2168, 2208, 2251, 2209
2726, 2210, 2124, 2192, 2249
2727, 2169, 2210, 2253, 2212
2728, 2207, 2126, 2171, 2255
2729, 2252, 2170, 2207, 2286
2730, 2255, 2171, 2217, 2297
2731, 2209, 2211, 2132, 2168
2732, 2254, 2296, 2211, 2209
2733, 2136, 2173, 2257, 2216
2734, 2217, 2175, 384, 2338
2735, 2242, 2189, 2204, 2281
2736, 6030, 2141, 2183, 2300
2737, 2139, 2191, 2202, 2138
2738, 2190, 2225, 2156, 2099
2739, 2181, 5995, 2226, 6020
2740, 2143, 2184, 2220, 2183
2741, 2187, 2238, 2240, 6022
2742, 2162, 5998, 2187, 6022
2743, 2186, 2145, 5992, 2260
2744, 5992, 2145, 5974, 2222
2745, 2151, 2121, 2195, 2233
2746, 2195, 2121, 2154, 2247
2747, 2161, 2130, 5987, 2206
2748, 2223, 2163, 2200, 2262
2749, 2191, 2231, 2246, 2202
2750, 2282, 2192, 6022, 2240
2751, 2284, 2241, 6015, 6016
2752, 6017, 2230, 5991, 2206
2753, 2273, 2193, 2225, 2308
2754, 2196, 2224, 2235, 2197
2755, 2261, 2262, 2306, 2265
2756, 2142, 2182, 2243, 2199
2757, 2238, 2199, 2243, 2312
2758, 2276, 2201, 2234, 2302
2759, 2406, 2369, 2447, 5978
2760, 2241, 2232, 2198, 2202
2761, 2232, 2268, 2225, 2190
2762, 2194, 5975, 2134, 2203
2763, 6013, 6012, 343, 2244
2764, 6021, 2310, 2227, 2176
2765, 2405, 2279, 2353, 5953
2766, 2230, 6013, 2244, 2287
2767, 2245, 5991, 2295, 6000
2768, 2234, 2170, 2252, 2285
2769, 2296, 2339, 2257, 2211
2770, 2294, 2212, 2253, 6003
2771, 3150, 2213, 388, 3152
2772, 2214, 343, 6012, 2203
2773, 384, 2460, 2420, 2380
2774, 2175, 2215, 2460, 384
2775, 2299, 2216, 2257, 2339
2776, 2297, 2217, 2338, 2374
2777, 2533, 2494, 2415, 2377
2778, 2260, 2224, 2185, 2186
2779, 2221, 2267, 2184, 6043
2780, 2264, 2357, 2310, 6021
2781, 2264, 6021, 2228, 2277
2782, 2229, 2274, 2182, 2140
2783, 2224, 2260, 2263, 2235
2784, 2220, 2184, 2267, 2303
2785, 2188, 2151, 2233, 2272
2786, 2225, 2193, 5973, 2156
2787, 2281, 2204, 2245, 6000
2788, 2277, 2228, 6020, 2313
2789, 2271, 2179, 2227, 2310
2790, 2229, 2177, 2237, 2266
2791, 6013, 2230, 6017, 2194
2792, 2290, 2247, 2242, 2323
2793, 2280, 2246, 2231, 2272
2794, 2170, 2234, 2201, 5943
2795, 2359, 2395, 2349, 2285
2796, 2276, 2314, 2236, 2201
2797, 2180, 6030, 2269, 2237
2798, 2278, 2240, 2238, 2312
2799, 2197, 2235, 2275, 2239
2800, 2301, 2282, 2240, 2278
2801, 2241, 2202, 2246, 6015
2802, 2268, 2232, 2241, 2284
2803, 2274, 2229, 2266, 2319
2804, 2292, 343, 2248, 2333
2805, 6058, 6059, 6037, 2280
2806, 2248, 343, 2214, 2288
2807, 2291, 2253, 2210, 2249
2808, 2358, 2302, 2349, 2399
2809, 2208, 2165, 2250, 2289
2810, 2318, 2252, 2286, 2368
2811, 2253, 2291, 2334, 6003
2812, 2367, 2407, 2331, 2293
2813, 2255, 2297, 2336, 2286
2814, 2256, 2377, 2337, 2288
2815, 2288, 2337, 2327, 2248
2816, 2340, 2258, 2341, 2381
2817, 339, 2298, 2340, 2416
2818, 2258, 2340, 2298, 2174
2819, 3138, 3146, 3578, 406
2820, 2265, 361, 2222, 2261
2821, 361, 2265, 2311, 2263
2822, 2279, 2200, 2236, 2314
2823, 2200, 2279, 2405, 2262
2824, 2226, 2273, 6047, 2313
2825, 2266, 2237, 2269, 6063
2826, 2269, 6030, 2300, 2316
2827, 2221, 2179, 2271, 2304
2828, 2308, 2225, 2268, 2317
2829, 2270, 2220, 2303, 2396
2830, 2320, 2264, 2277, 2350
2831, 2300, 2270, 2343, 2316
2832, 2315, 2309, 2272, 2233
2833, 2193, 2273, 2226, 5995
2834, 6035, 6016, 2326, 2362
2835, 2274, 2307, 2243, 2182
2836, 2235, 2263, 2311, 2275
2837, 2302, 2234, 2285, 2349
2838, 2283, 2315, 2233, 2195
2839, 2345, 2278, 2312, 2398
2840, 2312, 2243, 2307, 2398
2841, 2302, 2358, 2314, 2276
2842, 2306, 2321, 2275, 2311
2843, 2280, 6037, 6015, 2246
2844, 2396, 2423, 2343, 2270
2845, 2249, 2192, 2282, 6050
2846, 2323, 2242, 2281, 6034
2847, 2317, 2268, 2284, 6035
2848, 5931, 5930, 2205, 2239
2849, 2239, 2275, 2321, 5931
2850, 2293, 2251, 2330, 2367
2851, 2403, 2328, 2354, 2439
2852, 2208, 2289, 2330, 2251
2853, 2329, 2250, 5930, 2361
2854, 2356, 2290, 2323, 6064
2855, 2355, 2352, 2387, 2402
2856, 6050, 2325, 2291, 2249
2857, 2333, 2248, 2327, 6018
2858, 2360, 2412, 2324, 2292
2859, 2532, 2294, 2413, 2492
2860, 2332, 6000, 2295, 2363
2861, 2328, 2295, 5991, 2230
2862, 2331, 2335, 2254, 2293
2863, 2335, 2376, 2296, 2254
2864, 2380, 5929, 2338, 384
2865, 2341, 2299, 2378, 2419
2866, 2258, 2216, 2299, 2341
2867, 2385, 2301, 2278, 2345
2868, 2282, 2301, 2305, 6050
2869, 2399, 2349, 2395, 2432
2870, 2267, 2221, 2304, 2342
2871, 2344, 2271, 2310, 2357
2872, 2274, 2319, 2348, 2307
2873, 2305, 2347, 2394, 2351
2874, 2266, 6063, 2346, 2319
2875, 2316, 2346, 6063, 2269
2876, 6073, 6047, 2308, 2317
2877, 2315, 2364, 2352, 2309
2878, 2280, 2272, 2309, 6058
2879, 2350, 2277, 2313, 2393
2880, 2389, 2434, 2484, 2523
2881, 2353, 2391, 2361, 5953
2882, 2322, 2283, 2290, 2356
2883, 2283, 2322, 2364, 2315
2884, 2342, 2440, 2303, 2267
2885, 2285, 2252, 2318, 2359
2886, 2436, 2397, 2408, 2472
2887, 2319, 2346, 2383, 2348
2888, 2357, 2264, 2320, 2425
2889, 2353, 2279, 2314, 2358
2890, 2281, 6000, 2332, 6034
2891, 2363, 2295, 2328, 2403
2892, 6066, 6065, 2487, 6074
2893, 2371, 2334, 2291, 2325
2894, 2352, 2355, 6058, 2309
2895, 2327, 2337, 2379, 2366
2896, 2422, 2345, 2398, 2428
2897, 2289, 2250, 2329, 2369
2898, 2335, 2331, 2370, 5960
2899, 2365, 6034, 2332, 6053
2900, 2366, 2379, 2417, 2448
2901, 2292, 2333, 6044, 2360
2902, 2455, 6023, 2409, 2486
2903, 2376, 2335, 5960, 5961
2904, 2373, 2368, 2286, 2336
2905, 2256, 2218, 3133, 2377
2906, 2414, 2498, 2527, 6004
2907, 2457, 2378, 2418, 2495
2908, 2340, 2381, 2421, 2416
2909, 2378, 2299, 2339, 2418
2910, 6035, 2362, 6073, 2317
2911, 2342, 2304, 2384, 2440
2912, 2304, 2271, 2344, 2384
2913, 2382, 2346, 2316, 2343
2914, 2389, 2320, 2350, 2434
2915, 2424, 2347, 2385, 6100
2916, 2466, 2394, 2464, 2500
2917, 2347, 2305, 2301, 2385
2918, 2346, 2382, 2429, 2383
2919, 2388, 2387, 2352, 2364
2920, 2404, 2371, 2325, 2351
2921, 2351, 2325, 6050, 2305
2922, 2356, 6064, 2397, 2322
2923, 2404, 2351, 2433, 2469
2924, 6059, 2362, 2326, 6037
2925, 6059, 6058, 2355, 6071
2926, 2363, 6052, 6053, 2332
2927, 2431, 2434, 2444, 2402
2928, 2361, 2391, 2400, 2329
2929, 6011, 2386, 2435, 2392
2930, 2395, 2359, 2392, 2427
2931, 2333, 6018, 2411, 6044
2932, 2360, 6044, 2443, 6065
2933, 2361, 5930, 5931, 5953
2934, 6047, 6073, 2393, 2313
2935, 2480, 6121, 2473, 6116
2936, 2388, 2364, 2322, 2397
2937, 6103, 2476, 6119, 2428
2938, 6018, 2327, 2366, 2411
2939, 2369, 2406, 2330, 2289
2940, 2370, 2331, 2407, 2446
2941, 2318, 6011, 2392, 2359
2942, 2391, 2353, 2358, 2400
2943, 2517, 2446, 2407, 2477
2944, 2438, 2409, 2371, 2404
2945, 2455, 2451, 2372, 6023
2946, 2531, 2451, 2493, 2574
2947, 2336, 2375, 2410, 2373
2948, 2430, 2373, 2410, 2479
2949, 6004, 2410, 2375, 2414
2950, 2339, 2296, 2376, 2418
2951, 2377, 3133, 2666, 2533
2952, 2419, 2458, 2381, 2341
2953, 2415, 2379, 2337, 2377
2954, 2454, 2417, 2379, 2415
2955, 2390, 2437, 2384, 2344
2956, 2384, 2437, 6072, 2440
2957, 2426, 2398, 2307, 2348
2958, 2390, 2344, 2357, 2425
2959, 2345, 2422, 6100, 2385
2960, 2386, 2368, 2373, 2430
2961, 2397, 2436, 2449, 2388
2962, 2408, 2397, 6064, 2365
2963, 2509, 6119, 2476, 2501
2964, 2320, 2389, 6082, 2425
2965, 2434, 2350, 2393, 2444
2966, 2390, 2425, 2510, 2467
2967, 2400, 2358, 2399, 2447
2968, 2503, 2435, 2502, 2541
2969, 6071, 2444, 2362, 6059
2970, 2363, 2403, 2441, 6052
2971, 2365, 6053, 2442, 2408
2972, 2426, 2348, 2383, 6095
2973, 6095, 2462, 2476, 6103
2974, 2329, 2400, 2447, 2369
2975, 2402, 2444, 6071, 2355
2976, 2431, 2402, 2387, 2471
2977, 2354, 2324, 2412, 2439
2978, 2478, 2403, 2439, 2520
2979, 2433, 2351, 2394, 2466
2980, 2405, 2321, 2306, 2262
2981, 2330, 2406, 2445, 2367
2982, 2432, 5978, 2447, 2399
2983, 2445, 2477, 2407, 2367
2984, 2551, 2472, 2516, 2593
2985, 2334, 2371, 2409, 6023
2986, 366, 2486, 2409, 2438
2987, 2452, 2479, 2410, 6004
2988, 2636, 2676, 2704, 6111
2989, 2413, 2451, 2531, 2492
2990, 2450, 2370, 2446, 2483
2991, 5961, 5960, 5980, 2491
2992, 2374, 2338, 5929, 2453
2993, 5980, 2526, 2572, 2491
2994, 2454, 2415, 2494, 2530
2995, 2416, 5832, 3406, 3118
2996, 2448, 2417, 2489, 2525
2997, 2448, 2485, 2411, 2366
2998, 2419, 2378, 2457, 5934
2999, 2536, 2580, 2496, 5934
3000, 2381, 2458, 2459, 2421
3001, 2499, 2421, 2459, 2537
3002, 2423, 2463, 2382, 2343
3003, 2633, 2588, 2675, 2670
3004, 2394, 2347, 2424, 2464
3005, 2429, 2462, 6095, 2383
3006, 2470, 2502, 2435, 2386
3007, 2462, 2518, 2501, 2476
3008, 2463, 2462, 2429, 2382
3009, 2387, 2388, 2449, 2471
3010, 2515, 2436, 2472, 2551
3011, 2427, 2468, 2432, 2395
3012, 2438, 2404, 2469, 2475
3013, 2473, 2511, 2464, 2424
3014, 2470, 2386, 2430, 2504
3015, 2607, 2643, 2687, 2639
3016, 2463, 2423, 2465, 6081
3017, 2514, 2511, 2473, 6121
3018, 2440, 6072, 2396, 2303
3019, 2481, 2401, 6052, 2441
3020, 2422, 2428, 6119, 2480
3021, 2472, 2408, 2442, 2516
3022, 2507, 2542, 2475, 2469
3023, 2444, 2393, 6073, 2362
3024, 2484, 2434, 2431, 2512
3025, 2432, 2468, 2482, 5978
3026, 2488, 2524, 6041, 2452
3027, 2417, 2454, 2490, 2489
3028, 2450, 5980, 5960, 2370
3029, 2575, 2492, 2578, 2624
3030, 2461, 2577, 5929, 2380
3031, 2564, 2498, 2576, 2613
3032, 2505, 2563, 2486, 366
3033, 2456, 2418, 2376, 5961
3034, 2581, 2497, 2538, 2621
3035, 3124, 2420, 3138, 3403
3036, 3473, 2665, 2461, 3124
3037, 2620, 2617, 2535, 2577
3038, 2427, 2392, 2435, 2503
3039, 6072, 2465, 2423, 2396
3040, 2465, 6072, 2437, 2513
3041, 2424, 6100, 6116, 2473
3042, 2437, 2390, 2467, 2513
3043, 2516, 2481, 2562, 2593
3044, 362, 2541, 2502, 2470
3045, 2505, 366, 2506, 2553
3046, 2543, 2508, 2544, 2628
3047, 6082, 2389, 2523, 2552
3048, 2556, 2471, 2449, 2474
3049, 2507, 2469, 2433, 2508
3050, 2430, 2479, 6042, 2504
3051, 2474, 2449, 2436, 2515
3052, 2478, 2521, 2441, 2403
3053, 2522, 2443, 2485, 2565
3054, 366, 2438, 2475, 2506
3055, 2518, 2462, 2463, 6081
3056, 2512, 2548, 2523, 2484
3057, 2539, 2519, 2482, 2468
3058, 2483, 2446, 2517, 2558
3059, 2520, 6066, 6074, 6077
3060, 2557, 2566, 2488, 2527
3061, 2501, 2546, 2561, 2509
3062, 2481, 2516, 2442, 2401
3063, 2482, 2445, 2406, 5978
3064, 2512, 2431, 2471, 2556
3065, 2485, 2443, 6044, 2411
3066, 2486, 2563, 2529, 2455
3067, 6066, 2520, 2439, 2412
3068, 2498, 2414, 2453, 2535
3069, 2641, 2594, 2625, 2583
3070, 2525, 2565, 2485, 2448
3071, 2528, 2490, 2569, 2610
3072, 2530, 2569, 2490, 2454
3073, 2456, 2534, 5969, 2495
3074, 2456, 5961, 2491, 2534
3075, 2578, 2492, 2531, 2616
3076, 2532, 2492, 2575, 388
3077, 2567, 2611, 2493, 2529
3078, 2493, 2451, 2455, 2529
3079, 2571, 2494, 2533, 2623
3080, 2530, 2494, 342, 5999
3081, 2457, 2495, 5969, 5957
3082, 2538, 2496, 2580, 2621
3083, 2582, 2537, 2497, 5933
3084, 5933, 2497, 2581, 2810
3085, 2564, 2557, 2527, 2498
3086, 2421, 2499, 5832, 2416
3087, 2598, 2645, 2562, 2521
3088, 2549, 2467, 2510, 2591
3089, 2632, 5994, 2519, 2539
3090, 2503, 2539, 2468, 2427
3091, 2470, 2504, 2540, 362
3092, 2563, 2505, 2599, 2601
3093, 2568, 2487, 2522, 2604
3094, 2543, 2584, 2507, 2508
3095, 2508, 2433, 2466, 2544
3096, 2544, 2466, 2500, 2585
3097, 2547, 6121, 2509, 2561
3098, 6119, 2509, 6121, 2480
3099, 2512, 2556, 6109, 2548
3100, 2547, 2587, 2514, 6121
3101, 2500, 2464, 2511, 2545
3102, 2474, 2515, 6107, 2550
3103, 2518, 6081, 2560, 6096
3104, 2561, 2546, 2595, 2590
3105, 2515, 2551, 2609, 6107
3106, 2478, 2520, 6077, 2559
3107, 2630, 2590, 2595, 2678
3108, 6096, 2560, 2597, 6118
3109, 2519, 2477, 2445, 2482
3110, 2522, 2487, 6065, 2443
3111, 2521, 2562, 2481, 2441
3112, 2723, 2753, 2685, 2651
3113, 2504, 2555, 2583, 2540
3114, 2555, 6041, 2524, 2634
3115, 2528, 2570, 2489, 2490
3116, 2542, 2507, 2584, 2640
3117, 2647, 2483, 2558, 2596
3118, 2647, 2606, 2526, 2483
3119, 2570, 2605, 2525, 2489
3120, 2573, 6010, 5999, 342
3121, 2623, 2533, 2666, 319
3122, 2536, 5957, 2579, 2622
3123, 2577, 2535, 2453, 5929
3124, 2535, 2617, 2576, 2498
3125, 5957, 5969, 5979, 2579
3126, 6002, 2701, 2622, 2579
3127, 340, 2499, 2537, 2582
3128, 2497, 2537, 2459, 2538
3129, 2539, 2503, 2541, 2632
3130, 2632, 2625, 2594, 5994
3131, 2506, 2475, 2542, 2586
3132, 2522, 2565, 2648, 2604
3133, 2628, 2544, 2585, 2627
3134, 2511, 2514, 2554, 2545
3135, 2546, 2501, 2518, 6096
3136, 2591, 2510, 6082, 2552
3137, 2550, 6109, 2556, 2474
3138, 2548, 2603, 2552, 2523
3139, 2560, 2513, 2589, 2597
3140, 2513, 2467, 2549, 2589
3141, 2551, 2593, 2653, 2609
3142, 2559, 2598, 2521, 2478
3143, 2600, 2642, 2559, 6077
3144, 2563, 2601, 2567, 2529
3145, 2547, 2561, 2590, 2587
3146, 2602, 2566, 2646, 2680
3147, 2566, 2602, 2524, 2488
3148, 2650, 2681, 2592, 2612
3149, 5994, 2517, 2477, 2519
3150, 2568, 6077, 6074, 2487
3151, 2465, 2513, 2560, 6081
3152, 2669, 2637, 2714, 2629
3153, 2587, 2590, 2630, 2635
3154, 2566, 2557, 2592, 2646
3155, 2450, 2483, 2526, 5980
3156, 2599, 2505, 2553, 6083
3157, 2612, 2592, 2557, 2564
3158, 2750, 2757, 2695, 2721
3159, 2574, 2493, 2611, 2638
3160, 2608, 2528, 2610, 2652
3161, 2570, 2528, 2608, 2651
3162, 2605, 2648, 2565, 2525
3163, 2770, 2654, 2807, 2839
3164, 342, 2494, 2571, 2619
3165, 2579, 5979, 2618, 6002
3166, 2491, 2572, 5990, 2534
3167, 2615, 6032, 2694, 6057
3168, 2624, 2578, 2667, 2739
3169, 2612, 2564, 2613, 2659
3170, 2665, 2620, 2577, 2461
3171, 2616, 2531, 2574, 2660
3172, 2616, 2700, 2667, 2578
3173, 6001, 5990, 2572, 2658
3174, 2580, 2536, 2622, 2662
3175, 2581, 5981, 2663, 2810
3176, 2663, 2771, 2844, 2810
3177, 3014, 2853, 3041, 2980
3178, 2625, 362, 2540, 2583
3179, 2596, 2641, 2634, 2680
3180, 2558, 2594, 2641, 2596
3181, 2632, 2541, 362, 2625
3182, 2545, 2633, 2585, 2500
3183, 2649, 2568, 2604, 2686
3184, 2588, 2633, 2545, 2554
3185, 2640, 6110, 2586, 2542
3186, 2553, 2506, 2586, 2676
3187, 2645, 2653, 2593, 2562
3188, 2554, 2514, 2587, 2635
3189, 2597, 2589, 2549, 2714
3190, 2591, 2629, 2714, 2549
3191, 2607, 2548, 6109, 2550
3192, 2650, 2695, 2757, 2767
3193, 2594, 2558, 2517, 5994
3194, 6118, 2595, 2546, 6096
3195, 2602, 2680, 2634, 2524
3196, 2603, 2629, 2591, 2552
3197, 2642, 2683, 2598, 2559
3198, 2626, 2601, 2599, 6094
3199, 2604, 2648, 2720, 2686
3200, 2567, 2644, 2631, 2611
3201, 2603, 2548, 2607, 2639
3202, 6124, 2706, 6110, 2640
3203, 2709, 2672, 6102, 6115
3204, 2572, 2526, 2606, 2658
3205, 2550, 6107, 2643, 2607
3206, 2651, 2685, 2605, 2570
3207, 2683, 2692, 2645, 2598
3208, 2675, 2710, 6127, 2708
3209, 2573, 2614, 2656, 6032
3210, 2652, 6051, 2693, 2725
3211, 2644, 2567, 2601, 2626
3212, 2638, 2611, 2631, 2682
3213, 2655, 2576, 2617, 2698
3214, 2650, 2612, 2659, 2695
3215, 2614, 2654, 2696, 2656
3216, 2727, 6075, 6057, 2694
3217, 2660, 2574, 2638, 2691
3218, 2576, 2655, 6006, 2613
3219, 2661, 2571, 2623, 2703
3220, 2662, 2697, 2621, 2580
3221, 6002, 2664, 6026, 2701
3222, 2701, 6026, 2769, 2748
3223, 2634, 2641, 2583, 2555
3224, 2631, 2644, 6102, 2672
3225, 2636, 6083, 2553, 2676
3226, 2627, 2585, 2633, 2670
3227, 2628, 2679, 2584, 2543
3228, 2668, 2630, 2678, 2713
3229, 2692, 2719, 2653, 2645
3230, 2682, 2631, 2672, 2716
3231, 6127, 2741, 2776, 2744
3232, 2683, 2642, 2717, 2726
3233, 2588, 2554, 2635, 2674
3234, 6083, 2671, 6094, 2599
3235, 2637, 2715, 6118, 2597
3236, 2691, 2638, 2682, 2724
3237, 2678, 2595, 6118, 2715
3238, 2639, 2669, 2629, 2603
3239, 2707, 2687, 2643, 2673
3240, 2740, 2627, 2670, 2791
3241, 2568, 2649, 2600, 6077
3242, 2673, 2609, 2653, 2719
3243, 2626, 2677, 6102, 2644
3244, 2763, 2798, 2789, 2732
3245, 2647, 2596, 2680, 2718
3246, 2684, 2600, 2649, 2722
3247, 2783, 6092, 2750, 6069
3248, 2688, 2608, 2652, 2725
3249, 6111, 2704, 2756, 6125
3250, 2688, 2723, 2651, 2608
3251, 2719, 2746, 2707, 2673
3252, 2656, 2696, 2768, 2729
3253, 2654, 2614, 2619, 2807
3254, 2690, 6006, 2733, 2787
3255, 2727, 2766, 2799, 2765
3256, 6032, 2656, 2729, 2694
3257, 6025, 6001, 2658, 2730
3258, 2689, 2606, 2647, 2718
3259, 2690, 2659, 2613, 6006
3260, 2721, 2695, 2659, 2690
3261, 2667, 2738, 2702, 2739
3262, 2623, 319, 5935, 2703
3263, 2807, 2661, 2847, 2839
3264, 5981, 2697, 6014, 2663
3265, 2844, 2771, 2842, 2882
3266, 2699, 2618, 6001, 6025
3267, 2664, 2732, 2736, 6026
3268, 385, 2620, 2665, 3142
3269, 2700, 2616, 2660, 2731
3270, 2674, 2635, 2630, 2668
3271, 2715, 2637, 2669, 2742
3272, 2684, 2717, 2642, 2600
3273, 2740, 2679, 2628, 2627
3274, 2671, 2712, 6108, 6094
3275, 2716, 2672, 2709, 2745
3276, 2609, 2673, 2643, 6107
3277, 2746, 2754, 2777, 2759
3278, 2713, 2678, 2715, 2742
3279, 2675, 2588, 2674, 2710
3280, 2640, 2584, 2679, 6124
3281, 2704, 6110, 2706, 2756
3282, 6129, 2756, 2706, 2711
3283, 6129, 2790, 6125, 2756
3284, 6061, 2646, 2592, 2681
3285, 6061, 2767, 2689, 2718
3286, 2724, 2682, 2716, 2751
3287, 2685, 2720, 2648, 2605
3288, 2871, 2826, 2896, 2820
3289, 2722, 2649, 2686, 2758
3290, 2760, 2792, 2723, 2688
3291, 2658, 2606, 2689, 2730
3292, 2762, 2721, 2690, 2787
3293, 6078, 6076, 2765, 6085
3294, 2688, 2725, 2795, 2760
3295, 2886, 2925, 2884, 2843
3296, 6092, 6060, 2757, 2750
3297, 2728, 2696, 2654, 2770
3298, 2729, 2768, 2803, 2766
3299, 2662, 2737, 2735, 2697
3300, 2693, 6078, 2761, 2725
3301, 2846, 2811, 2698, 385
3302, 2811, 2885, 2852, 5984
3303, 2618, 2699, 2664, 6002
3304, 2730, 2689, 2767, 2757
3305, 2660, 2691, 6039, 2731
3306, 2773, 2700, 2731, 2809
3307, 2804, 6049, 6028, 6027
3308, 2622, 2701, 2737, 2662
3309, 2739, 2702, 387, 3132
3310, 3401, 3128, 3142, 3546
3311, 3546, 3142, 2665, 3473
3312, 2890, 5935, 3135, 5905
3313, 2636, 2712, 2671, 6083
3314, 6110, 2704, 2676, 2586
3315, 2705, 2710, 2674, 2668
3316, 6126, 2705, 2668, 2713
3317, 2711, 2740, 2778, 6129
3318, 2708, 2791, 2670, 2675
3319, 2758, 2686, 2720, 2784
3320, 2746, 2713, 2742, 2707
3321, 2820, 2744, 2776, 2871
3322, 2712, 2743, 2677, 6108
3323, 2754, 2746, 2719, 2692
3324, 2792, 2828, 2753, 2723
3325, 2747, 6112, 6111, 6125
3326, 2742, 2669, 2687, 2707
3327, 2751, 2716, 2745, 2780
3328, 2684, 2722, 2793, 2749
3329, 2718, 2680, 2646, 6061
3330, 2726, 2754, 2692, 2683
3331, 363, 2817, 2783, 6069
3332, 6128, 2747, 2782, 2821
3333, 2781, 6122, 2743, 6128
3334, 2796, 6039, 2764, 2862
3335, 2823, 2788, 2751, 2780
3336, 2759, 2777, 2776, 2741
3337, 6076, 6075, 2727, 2765
3338, 2768, 2696, 2728, 2801
3339, 2694, 2729, 2766, 2727
3340, 6060, 6025, 2730, 2757
3341, 2691, 2724, 2764, 6039
3342, 2738, 2667, 2700, 2773
3343, 2732, 2664, 2699, 2763
3344, 5984, 2655, 2698, 2811
3345, 2663, 6014, 2734, 2771
3346, 2735, 2772, 6014, 2697
3347, 2748, 2794, 2804, 6027
3348, 2800, 2736, 2752, 2824
3349, 2769, 6026, 2736, 2800
3350, 2737, 2701, 2748, 6027
3351, 2850, 2813, 2775, 2812
3352, 2702, 2738, 2775, 387
3353, 2774, 2739, 3132, 2814
3354, 2679, 2740, 2711, 6124
3355, 2708, 6127, 2744, 2779
3356, 2710, 2705, 2741, 6127
3357, 6126, 2759, 2741, 2705
3358, 6115, 2743, 6122, 2709
3359, 2749, 2755, 2717, 2684
3360, 2786, 2749, 2793, 2837
3361, 6122, 2781, 2818, 2819
3362, 6112, 2747, 6128, 2743
3363, 2829, 2866, 2821, 2782
3364, 2753, 2784, 2720, 2685
3365, 2721, 2762, 6069, 2750
3366, 2788, 2764, 2724, 2751
3367, 2752, 2736, 2732, 2789
3368, 2824, 2878, 2834, 2800
3369, 2755, 2785, 2726, 2717
3370, 2863, 2896, 2826, 2786
3371, 2790, 6129, 2778, 2830
3372, 2793, 2722, 2758, 2831
3373, 2746, 2759, 6126, 2713
3374, 2795, 2725, 2761, 2833
3375, 2832, 2760, 2795, 2870
3376, 6085, 2797, 2761, 6078
3377, 2854, 2861, 2895, 2893
3378, 2763, 2699, 6025, 6060
3379, 2764, 2788, 2827, 2862
3380, 2849, 2803, 2768, 2801
3381, 2835, 2765, 2799, 2875
3382, 2808, 2728, 2770, 2891
3383, 2805, 2771, 2734, 6031
3384, 2801, 2728, 2808, 2843
3385, 2879, 2841, 2806, 6046
3386, 6014, 2772, 6036, 2734
3387, 2796, 2809, 2731, 6039
3388, 3152, 2774, 2814, 3422
3389, 388, 2575, 2774, 3152
3390, 2776, 2777, 2785, 2871
3391, 2709, 6122, 2819, 2745
3392, 2782, 2747, 6125, 2790
3393, 2785, 2777, 2754, 2726
3394, 2791, 2816, 2778, 2740
3395, 2755, 2749, 2786, 2826
3396, 2779, 2816, 2791, 2708
3397, 6128, 2821, 2818, 2781
3398, 2783, 2822, 2798, 6092
3399, 2876, 2831, 2865, 2906
3400, 2655, 5984, 2733, 6006
3401, 2836, 2762, 2787, 2825
3402, 2892, 2827, 2860, 2930
3403, 2778, 2816, 6132, 2830
3404, 2832, 2869, 2792, 2760
3405, 2831, 2758, 2784, 2865
3406, 2828, 2865, 2784, 2753
3407, 2804, 2845, 2883, 6049
3408, 2794, 2748, 2769, 2834
3409, 2833, 2761, 2797, 2872
3410, 2903, 2832, 2870, 2939
3411, 2796, 2815, 2880, 2809
3412, 2797, 2835, 2873, 2872
3413, 2870, 2795, 2833, 2904
3414, 2798, 2763, 6060, 6092
3415, 2840, 6036, 6049, 6056
3416, 2874, 2857, 2915, 2859
3417, 2841, 2881, 2805, 2806
3418, 2836, 2899, 2857, 363
3419, 2766, 2803, 2838, 2799
3420, 2806, 2805, 6031, 2840
3421, 6036, 2840, 6031, 2734
3422, 2875, 2799, 2838, 2914
3423, 2891, 2770, 2839, 2887
3424, 2843, 2808, 341, 2886
3425, 2853, 5933, 2810, 2844
3426, 2953, 2921, 2885, 2981
3427, 2850, 2888, 2926, 2889
3428, 3437, 3647, 5937, 386
3429, 3132, 3417, 3409, 2814
3430, 2848, 2809, 2880, 2924
3431, 2864, 6130, 2820, 2896
3432, 2789, 2798, 2822, 2752
3433, 2762, 2836, 363, 6069
3434, 2861, 6135, 2898, 2895
3435, 2829, 2782, 2790, 2830
3436, 2780, 2745, 2819, 2855
3437, 2779, 2744, 2820, 6130
3438, 2826, 2871, 2785, 2755
3439, 2861, 2854, 2818, 2821
3440, 2752, 2822, 2859, 2824
3441, 2802, 2852, 6005, 2867
3442, 2856, 2825, 2802, 2867
3443, 2863, 2786, 2837, 2902
3444, 2788, 2823, 2860, 2827
3445, 2897, 2862, 2827, 2892
3446, 2829, 2830, 6133, 2907
3447, 2902, 2837, 2876, 2936
3448, 2837, 2793, 2831, 2876
3449, 2973, 2927, 2962, 2999
3450, 2854, 2855, 2819, 2818
3451, 2858, 2823, 2780, 2855
3452, 2824, 2859, 2915, 6079
3453, 2835, 2797, 6085, 2765
3454, 2899, 2836, 2825, 2856
3455, 2830, 6132, 2868, 6133
3456, 2801, 2843, 2884, 2849
3457, 2839, 2847, 2890, 2887
3458, 2845, 2804, 2794, 2877
3459, 2972, 6055, 2911, 2944
3460, 2911, 6055, 2875, 2914
3461, 2842, 2771, 2805, 2881
3462, 2982, 2920, 3013, 2925
3463, 2844, 2882, 3041, 2853
3464, 2877, 2794, 2834, 2878
3465, 2883, 2918, 6056, 6049
3466, 2890, 2847, 2703, 5935
3467, 2932, 2949, 2880, 2815
3468, 2888, 2850, 2812, 2848
3469, 2920, 6007, 6008, 3013
3470, 3111, 3081, 3070, 6019
3471, 3417, 2851, 3410, 5968
3472, 2802, 2733, 5984, 2852
3473, 2980, 3041, 2951, 2922
3474, 2582, 5933, 2853, 3014
3475, 2939, 2870, 2904, 2967
3476, 6084, 2916, 2971, 2948
3477, 2822, 2817, 2874, 2859
3478, 2817, 363, 2857, 2874
3479, 2927, 2893, 2895, 2931
3480, 2858, 2855, 2894, 6117
3481, 2936, 2876, 2906, 2961
3482, 2869, 2900, 2828, 2792
3483, 2815, 2796, 2862, 2897
3484, 2905, 2864, 2896, 2863
3485, 6132, 6130, 2864, 2868
3486, 2861, 2821, 2866, 6135
3487, 2867, 6005, 2923, 2937
3488, 2845, 2912, 2910, 2883
3489, 2908, 2907, 6133, 2905
3490, 2904, 2833, 2872, 2940
3491, 2893, 2894, 2855, 2854
3492, 2902, 2936, 2959, 2908
3493, 2909, 2872, 2873, 2942
3494, 2942, 2873, 6055, 2972
3495, 2945, 2838, 2803, 2849
3496, 2977, 2950, 3007, 3006
3497, 2906, 2900, 2935, 2961
3498, 6054, 6070, 6080, 2943
3499, 2901, 2933, 2899, 2856
3500, 2913, 2945, 2849, 2884
3501, 6045, 6029, 3006, 3007
3502, 365, 2932, 2815, 2897
3503, 2888, 2848, 2924, 2955
3504, 2879, 2917, 2919, 2841
3505, 2920, 2842, 2881, 6007
3506, 2883, 2910, 2947, 2918
3507, 2885, 2811, 2846, 2981
3508, 3012, 3039, 2987, 3060
3509, 341, 2922, 2951, 2886
3510, 2922, 341, 2952, 2984
3511, 3127, 2889, 5937, 3647
3512, 2890, 5905, 3016, 2887
3513, 2808, 2891, 2952, 341
3514, 2891, 2887, 2985, 2952
3515, 2897, 2892, 2928, 365
3516, 2895, 2898, 6134, 2931
3517, 2858, 2929, 2860, 2823
3518, 2900, 2906, 2865, 2828
3519, 2915, 2857, 2899, 2933
3520, 2901, 2856, 2867, 2937
3521, 2903, 2938, 2869, 2832
3522, 2923, 6005, 2921, 2954
3523, 2912, 6084, 2948, 2934
3524, 2902, 2908, 2905, 2863
3525, 2940, 2872, 2909, 2966
3526, 2967, 2904, 2940, 2995
3527, 2868, 2864, 2905, 6133
3528, 2961, 2941, 2959, 2936
3529, 2898, 2907, 6136, 6134
3530, 2999, 3000, 3017, 2973
3531, 2845, 2877, 6084, 2912
3532, 2918, 2947, 2975, 2946
3533, 2877, 2878, 2916, 6084
3534, 6038, 2994, 2971, 6070
3535, 2944, 2911, 2914, 2974
3536, 2915, 2933, 2943, 6079
3537, 6079, 2943, 2878, 2824
3538, 2963, 2960, 2937, 2923
3539, 2879, 6046, 2946, 2917
3540, 2918, 2946, 6046, 6056
3541, 2934, 6101, 2910, 2912
3542, 2881, 2841, 2919, 6007
3543, 2882, 2842, 2920, 2982
3544, 6007, 2919, 2977, 6008
3545, 2852, 2885, 2921, 6005
3546, 2948, 2971, 2994, 2968
3547, 2924, 2880, 2949, 2983
3548, 2926, 2888, 2955, 5977
3549, 2913, 2884, 2925, 3013
3550, 2886, 2951, 2982, 2925
3551, 2978, 2954, 2921, 2953
3552, 6123, 2893, 2927, 2990
3553, 2965, 2999, 2962, 2991
3554, 2958, 3003, 2983, 2949
3555, 2988, 3019, 3018, 2957
3556, 6105, 2988, 2928, 2892
3557, 2929, 2956, 6106, 2930
3558, 2941, 6134, 6136, 2959
3559, 6040, 2932, 365, 2957
3560, 2901, 2937, 2960, 6054
3561, 2900, 2869, 2938, 2935
3562, 2963, 2923, 2954, 3002
3563, 2903, 2939, 2964, 2938
3564, 2990, 3017, 3044, 3020
3565, 2995, 3026, 2993, 2967
3566, 6131, 2931, 6134, 2941
3567, 2916, 2878, 2943, 6080
3568, 2945, 2974, 2914, 2838
3569, 2946, 2975, 3004, 2976
3570, 3013, 6008, 2979, 2913
3571, 3065, 3021, 2989, 3043
3572, 2947, 2910, 6101, 3008
3573, 6054, 2943, 2933, 2901
3574, 2957, 365, 2928, 2988
3575, 2955, 2924, 2983, 3036
3576, 2919, 2917, 2950, 2977
3577, 2917, 2946, 2976, 2950
3578, 2882, 2982, 2951, 3041
3579, 3080, 3040, 3061, 3016
3580, 386, 5937, 2987, 3039
3581, 3009, 3025, 2994, 6038
3582, 6105, 6106, 2956, 2996
3583, 6117, 2894, 6123, 2970
3584, 6105, 2892, 2930, 6106
3585, 2958, 2949, 2932, 6040
3586, 2908, 2959, 6136, 2907
3587, 2991, 2962, 6131, 2941
3588, 2968, 2992, 2934, 2948
3589, 2931, 6131, 2962, 2927
3590, 2965, 2935, 2938, 2964
3591, 2954, 2978, 3011, 3002
3592, 2995, 2940, 2966, 3023
3593, 2969, 2909, 2942, 2998
3594, 2997, 3066, 3023, 2966
3595, 2967, 2993, 2964, 2939
3596, 2942, 2972, 6068, 2998
3597, 2956, 6117, 2970, 2996
3598, 2990, 2927, 2973, 3017
3599, 3001, 2944, 2974, 6029
3600, 3000, 2999, 2965, 2964
3601, 2977, 3006, 2979, 6008
3602, 3055, 3063, 3072, 3050
3603, 2969, 2998, 3024, 6120
3604, 3005, 3007, 2950, 2976
3605, 3060, 2987, 2926, 5977
3606, 2945, 2913, 2979, 2974
3607, 2981, 2846, 3128, 386
3608, 2981, 386, 3039, 2953
3609, 2958, 2989, 3021, 3003
3610, 3010, 2986, 2955, 3036
3611, 3040, 3159, 5878, 3015
3612, 3014, 2980, 3015, 5878
3613, 2985, 2887, 3016, 3061
3614, 6009, 3075, 3060, 5977
3615, 2889, 2926, 2987, 5937
3616, 2997, 2966, 2969, 6120
3617, 3026, 3053, 3029, 2993
3618, 6123, 2990, 3020, 2970
3619, 2991, 2961, 2935, 2965
3620, 3031, 2975, 2947, 3008
3621, 3008, 6101, 2992, 3032
3622, 2963, 3009, 6038, 2960
3623, 3025, 3022, 2968, 2994
3624, 6105, 2996, 3019, 2988
3625, 3052, 3106, 3059, 3027
3626, 2998, 6068, 3028, 3024
3627, 3069, 3096, 3079, 3047
3628, 3000, 2964, 2993, 3029
3629, 2972, 2944, 3001, 6068
3630, 3042, 3048, 3025, 3009
3631, 3101, 3102, 3117, 3110
3632, 2976, 3004, 3030, 3005
3633, 3055, 3050, 3028, 6048
3634, 2979, 3006, 6029, 2974
3635, 3007, 3005, 3033, 6045
3636, 3032, 2992, 3022, 3051
3637, 3004, 3031, 3058, 3030
3638, 3027, 3003, 3021, 3052
3639, 2986, 3035, 3034, 6009
3640, 3038, 3012, 3060, 3075
3641, 3011, 3054, 3037, 3002
3642, 3012, 2978, 2953, 3039
3643, 340, 2582, 3014, 5878
3644, 340, 5878, 3159, 3145
3645, 3416, 318, 3515, 3972
3646, 2984, 3061, 3040, 3015
3647, 3045, 6090, 3019, 2996
3648, 2957, 3018, 2989, 6040
3649, 3020, 3045, 2996, 2970
3650, 3053, 3026, 3073, 6114
3651, 3084, 6086, 3090, 3103
3652, 3043, 2989, 3018, 6089
3653, 6113, 2997, 6120, 3049
3654, 3037, 3064, 3042, 3002
3655, 6090, 6091, 3077, 6089
3656, 3028, 3050, 6093, 3024
3657, 2983, 3003, 3027, 3036
3658, 3033, 3055, 6048, 6045
3659, 3017, 3000, 3029, 3044
3660, 3008, 3032, 3069, 3047
3661, 3042, 3009, 2963, 3002
3662, 3069, 3032, 3051, 6088
3663, 3033, 3056, 3063, 3055
3664, 3035, 2986, 3010, 3057
3665, 3070, 3054, 3011, 3038
3666, 3057, 3010, 3059, 3078
3667, 3064, 3087, 3048, 3042
3668, 3038, 3011, 2978, 3012
3669, 6089, 3018, 3019, 6090
3670, 3053, 3062, 3044, 3029
3671, 3054, 3070, 3081, 364
3672, 3046, 3034, 3035, 3074
3673, 3057, 3078, 3082, 3074
3674, 3031, 3008, 3047, 3058
3675, 3051, 3022, 3025, 3048
3676, 3052, 3021, 3065, 3105
3677, 3073, 3026, 2995, 3023
3678, 3112, 3107, 3092, 3098
3679, 3053, 6114, 6104, 3062
3680, 6088, 3087, 3093, 3088
3681, 6097, 3068, 3077, 6104
3682, 3054, 364, 3086, 3037
3683, 3056, 3033, 3005, 3030
3684, 3076, 3056, 3030, 3058
3685, 3056, 3076, 3083, 3063
3686, 3059, 3010, 3036, 3027
3687, 3076, 3079, 3091, 3083
3688, 3062, 3045, 3020, 3044
3689, 3083, 6099, 3072, 3063
3690, 3086, 364, 3092, 3093
3691, 3068, 3043, 6089, 3077
3692, 6113, 3049, 6098, 3067
3693, 3073, 3023, 3066, 3090
3694, 6113, 3089, 3066, 2997
3695, 3084, 3105, 3065, 6086
3696, 3099, 3071, 3085, 3095
3697, 3043, 3068, 6086, 3065
3698, 3090, 3066, 3089, 3103
3699, 3115, 3114, 3104, 3100
3700, 3070, 3038, 3075, 6019
3701, 3024, 6093, 3049, 6120
3702, 3050, 3072, 3071, 6093
3703, 6067, 3046, 3074, 3082
3704, 3075, 6009, 3034, 6019
3705, 3047, 3079, 3076, 3058
3706, 318, 3080, 3016, 5905
3707, 3416, 3156, 3080, 318
3708, 6093, 3071, 6098, 3049
3709, 3108, 3097, 3091, 3079
3710, 3098, 3081, 3111, 3046
3711, 3095, 3085, 6099, 3097
3712, 3101, 3084, 3103, 3067
3713, 3085, 3071, 3072, 6099
3714, 3086, 3093, 3087, 3064
3715, 3048, 3087, 6088, 3051
3716, 6088, 3088, 3094, 3069
3717, 3093, 3092, 3107, 3088
3718, 6097, 3090, 6086, 3068
3719, 3108, 3079, 3096, 3113
3720, 3092, 364, 3081, 3098
3721, 3100, 3104, 3082, 3078
3722, 3095, 3097, 3108, 3109
3723, 3114, 3109, 3108, 3113
3724, 3083, 3091, 3097, 6099
3725, 6067, 3112, 3098, 3046
3726, 6098, 3071, 3099, 3102
3727, 3106, 3100, 3078, 3059
3728, 3101, 3067, 6098, 3102
3729, 3110, 3105, 3084, 3101
3730, 6087, 3099, 3095, 3109
3731, 3067, 3103, 3089, 6113
3732, 3116, 3104, 3114, 3113
3733, 6067, 3082, 3104, 3112
3734, 3106, 3052, 3105, 3110
3735, 3094, 3088, 3107, 3116
3736, 3113, 3096, 3094, 3116
3737, 3100, 3106, 3110, 3115
3738, 3115, 3110, 3117, 6087
3739, 3102, 3099, 6087, 3117
3740, 3109, 3114, 3115, 6087
3741, 3116, 3107, 3112, 3104
3742, 3694, 5656, 3674, 3554
3743, 339, 2416, 3118, 3397
3744, 5928, 3119, 320, 2218
3745, 3411, 3122, 3413, 372
3746, 3123, 336, 3530, 3151
3747, 3124, 3403, 3695, 3473
3748, 3863, 5904, 3437, 3401
3749, 2851, 2813, 3127, 3410
3750, 3128, 3401, 3437, 386
3751, 3619, 3396, 3573, 392
3752, 319, 3509, 3608, 3432
3753, 319, 2666, 3133, 3509
3754, 3408, 3415, 3134, 3389
3755, 5905, 3135, 3515, 318
3756, 3131, 3136, 3165, 349
3757, 5591, 3137, 1245, 1314
3758, 389, 2091, 3139, 3421
3759, 3415, 5760, 1791, 3134
3760, 4022, 404, 3888, 3556
3761, 3619, 3776, 3567, 3143
3762, 3413, 3567, 3589, 372
3763, 3144, 3595, 3425, 336
3764, 3414, 3159, 3156, 317
3765, 3406, 3572, 5733, 3561
3766, 405, 2259, 5866, 3423
3767, 405, 3578, 3146, 2259
3768, 3593, 3147, 3429, 3617
3769, 3160, 3400, 3174, 323
3770, 3422, 2814, 3409, 3582
3771, 3431, 3152, 3422, 409
3772, 3153, 1015, 1107, 5413
3773, 3154, 391, 3418, 3574
3774, 3573, 3154, 3574, 392
3775, 3411, 3166, 3155, 3122
3776, 3040, 3080, 3156, 3159
3777, 3833, 312, 3446, 3428
3778, 321, 3393, 3424, 3158
3779, 299, 3804, 3594, 3424
3780, 5768, 5642, 1379, 3173
3781, 3163, 3440, 3448, 3170
3782, 3164, 3172, 3539, 3436
3783, 3171, 3168, 3438, 3441
3784, 3183, 3171, 3441, 109
3785, 3419, 390, 3387, 3596
3786, 3434, 3394, 323, 3174
3787, 3615, 3445, 3176, 3175
3788, 3420, 5766, 3398, 5791
3789, 3176, 3445, 3623, 3182
3790, 3177, 3688, 3442, 3169
3791, 3450, 3443, 3178, 3194
3792, 3181, 3179, 3447, 3621
3793, 679, 48, 3183, 5315
3794, 3185, 3451, 3686, 3184
3795, 3210, 3186, 3449, 245
3796, 3254, 34, 636, 3259
3797, 3430, 402, 3399, 3390
3798, 3683, 3452, 3188, 3212
3799, 3189, 3188, 3452, 578
3800, 3189, 578, 3260, 3214
3801, 3192, 3453, 3630, 3201
3802, 3193, 3204, 3454, 4285
3803, 3540, 3195, 3236, 585
3804, 3235, 3196, 3463, 582
3805, 3429, 3197, 325, 3617
3806, 3198, 3459, 3626, 3208
3807, 3623, 3460, 3199, 3182
3808, 3225, 3199, 3460, 130
3809, 3685, 3455, 3200, 3220
3810, 3634, 3490, 3286, 3203
3811, 3205, 590, 3539, 3172
3812, 3216, 3206, 3458, 3466
3813, 3227, 3207, 599, 3340
3814, 3209, 3226, 3462, 3680
3815, 3627, 3461, 3211, 3202
3816, 3224, 3211, 3461, 123
3817, 3678, 3457, 3213, 3230
3818, 3528, 3215, 3245, 177
3819, 3239, 3216, 3466, 595
3820, 373, 3244, 3218, 3444
3821, 291, 4181, 3190, 3219
3822, 3221, 3468, 5331, 3240
3823, 3247, 629, 27, 3265
3824, 3223, 3247, 3523, 3681
3825, 3224, 123, 3475, 3246
3826, 3225, 130, 3384, 3249
3827, 3682, 3462, 3226, 3301
3828, 3469, 3229, 3232, 116
3829, 3231, 3262, 3524, 3684
3830, 3233, 3248, 3471, 112
3831, 3261, 3234, 3465, 222
3832, 3322, 3237, 3464, 334
3833, 3253, 3238, 4082, 113
3834, 468, 3255, 3240, 5331
3835, 3474, 3242, 3269, 312
3836, 3643, 3310, 3244, 373
3837, 3523, 3247, 3265, 557
3838, 115, 3537, 3250, 3287
3839, 3252, 3273, 120, 3472
3840, 402, 3187, 3254, 3538
3841, 423, 3259, 3256, 3541
3842, 3256, 33, 635, 3258
3843, 446, 3258, 3257, 3476
3844, 126, 3524, 3262, 3288
3845, 3276, 3263, 3479, 118
3846, 3265, 3264, 3478, 557
3847, 3284, 3266, 3480, 4286
3848, 3275, 377, 3489, 3304
3849, 674, 44, 3272, 3268
3850, 3245, 3268, 3536, 177
3851, 3412, 3446, 3270, 3157
3852, 3272, 3271, 3477, 199
3853, 3274, 3303, 3517, 354
3854, 3277, 124, 3487, 3291
3855, 3278, 3290, 3520, 3679
3856, 3279, 3296, 3483, 4258
3857, 3356, 82, 716, 3377
3858, 6, 3298, 3294, 607
3859, 3289, 3282, 109, 3486
3860, 3293, 3283, 3485, 119
3861, 3284, 4286, 353, 3308
3862, 3338, 3286, 3490, 587
3863, 3297, 3289, 3486, 110
3864, 3520, 3290, 3297, 110
3865, 3299, 3291, 3487, 125
3866, 3534, 3292, 3299, 125
3867, 3295, 3293, 119, 3488
3868, 3521, 3294, 3298, 114
3869, 3300, 3295, 3488, 3677
3870, 3677, 3483, 3296, 3300
3871, 3298, 3281, 3484, 114
3872, 3301, 3331, 3525, 3682
3873, 3339, 58, 689, 3350
3874, 3542, 3302, 3339, 591
3875, 3517, 3303, 3313, 355
3876, 378, 3314, 3304, 3489
3877, 3305, 290, 3676, 3222
3878, 3337, 3306, 3491, 594
3879, 3307, 376, 4203, 3285
3880, 3320, 6166, 6167, 3327
3881, 3482, 3309, 3320, 351
3882, 3321, 3310, 3643, 374
3883, 3529, 3311, 3341, 586
3884, 3349, 3312, 3493, 581
3885, 3313, 3325, 3522, 355
3886, 3314, 378, 3492, 3326
3887, 3519, 3315, 3355, 176
3888, 3346, 703, 702, 3354
3889, 3318, 4085, 352, 3323
3890, 3494, 3328, 3321, 374
3891, 3323, 352, 3512, 3327
3892, 3317, 3324, 3842, 4383
3893, 3329, 6177, 6178, 3334
3894, 356, 3522, 3325, 3329
3895, 379, 3330, 3326, 3492
3896, 3328, 3494, 3842, 3324
3897, 3330, 379, 3495, 3335
3898, 3347, 51, 681, 3348
3899, 3525, 3331, 3347, 598
3900, 3334, 3332, 357, 3532
3901, 3332, 6179, 6180, 5316
3902, 3367, 3373, 380, 3533
3903, 3333, 3335, 3495, 380
3904, 3342, 3343, 3516, 593
3905, 3341, 3352, 3514, 586
3906, 3342, 593, 3497, 3344
3907, 3337, 594, 3516, 3343
3908, 3345, 3344, 3497, 592
3909, 3345, 592, 3535, 3350
3910, 3496, 3346, 3354, 4182
3911, 3348, 3340, 599, 3531
3912, 3351, 3353, 3498, 4275
3913, 3351, 4275, 4182, 3354
3914, 3352, 3338, 587, 3514
3915, 3349, 581, 3498, 3353
3916, 3378, 3357, 3499, 221
3917, 3305, 3358, 4180, 290
3918, 176, 3355, 3359, 3527
3919, 3386, 357, 3332, 5316
3920, 108, 764, 3360, 3386
3921, 3361, 533, 4721, 3377
3922, 4087, 5333, 3966, 4262
3923, 3363, 3375, 3513, 467
3924, 3368, 710, 76, 3365
3925, 3364, 3368, 3518, 445
3926, 3365, 3374, 3526, 422
3927, 3374, 3366, 401, 3526
3928, 3372, 3369, 3501, 489
3929, 5333, 4087, 3362, 3370
3930, 3371, 3376, 511, 4474
3931, 3372, 489, 5333, 3370
3932, 3376, 3362, 4087, 511
3933, 104, 759, 3385, 3379
3934, 3379, 267, 4180, 3358
3935, 3382, 3381, 3502, 244
3936, 3380, 3383, 3503, 5322
3937, 3379, 3385, 4086, 267
3938, 2058, 3388, 3426, 338
3939, 3389, 5541, 5459, 3427
3940, 3511, 3433, 3391, 5368
3941, 5366, 3391, 3433, 3395
3942, 3507, 3392, 3148, 3404
3943, 3506, 3392, 3507, 411
3944, 3393, 5798, 3402, 3424
3945, 3510, 3604, 3435, 322
3946, 3561, 3554, 3118, 3406
3947, 3398, 5788, 3544, 5791
3948, 5791, 3544, 5836, 3716
3949, 3399, 402, 3538, 3810
3950, 3602, 3878, 3699, 301
3951, 301, 3699, 3809, 3932
3952, 3401, 3546, 3806, 3863
3953, 300, 3690, 3402, 3435
3954, 299, 3424, 3402, 3690
3955, 3546, 3473, 3695, 3806
3956, 3635, 3507, 3404, 3584
3957, 3618, 3509, 320, 3405
3958, 3649, 5733, 3572, 3414
3959, 3415, 3408, 5617, 5628
3960, 3410, 3692, 3563, 5968
3961, 3446, 3412, 335, 3428
3962, 317, 3156, 3416, 3548
3963, 408, 3409, 3417, 5968
3964, 3418, 391, 5766, 3420
3965, 3419, 3596, 412, 5836
3966, 3675, 3420, 5791, 3716
3967, 3139, 3150, 3505, 3421
3968, 3545, 3336, 3421, 3505
3969, 3140, 3141, 3423, 5866
3970, 3428, 3530, 3547, 3833
3971, 315, 3586, 3426, 5656
3972, 3130, 3504, 3508, 1560
3973, 3408, 5496, 3576, 5617
3974, 3430, 3120, 3187, 402
3975, 3590, 3545, 3505, 3431
3976, 3432, 3687, 3515, 3135
3977, 3871, 3597, 3972, 296
3978, 3395, 3433, 3592, 325
3979, 301, 3604, 3434, 3602
3980, 3440, 3436, 589, 3585
3981, 3647, 3437, 5904, 3692
3982, 3441, 3438, 3822, 3653
3983, 131, 3822, 3438, 3439
3984, 3442, 3564, 131, 3439
3985, 154, 3564, 3442, 3688
3986, 3550, 3443, 3450, 127
3987, 3629, 372, 3589, 5375
3988, 3703, 3445, 3615, 128
3989, 3623, 3445, 129, 3800
3990, 3662, 3748, 3666, 584
3991, 3621, 3447, 3813, 583
3992, 3634, 3448, 588, 5351
3993, 3449, 3686, 3697, 3636
3994, 3451, 4181, 3570, 268
3995, 3686, 3451, 268, 3697
3996, 3652, 3478, 578, 3452
3997, 512, 3453, 3192, 3191
3998, 490, 3630, 3453, 3579
3999, 3454, 3681, 3568, 5350
4000, 3656, 3531, 599, 3455
4001, 3581, 337, 3407, 3162
4002, 3706, 3456, 3581, 3696
4003, 3457, 3678, 121, 3587
4004, 3466, 3458, 596, 3552
4005, 3800, 3734, 3854, 3663
4006, 3769, 3731, 4140, 3650
4007, 3588, 5349, 597, 3729
4008, 583, 3598, 3463, 3621
4009, 3714, 4130, 3751, 3580
4010, 3787, 5378, 4134, 3669
4011, 3316, 579, 3467, 3251
4012, 3640, 490, 3728, 4074
4013, 3783, 5377, 4133, 3673
4014, 3356, 556, 3470, 3280
4015, 111, 3575, 3471, 3679
4016, 5334, 3474, 312, 3833
4017, 3560, 4295, 3474, 5334
4018, 5415, 5367, 3773, 469
4019, 3792, 222, 3669, 3869
4020, 3790, 117, 3673, 3865
4021, 4286, 3480, 3559, 4067
4022, 3558, 3481, 4203, 4060
4023, 3616, 3643, 373, 3754
4024, 3830, 3565, 3483, 3677
4025, 3606, 3484, 113, 3835
4026, 3613, 3488, 119, 3746
4027, 3610, 3489, 377, 3735
4028, 3490, 3634, 5351, 3562
4029, 3603, 3491, 595, 3727
4030, 3661, 3495, 379, 3778
4031, 290, 4180, 3549, 3718
4032, 3555, 3498, 581, 3732
4033, 334, 3752, 3657, 3500
4034, 556, 4721, 3557, 3721
4035, 3508, 3566, 3427, 5459
4036, 3689, 3506, 411, 3791
4037, 3506, 3689, 3596, 3387
4038, 3604, 3510, 3394, 3434
4039, 3511, 349, 3645, 5384
4040, 3609, 3514, 587, 3738
4041, 297, 3687, 3432, 3608
4042, 3625, 110, 3816, 3772
4043, 3523, 557, 3620, 534
4044, 3637, 598, 3812, 3755
4045, 3682, 3525, 3820, 597
4046, 3632, 177, 3758, 3912
4047, 3547, 3425, 313, 3702
4048, 5379, 3784, 3775, 572
4049, 3782, 3664, 423, 3541
4050, 3659, 3539, 590, 3805
4051, 4126, 3747, 3745, 565
4052, 350, 3741, 3753, 3543
4053, 3716, 5836, 3796, 3853
4054, 3560, 5334, 3702, 3900
4055, 3547, 3702, 5334, 3833
4056, 3957, 5790, 4002, 4152
4057, 3549, 4180, 267, 4261
4058, 127, 3824, 5440, 3550
4059, 3739, 3703, 128, 3884
4060, 579, 3496, 3551, 3720
4061, 596, 3839, 3903, 3552
4062, 3727, 3552, 3903, 575
4063, 4175, 4033, 3885, 143
4064, 3889, 3722, 3553, 4037
4065, 3397, 3118, 3554, 3674
4066, 3554, 3561, 3852, 3694
4067, 4057, 580, 4071, 560
4068, 3888, 404, 5577, 4055
4069, 3556, 3888, 3723, 3793
4070, 3896, 3557, 4061, 5380
4071, 3735, 3558, 3907, 398
4072, 4067, 3559, 3908, 5383
4073, 4246, 4295, 3560, 3857
4074, 316, 3852, 3561, 5733
4075, 3738, 3562, 3926, 567
4076, 587, 3490, 3562, 3738
4077, 3996, 3874, 5395, 3821
4078, 3664, 3810, 3538, 423
4079, 3566, 3698, 5458, 3427
4080, 3691, 3589, 3567, 3776
4081, 4285, 3454, 5350, 4068
4082, 3841, 3916, 5437, 5412
4083, 3569, 3916, 3841, 375
4084, 3570, 4044, 3887, 3719
4085, 3571, 3724, 3898, 3971
4086, 3695, 3971, 3858, 3806
4087, 3572, 3406, 5832, 3145
4088, 4050, 3575, 3901, 4202
4089, 403, 3818, 3576, 5496
4090, 3576, 3818, 3709, 5577
4091, 3879, 3708, 3577, 3720
4092, 3467, 3577, 3803, 3683
4093, 405, 3556, 3793, 3578
4094, 3897, 3579, 4063, 513
4095, 289, 3881, 3700, 3718
4096, 3626, 3459, 3580, 3751
4097, 3696, 3581, 3162, 3586
4098, 3595, 3456, 3706, 5417
4099, 408, 3715, 3725, 3582
4100, 3814, 3711, 409, 5985
4101, 3721, 3557, 3896, 4132
4102, 3470, 3583, 3802, 3685
4103, 3701, 3635, 3883, 4062
4104, 3585, 589, 3704, 3954
4105, 3722, 3587, 121, 3553
4106, 122, 3892, 3731, 3769
4107, 3588, 3856, 3827, 5349
4108, 129, 3445, 3703, 3851
4109, 3734, 129, 3851, 5372
4110, 5375, 3828, 5387, 5376
4111, 410, 3545, 3590, 3819
4112, 4103, 3591, 3740, 5407
4113, 3591, 3894, 3741, 350
4114, 3743, 3617, 325, 3592
4115, 3593, 303, 3826, 302
4116, 3593, 302, 3878, 3147
4117, 3798, 3944, 299, 3690
4118, 3829, 5417, 3706, 314
4119, 313, 3425, 3595, 5417
4120, 295, 3597, 3871, 4115
4121, 3757, 3598, 3945, 562
4122, 582, 3463, 3598, 3757
4123, 244, 3502, 3599, 3837
4124, 351, 3512, 3600, 3764
4125, 489, 3501, 3601, 3838
4126, 3878, 3602, 3400, 3147
4127, 3603, 3936, 574, 3761
4128, 3732, 3605, 3935, 561
4129, 581, 3493, 3605, 3732
4130, 3765, 3606, 3934, 136
4131, 3607, 3808, 5374, 3949
4132, 221, 3499, 3607, 5348
4133, 3767, 3609, 3931, 566
4134, 3759, 3610, 3921, 399
4135, 3611, 3771, 3939, 4102
4136, 354, 3517, 3612, 3730
4137, 3986, 3830, 3613, 3906
4138, 3614, 3761, 4142, 3929
4139, 3762, 3614, 3929, 573
4140, 3616, 3915, 3737, 5343
4141, 303, 3593, 3617, 5501
4142, 5918, 3618, 3405, 3594
4143, 3681, 3523, 534, 3568
4144, 3750, 3620, 557, 3817
4145, 3911, 3622, 3765, 136
4146, 3890, 3624, 3767, 566
4147, 3745, 3624, 3890, 565
4148, 3913, 3625, 3772, 4018
4149, 3625, 3913, 4114, 3834
4150, 3628, 3749, 3891, 3845
4151, 5357, 3823, 5373, 197
4152, 373, 3444, 3629, 3754
4153, 3922, 3631, 3770, 149
4154, 3825, 3846, 3824, 127
4155, 3912, 4041, 3855, 3632
4156, 3688, 3528, 3831, 154
4157, 3633, 3777, 3946, 4104
4158, 245, 3449, 3636, 3744
4159, 3905, 3637, 3755, 5394
4160, 3992, 3820, 3637, 3905
4161, 3963, 3638, 3781, 333
4162, 3763, 3638, 3963, 4107
4163, 3943, 3639, 3759, 399
4164, 3639, 3943, 400, 3778
4165, 3928, 3773, 3640, 4074
4166, 3924, 3641, 3762, 573
4167, 3775, 3641, 3924, 572
4168, 3642, 3751, 4130, 4072
4169, 3644, 3780, 3927, 4125
4170, 5384, 3645, 326, 5411
4171, 3543, 3753, 3645, 349
4172, 3742, 3646, 3882, 138
4173, 3410, 3127, 3647, 3692
4174, 3964, 3648, 3786, 400
4175, 3777, 3648, 3964, 4105
4176, 3713, 317, 3548, 3923
4177, 3801, 316, 5733, 3649
4178, 3650, 3914, 3768, 123
4179, 3651, 3779, 3917, 4116
4180, 3708, 3850, 3803, 3577
4181, 3850, 3817, 3652, 3803
4182, 3736, 3950, 3822, 131
4183, 3653, 3822, 3950, 3816
4184, 3654, 3774, 3919, 4127
4185, 3655, 3789, 3947, 4124
4186, 3710, 3847, 3802, 3583
4187, 3847, 3812, 3656, 3802
4188, 3781, 3657, 3752, 333
4189, 4069, 3658, 3784, 5379
4190, 3658, 3925, 3785, 591
4191, 3942, 4391, 3995, 3704
4192, 3660, 5367, 5415, 3861
4193, 3667, 446, 3788, 3860
4194, 3786, 3661, 3778, 400
4195, 3747, 4126, 3875, 3662
4196, 3460, 3623, 3800, 3663
4197, 3955, 3664, 3782, 424
4198, 3665, 3790, 3870, 4108
4199, 4136, 3666, 3748, 564
4200, 3813, 3848, 3807, 583
4201, 4416, 3667, 3860, 4209
4202, 3668, 3785, 4046, 3918
4203, 3805, 3668, 3918, 570
4204, 3670, 3794, 3866, 5442
4205, 3671, 3768, 3864, 5441
4206, 3872, 3672, 3792, 5385
4207, 3774, 3672, 3872, 3919
4208, 3426, 3388, 3674, 5656
4209, 3717, 3862, 3849, 3693
4210, 3583, 3470, 556, 3721
4211, 3577, 3467, 579, 3720
4212, 3446, 312, 3269, 3270
4213, 596, 3458, 3680, 3827
4214, 3462, 3682, 597, 5349
4215, 127, 3450, 3684, 3825
4216, 3543, 3217, 3243, 350
4217, 434, 3904, 4047, 4426
4218, 3596, 3689, 4001, 412
4219, 3844, 3691, 3776, 3868
4220, 393, 3828, 3691, 3844
4221, 3873, 3692, 5904, 407
4222, 4162, 3868, 3693, 3849
4223, 392, 3574, 3693, 3868
4224, 5656, 3694, 5611, 315
4225, 3818, 403, 3955, 424
4226, 5458, 3698, 3955, 403
4227, 302, 3962, 3699, 3878
4228, 4062, 3883, 3948, 432
4229, 3560, 3900, 5345, 3857
4230, 3884, 128, 3550, 5440
4231, 3851, 3703, 3739, 151
4232, 3704, 589, 3659, 3942
4233, 3832, 3954, 3975, 4092
4234, 314, 3977, 3705, 4038
4235, 3706, 3696, 3977, 314
4236, 3548, 3597, 295, 3923
4237, 3933, 297, 3959, 4120
4238, 297, 3608, 3707, 3959
4239, 3850, 558, 3750, 3817
4240, 425, 4055, 5577, 3709
4241, 3847, 5394, 3755, 3812
4242, 4139, 3859, 3711, 3814
4243, 3712, 142, 4078, 3885
4244, 3712, 3565, 3830, 3986
4245, 3801, 5790, 3957, 3843
4246, 4048, 5948, 5936, 4006
4247, 3953, 3725, 3715, 5948
4248, 413, 3675, 3716, 3853
4249, 3675, 413, 3862, 3717
4250, 3886, 4187, 4076, 5397
4251, 3720, 3551, 3893, 559
4252, 5495, 3902, 4093, 5491
4253, 5394, 5499, 4019, 3905
4254, 3587, 4053, 3892, 122
4255, 4119, 3724, 3793, 426
4256, 3898, 3724, 4119, 427
4257, 3726, 535, 5422, 3899
4258, 3726, 534, 3620, 4129
4259, 3856, 3588, 4284, 4118
4260, 3729, 597, 3820, 3992
4261, 3914, 3650, 4140, 4015
4262, 133, 3901, 3733, 4184
4263, 3733, 111, 3834, 4114
4264, 3779, 3854, 152, 3917
4265, 3950, 132, 3772, 3816
4266, 131, 3564, 5396, 3736
4267, 3737, 395, 5437, 3916
4268, 3569, 5343, 3737, 3916
4269, 3882, 3646, 3756, 137
4270, 3865, 3673, 4133, 4031
4271, 5411, 3743, 3592, 5384
4272, 5456, 5455, 3811, 5517
4273, 3869, 3669, 4134, 223
4274, 3748, 3662, 3875, 564
4275, 3666, 4136, 3848, 3813
4276, 3815, 3749, 176, 3527
4277, 3902, 3750, 558, 4093
4278, 3756, 3622, 3911, 137
4279, 3938, 3760, 220, 4042
4280, 3599, 5348, 3760, 3938
4281, 3920, 3763, 4107, 332
4282, 3764, 3600, 3930, 328
4283, 3894, 3591, 4103, 4024
4284, 3766, 466, 3940, 3601
4285, 146, 3864, 3768, 3914
4286, 3631, 3922, 3846, 3825
4287, 4104, 3939, 3771, 3633
4288, 4018, 3772, 132, 5423
4289, 5331, 3773, 5367, 468
4290, 3861, 5415, 469, 4141
4291, 3925, 3658, 4069, 3989
4292, 3946, 3777, 4105, 421
4293, 3779, 153, 3663, 3854
4294, 3927, 3780, 140, 3999
4295, 3788, 3660, 3861, 447
4296, 3788, 447, 5416, 3860
4297, 5442, 3947, 3789, 3670
4298, 139, 3870, 3790, 3865
4299, 5385, 3792, 3869, 5398
4300, 5441, 3866, 3794, 3671
4301, 5922, 4077, 3978, 4098
4302, 296, 3687, 3795, 5922
4303, 3982, 3796, 3876, 4149
4304, 3944, 277, 4109, 3961
4305, 300, 3797, 3941, 3799
4306, 5834, 5833, 5861, 3979
4307, 3649, 3713, 5790, 3801
4308, 3804, 298, 5918, 3594
4309, 3942, 570, 4117, 4391
4310, 4137, 3863, 3806, 3858
4311, 3945, 3807, 563, 4091
4312, 3808, 198, 3823, 5357
4313, 5374, 3808, 5357, 5389
4314, 3910, 301, 3932, 279
4315, 3698, 3810, 3664, 3955
4316, 5598, 3951, 5517, 3811
4317, 303, 5517, 3951, 3952
4318, 3797, 300, 3435, 3604
4319, 4139, 3814, 3969, 5970
4320, 5369, 3651, 4116, 175
4321, 3948, 3883, 410, 3819
4322, 154, 3831, 3821, 5395
4323, 3823, 3628, 3845, 5373
4324, 5440, 4007, 4121, 3884
4325, 3970, 3962, 302, 3826
4326, 3827, 3856, 3839, 596
4327, 3828, 393, 3867, 5387
4328, 3829, 3956, 4106, 5370
4329, 5417, 3829, 5370, 313
4330, 3930, 4585, 5519, 4051
4331, 4094, 4079, 3903, 3839
4332, 3562, 5351, 3840, 3926
4333, 3967, 396, 4143, 5386
4334, 4383, 3842, 375, 5347
4335, 3980, 4153, 3983, 3843
4336, 316, 3801, 3843, 3983
4337, 3844, 5572, 4012, 393
4338, 3891, 4030, 4259, 3845
4339, 5389, 5357, 197, 5404
4340, 3922, 4020, 5586, 3846
4341, 3846, 5586, 150, 3824
4342, 5394, 3847, 3710, 5499
4343, 4111, 3848, 4136, 5444
4344, 563, 3807, 3848, 4111
4345, 558, 3850, 3708, 4093
4346, 5405, 5372, 3851, 151
4347, 4216, 5474, 5405, 151
4348, 3694, 3852, 3968, 5611
4349, 3854, 3734, 5372, 152
4350, 4246, 5335, 4044, 291
4351, 4291, 4148, 4420, 429
4352, 431, 4257, 3859, 4139
4353, 3859, 432, 3948, 3819
4354, 3991, 4209, 3860, 5416
4355, 3981, 4000, 413, 3853
4356, 3849, 3862, 4155, 5675
4357, 407, 5904, 3863, 4137
4358, 4017, 3864, 146, 4415
4359, 4200, 4031, 4133, 5399
4360, 147, 4008, 3866, 5441
4361, 3867, 393, 4012, 4243
4362, 4043, 223, 4134, 5402
4363, 4016, 3870, 139, 4192
4364, 5385, 4010, 5418, 3872
4365, 200, 3919, 3872, 5418
4366, 407, 4006, 5936, 3873
4367, 429, 4048, 4006, 4291
4368, 4026, 3874, 3996, 4163
4369, 3875, 4126, 4073, 5420
4370, 4001, 3689, 3791, 3904
4371, 5611, 3968, 4039, 5545
4372, 4038, 3877, 4189, 4775
4373, 3880, 4194, 5499, 3710
4374, 151, 3739, 3884, 4121
4375, 143, 3885, 4078, 4314
4376, 4187, 3886, 4035, 5371
4377, 3744, 3886, 5397, 246
4378, 4096, 269, 5346, 292
4379, 269, 5371, 3887, 5346
4380, 4081, 3889, 4175, 4449
4381, 175, 3891, 3749, 5369
4382, 4075, 3892, 4053, 5502
4383, 3892, 4075, 5500, 3731
4384, 3894, 327, 4070, 3741
4385, 3895, 4049, 4066, 5479
4386, 3896, 5449, 555, 4132
4387, 4080, 3897, 513, 4541
4388, 491, 3728, 3897, 4080
4389, 3987, 3898, 427, 4197
4390, 3899, 5422, 4083, 5381
4391, 4063, 4068, 5382, 513
4392, 5345, 292, 5340, 3857
4393, 3901, 133, 4054, 4202
4394, 4059, 4129, 3902, 5495
4395, 4149, 4001, 3904, 434
4396, 3905, 4019, 5473, 3992
4397, 5443, 3906, 141, 4211
4398, 3986, 3906, 5443, 4056
4399, 5383, 3908, 4034, 5410
4400, 3910, 4123, 3941, 3797
4401, 333, 4072, 4040, 3963
4402, 333, 3752, 3642, 4072
4403, 3912, 3758, 178, 4041
4404, 3915, 394, 5457, 4036
4405, 4003, 5437, 395, 4036
4406, 3993, 3917, 152, 4112
4407, 4116, 3917, 3993, 4245
4408, 4005, 3918, 4046, 571
4409, 200, 3997, 4127, 3919
4410, 4113, 3920, 332, 4327
4411, 3922, 149, 5516, 4020
4412, 3785, 3925, 571, 4046
4413, 4074, 4013, 5435, 3928
4414, 3928, 5435, 469, 3773
4415, 5693, 3809, 3962, 3970
4416, 275, 4077, 3933, 4120
4417, 4144, 3936, 575, 5452
4418, 4062, 3984, 3937, 3701
4419, 433, 4047, 3937, 3984
4420, 444, 4004, 3939, 4104
4421, 4102, 3939, 4004, 4368
4422, 3944, 3798, 3979, 277
4423, 3946, 421, 5406, 3994
4424, 4104, 3946, 3994, 444
4425, 148, 3990, 3947, 5442
4426, 4062, 432, 4276, 3984
4427, 220, 3760, 3949, 4089
4428, 3950, 3736, 4026, 132
4429, 3952, 3951, 4110, 281
4430, 5690, 3970, 3826, 4084
4431, 3954, 3704, 3995, 3975
4432, 5375, 5376, 3754, 3629
4433, 4238, 134, 4351, 3958
4434, 3959, 3707, 5918, 298
4435, 3961, 4099, 298, 3804
4436, 4067, 330, 4359, 4241
4437, 3960, 4241, 4359, 4761
4438, 276, 4099, 3961, 4109
4439, 4107, 3963, 4040, 4207
4440, 5505, 3964, 400, 3943
4441, 4145, 266, 4261, 3965
4442, 3965, 4261, 267, 4086
4443, 4262, 3966, 4146, 510
4444, 4255, 5386, 397, 4060
4445, 5958, 4097, 431, 5970
4446, 5690, 5691, 5693, 3970
4447, 428, 3971, 3898, 3987
4448, 4088, 3973, 4209, 3991
4449, 3709, 3973, 4088, 425
4450, 3976, 4135, 4095, 5503
4451, 4092, 3975, 4101, 5531
4452, 5503, 3811, 5455, 3976
4453, 5896, 3978, 4210, 4592
4454, 4153, 4393, 4301, 4039
4455, 4000, 3981, 4151, 5734
4456, 3982, 4149, 4158, 4167
4457, 3988, 415, 4012, 5572
4458, 3868, 4162, 5572, 3844
4459, 5401, 4412, 3989, 4069
4460, 4222, 5563, 148, 4008
4461, 3729, 3992, 5473, 577
4462, 4388, 3994, 5406, 5468
4463, 5423, 132, 4026, 4163
4464, 178, 4127, 3997, 4312
4465, 4215, 4343, 200, 5418
4466, 4231, 4410, 573, 3929
4467, 3998, 4410, 4511, 4321
4468, 3999, 140, 4178, 4319
4469, 4319, 4499, 4334, 3999
4470, 4000, 5734, 4300, 4155
4471, 3876, 412, 4001, 4149
4472, 4161, 295, 4115, 4310
4473, 5467, 4353, 4515, 5547
4474, 4171, 4005, 571, 5400
4475, 4005, 4171, 4313, 4170
4476, 4121, 4007, 4265, 5514
4477, 4229, 5530, 147, 4017
4478, 5530, 4222, 4008, 147
4479, 567, 3926, 4009, 4232
4480, 4010, 4521, 4215, 5418
4481, 4390, 5398, 4227, 224
4482, 4011, 4344, 4461, 5414
4483, 5414, 4071, 3909, 4011
4484, 3867, 4243, 5532, 4394
4485, 4223, 4408, 491, 4080
4486, 4406, 574, 4251, 5419
4487, 4281, 145, 4198, 168
4488, 4015, 4281, 4328, 4199
4489, 4320, 4178, 140, 4108
4490, 4415, 146, 4199, 4422
4491, 4184, 5446, 4290, 133
4492, 4290, 5423, 4160, 4491
4493, 5565, 5516, 5515, 4213
4494, 566, 3931, 4021, 4217
4495, 4022, 3423, 3141, 5628
4496, 4147, 327, 4159, 305
4497, 327, 3894, 4024, 4159
4498, 4270, 4025, 4377, 487
4499, 488, 3940, 4025, 4270
4500, 4324, 4456, 4224, 159
4501, 4027, 4456, 4324, 4183
4502, 4327, 4195, 331, 4113
4503, 4058, 3890, 566, 4217
4504, 4376, 4438, 4436, 397
4505, 4309, 4173, 4029, 4436
4506, 4288, 4492, 5403, 4259
4507, 4514, 4200, 4168, 161
4508, 5518, 5534, 5595, 554
4509, 4037, 4033, 4175, 3889
4510, 4453, 5383, 5410, 4751
4511, 4287, 5457, 4122, 416
4512, 4225, 5569, 4418, 417
4513, 3553, 3472, 120, 4037
4514, 3877, 4038, 3705, 5545
4515, 4039, 4301, 3877, 5545
4516, 4207, 4040, 4154, 310
4517, 155, 3855, 4041, 4280
4518, 4269, 4042, 4379, 242
4519, 243, 3938, 4042, 4269
4520, 246, 4188, 4409, 5402
4521, 5346, 3887, 4044, 5335
4522, 4221, 4045, 4364, 538
4523, 561, 3935, 4045, 4221
4524, 4172, 433, 3984, 4276
4525, 3985, 3953, 5948, 4048
4526, 4049, 266, 4439, 4066
4527, 134, 4238, 4050, 4202
4528, 4205, 4051, 5519, 4332
4529, 3930, 4051, 5448, 328
4530, 4052, 4460, 4340, 4224
4531, 4054, 133, 4169, 5571
4532, 4202, 4054, 4433, 134
4533, 4056, 5443, 4211, 4363
4534, 142, 4277, 4193, 4078
4535, 3555, 580, 4275, 3498
4536, 3893, 4191, 4065, 5466
4537, 3890, 4058, 4164, 565
4538, 4129, 4059, 535, 3726
4539, 376, 4383, 5347, 4255
4540, 4029, 4060, 397, 4436
4541, 4378, 4544, 4787, 4607
4542, 5380, 4032, 5449, 3896
4543, 3911, 136, 4456, 4027
4544, 4190, 4065, 4317, 5551
4545, 4176, 4307, 4534, 4566
4546, 4286, 4067, 4241, 353
4547, 3899, 5381, 5350, 3568
4548, 4228, 5382, 5381, 4083
4549, 572, 5401, 4069, 5379
4550, 3998, 3924, 573, 4410
4551, 4230, 4154, 311, 4090
4552, 4323, 4204, 4073, 4402
4553, 3921, 398, 5510, 4028
4554, 4074, 3728, 491, 4013
4555, 5502, 5506, 4273, 4315
4556, 4075, 5502, 4315, 4198
4557, 4401, 4311, 4076, 4187
4558, 3795, 3933, 4077, 5922
4559, 514, 4398, 4348, 4542
4560, 4550, 143, 4314, 4806
4561, 4081, 4449, 4174, 5506
4562, 3238, 3228, 5332, 4082
4563, 4082, 5332, 4238, 3958
4564, 4083, 5422, 4236, 4348
4565, 3952, 281, 4283, 4084
4566, 4085, 353, 4241, 3960
4567, 5534, 5518, 4201, 5472
4568, 4209, 3973, 424, 4416
4569, 5494, 4355, 4089, 4254
4570, 5557, 4335, 4266, 288
4571, 4250, 4091, 4413, 539
4572, 562, 3945, 4091, 4250
4573, 4237, 5531, 4150, 545
4574, 5531, 4237, 568, 4092
4575, 4135, 5454, 4147, 4095
4576, 4381, 4147, 305, 4578
4577, 4242, 292, 5345, 4106
4578, 430, 5962, 4392, 5958
4579, 5896, 4165, 4098, 3978
4580, 4296, 4339, 4235, 5889
4581, 569, 4218, 5583, 4101
4582, 4102, 466, 3766, 3611
4583, 5407, 328, 5448, 4103
4584, 4103, 5448, 4234, 4024
4585, 4023, 4105, 3964, 5505
4586, 5370, 4106, 5345, 3900
4587, 4108, 140, 3780, 3665
4588, 4271, 4186, 4110, 5650
4589, 4064, 3882, 137, 4279
4590, 4113, 331, 3730, 3612
4591, 175, 4116, 4245, 4157
4592, 3815, 3651, 5369, 3749
4593, 4117, 570, 4170, 4819
4594, 576, 3856, 4118, 4240
4595, 4404, 4341, 577, 5473
4596, 5664, 4119, 426, 5604
4597, 5387, 4122, 5457, 394
4598, 279, 4248, 4352, 4247
4599, 4124, 149, 3770, 3655
4600, 4125, 141, 3746, 3644
4601, 4073, 4126, 565, 4402
4602, 4127, 178, 3758, 3654
4603, 4128, 4357, 4248, 5759
4604, 4090, 3714, 3881, 289
4605, 4130, 3714, 4090, 311
4606, 3880, 3721, 4132, 555
4607, 5377, 138, 5399, 4133
4608, 5378, 246, 5402, 4134
4609, 4135, 3974, 4070, 5454
4610, 5454, 4070, 327, 4147
4611, 5444, 4136, 564, 4338
4612, 4148, 4291, 4137, 3858
4613, 304, 4264, 4381, 4249
4614, 145, 4140, 3731, 5500
4615, 4015, 4140, 145, 4281
4616, 3861, 4141, 5453, 447
4617, 4214, 4141, 469, 5435
4618, 4142, 3761, 574, 4406
4619, 4261, 266, 4049, 3549
4620, 4264, 4095, 4147, 4381
4621, 4278, 4303, 428, 3987
4622, 545, 4150, 546, 4506
4623, 5795, 4329, 5734, 4151
4624, 4300, 5734, 4329, 4770
4625, 4152, 294, 3980, 3957
4626, 294, 4393, 4153, 3980
4627, 4300, 4770, 4565, 5696
4628, 5696, 5675, 4155, 4300
4629, 4167, 4158, 4308, 435
4630, 4024, 4234, 4349, 4159
4631, 4396, 155, 4280, 4563
4632, 4424, 4571, 4310, 273
4633, 4161, 4310, 4571, 4292
4634, 414, 4162, 3849, 5675
4635, 4293, 3988, 414, 4299
4636, 4163, 3996, 4160, 5423
4637, 4497, 4165, 5896, 274
4638, 4165, 273, 4310, 4115
4639, 4373, 4392, 453, 4504
4640, 4392, 5962, 4166, 453
4641, 4151, 4167, 435, 5795
4642, 4514, 4322, 4031, 4200
4643, 4064, 4168, 4200, 5399
4644, 4574, 4446, 4549, 4758
4645, 4171, 548, 4852, 4313
4646, 4173, 4929, 4405, 5509
4647, 4174, 167, 4273, 5506
4648, 4449, 4175, 143, 4550
4649, 4266, 5479, 4176, 288
4650, 4316, 5462, 4427, 5520
4651, 4499, 4319, 4524, 5507
4652, 4360, 4531, 4563, 4280
4653, 580, 4057, 4182, 4275
4654, 5451, 4027, 4183, 5524
4655, 4018, 5423, 4290, 5446
4656, 4185, 4419, 4311, 4401
4657, 269, 4096, 4185, 4401
4658, 281, 4110, 4186, 4304
4659, 5371, 4035, 3719, 3887
4660, 269, 4401, 4187, 5371
4661, 4409, 247, 5535, 5478
4662, 4682, 4552, 4582, 271
4663, 4828, 4775, 4189, 293
4664, 536, 4236, 4190, 5551
4665, 5466, 4065, 4190, 5539
4666, 4191, 4057, 560, 4455
4667, 4455, 560, 4071, 5414
4668, 4320, 4016, 4384, 4503
4669, 4193, 4451, 4314, 4078
4670, 4019, 5499, 4194, 5588
4671, 5475, 4810, 5523, 308
4672, 4216, 151, 4121, 5514
4673, 4294, 4447, 4157, 4245
4674, 4244, 427, 4119, 5664
4675, 4278, 4367, 4528, 4476
4676, 4404, 5588, 554, 4341
4677, 555, 5449, 4201, 5518
4678, 4060, 4203, 376, 4255
4679, 5421, 5420, 5463, 5464
4680, 4051, 4205, 4234, 5448
4681, 4330, 4206, 4028, 4405
4682, 425, 4088, 4208, 5578
4683, 4208, 5544, 4267, 5578
4684, 5903, 4210, 5927, 4459
4685, 141, 4125, 4334, 4211
4686, 5587, 5029, 4282, 5586
4687, 4470, 4385, 5453, 4141
4688, 4343, 4517, 3997, 200
4689, 4397, 5514, 4265, 4855
4690, 543, 4569, 4302, 4217
4691, 4391, 4218, 569, 3995
4692, 4345, 4219, 443, 4493
4693, 4190, 4236, 4220, 5539
4694, 171, 4358, 5563, 4222
4695, 4337, 4408, 492, 4507
4696, 4224, 4456, 5445, 4052
4697, 4225, 4003, 4036, 5569
4698, 4515, 4353, 417, 4634
4699, 5468, 5406, 420, 4482
4700, 5406, 421, 4226, 420
4701, 4227, 223, 4043, 5484
4702, 5597, 4382, 5530, 4229
4703, 310, 4154, 4230, 5521
4704, 4231, 550, 4511, 4410
4705, 4232, 544, 4342, 4021
4706, 4233, 552, 5546, 4365
4707, 4144, 5452, 4233, 4365
4708, 5889, 4297, 4450, 255
4709, 5926, 4100, 5902, 4298
4710, 535, 4220, 4236, 5422
4711, 4348, 4236, 536, 4542
4712, 112, 4050, 4238, 5332
4713, 540, 4387, 4239, 4519
4714, 4435, 4546, 4430, 4306
4715, 415, 5599, 4243, 4012
4716, 5532, 4243, 5599, 4573
4717, 5664, 4395, 4472, 4244
4718, 3993, 4112, 5474, 4196
4719, 4295, 4246, 291, 3219
4720, 4247, 4352, 4450, 4297
4721, 4248, 4357, 4429, 4651
4722, 4389, 4249, 4432, 4431
4723, 466, 4102, 4368, 4252
4724, 5926, 4109, 277, 4100
4725, 5404, 5403, 4254, 4089
4726, 4355, 5494, 5553, 4505
4727, 3967, 5386, 4255, 5347
4728, 4256, 418, 4779, 4621
4729, 4438, 4376, 4256, 4621
4730, 4257, 431, 4097, 4268
4731, 4276, 432, 4374, 455
4732, 4259, 5403, 5373, 3845
4733, 4030, 4157, 4447, 4288
4734, 4260, 5483, 4443, 4370
4735, 487, 5470, 4263, 4270
4736, 4441, 4369, 4263, 5470
4737, 5603, 4395, 5664, 5604
4738, 426, 4131, 4267, 5604
4739, 4400, 4268, 454, 4463
4740, 4260, 4269, 242, 5483
4741, 4025, 4252, 5469, 4377
4742, 4289, 4271, 282, 4448
4743, 4543, 4346, 553, 4601
4744, 4346, 4079, 4094, 576
4745, 429, 4420, 4356, 4272
4746, 5901, 4588, 452, 4372
4747, 4315, 4273, 4414, 5608
4748, 4417, 4172, 4276, 455
4749, 4491, 4160, 4396, 156
4750, 4510, 4328, 4281, 168
4751, 4282, 5029, 4855, 4265
4752, 4357, 280, 4375, 4429
4753, 280, 4084, 4283, 4375
4754, 4118, 4284, 577, 4341
4755, 4287, 416, 4418, 5569
4756, 4447, 4294, 4570, 5548
4757, 4254, 5403, 4492, 196
4758, 4437, 4619, 258, 4421
4759, 4169, 133, 4290, 4491
4760, 4152, 4292, 5725, 294
4761, 4496, 4293, 4299, 4565
4762, 415, 3988, 4293, 4496
4763, 4570, 4294, 4196, 4773
4764, 4423, 4339, 4296, 5912
4765, 4296, 5889, 255, 5912
4766, 4235, 278, 4297, 5889
4767, 4298, 5902, 4487, 253
4768, 4611, 4452, 4298, 253
4769, 4299, 414, 5675, 5696
4770, 293, 4189, 4301, 4480
4771, 4164, 4058, 4302, 4444
4772, 4303, 4278, 4476, 5869
4773, 4547, 4670, 5869, 4476
4774, 4457, 4304, 4421, 4649
4775, 4433, 4305, 4560, 4834
4776, 4449, 4550, 4411, 4174
4777, 4185, 4096, 4306, 4430
4778, 4534, 4307, 4673, 4915
4779, 435, 4533, 4454, 5795
4780, 4680, 4309, 419, 4882
4781, 4631, 4564, 247, 4527
4782, 4517, 5465, 4312, 3997
4783, 4412, 4316, 5400, 3989
4784, 4526, 4638, 5520, 4427
4785, 4065, 4191, 4455, 4317
4786, 5481, 4695, 4317, 4455
4787, 5466, 4318, 559, 3893
4788, 4211, 4334, 4499, 5450
4789, 4384, 4016, 4192, 4481
4790, 4178, 4320, 4503, 163
4791, 4657, 4557, 4509, 4323
4792, 5593, 4324, 159, 4625
4793, 4325, 4208, 4088, 3991
4794, 5493, 5409, 4751, 308
4795, 4326, 4034, 4195, 5077
4796, 4327, 332, 4333, 5010
4797, 4199, 4328, 169, 4422
4798, 4770, 4329, 436, 4565
4799, 4032, 532, 4676, 5472
4800, 4331, 531, 4618, 4545
4801, 4623, 5554, 4679, 307
4802, 4523, 5010, 4333, 5477
4803, 514, 4537, 4336, 4398
4804, 4459, 252, 4668, 5903
4805, 4408, 4337, 4013, 491
4806, 5464, 4519, 4338, 5421
4807, 4460, 4052, 4594, 135
4808, 158, 4513, 4340, 4460
4809, 4341, 554, 5595, 4403
4810, 4517, 4343, 4500, 5529
4811, 4556, 5481, 4461, 4911
4812, 4252, 4368, 465, 5469
4813, 4233, 4346, 4543, 552
4814, 4079, 4346, 4233, 5452
4815, 5535, 5536, 4347, 5478
4816, 5498, 5484, 4347, 4540
4817, 4422, 4484, 4350, 4415
4818, 4350, 170, 5597, 4229
4819, 4834, 4351, 134, 4433
4820, 4467, 4762, 4351, 4834
4821, 4450, 4352, 256, 4602
4822, 4256, 4371, 5547, 418
4823, 4354, 4014, 4406, 5419
4824, 551, 4498, 4354, 5419
4825, 219, 4253, 4355, 4505
4826, 4670, 4588, 4356, 5869
4827, 4486, 4358, 171, 4637
4828, 5629, 5622, 172, 4362
4829, 4464, 4359, 330, 5409
4830, 4359, 4464, 5408, 4761
4831, 5465, 4360, 4179, 4312
4832, 179, 4531, 4360, 5465
4833, 4361, 544, 4232, 4009
4834, 5629, 4362, 5565, 4213
4835, 4362, 172, 4501, 5029
4836, 164, 4554, 4363, 5450
4837, 4577, 4366, 4434, 4901
4838, 450, 4367, 4197, 4380
4839, 4528, 4367, 450, 4757
4840, 4442, 4369, 4441, 509
4841, 4488, 4372, 452, 5892
4842, 4372, 453, 4166, 5901
4843, 4392, 4373, 4097, 5958
4844, 4400, 4374, 4257, 4268
4845, 4429, 4375, 4667, 257
4846, 419, 4309, 4436, 4438
4847, 4143, 4376, 397, 5386
4848, 532, 4787, 4544, 4675
4849, 4378, 4607, 4474, 511
4850, 4379, 4253, 219, 4494
4851, 4472, 4445, 4380, 4244
4852, 4432, 4249, 4578, 4644
4853, 4382, 5597, 5657, 4473
4854, 4481, 4192, 162, 4595
4855, 4471, 448, 4483, 5627
4856, 448, 4471, 4386, 5543
4857, 4386, 449, 4395, 5603
4858, 539, 4413, 4485, 4583
4859, 4091, 563, 4387, 4413
4860, 4388, 5468, 4482, 4666
4861, 443, 4219, 4388, 4666
4862, 282, 4138, 4389, 4431
4863, 4469, 4390, 224, 5567
4864, 5725, 4440, 5665, 4425
4865, 4506, 546, 4465, 4774
4866, 4801, 5651, 5614, 4573
4867, 416, 4122, 4394, 4490
4868, 4472, 4395, 449, 4788
4869, 156, 4446, 4169, 4491
4870, 4798, 4880, 5653, 4782
4871, 4773, 4397, 174, 4570
4872, 4398, 4336, 4541, 4228
4873, 4819, 4551, 4399, 4117
4874, 4419, 4185, 4430, 270
4875, 4428, 4164, 4444, 542
4876, 4479, 5595, 4545, 4618
4877, 553, 4240, 4403, 5555
4878, 5518, 554, 5588, 4194
4879, 5419, 4251, 5482, 551
4880, 4532, 4407, 160, 4771
4881, 4408, 4223, 5550, 492
4882, 4409, 4188, 4527, 247
4883, 4411, 166, 5552, 4475
4884, 4566, 4590, 288, 4176
4885, 4177, 549, 4427, 5462
4886, 167, 4475, 4587, 4477
4887, 5640, 5608, 4414, 4713
4888, 4416, 424, 3782, 3667
4889, 4437, 4421, 4304, 4186
4890, 4484, 4422, 169, 4662
4891, 4715, 4423, 5887, 4854
4892, 254, 4339, 4423, 4715
4893, 4579, 4424, 273, 5835
4894, 4292, 4571, 4440, 5725
4895, 4548, 4480, 4425, 5665
4896, 5907, 4620, 4308, 4426
4897, 4427, 549, 5590, 4526
4898, 5462, 4316, 4412, 5401
4899, 4323, 4402, 4428, 4657
4900, 4429, 257, 4639, 4651
4901, 4352, 4248, 4651, 256
4902, 4431, 4432, 283, 4567
4903, 4901, 4434, 4702, 4921
4904, 4552, 4546, 4435, 4828
4905, 4307, 4066, 4439, 4673
4906, 4440, 272, 4765, 5665
4907, 4610, 4441, 5470, 4789
4908, 509, 4672, 5434, 4442
4909, 4675, 4544, 4442, 5434
4910, 4612, 4443, 5483, 4783
4911, 265, 4673, 4443, 4612
4912, 5705, 4659, 4788, 449
4913, 4730, 4589, 4445, 5793
4914, 5573, 4549, 4446, 156
4915, 4447, 5548, 4492, 4288
4916, 4562, 4492, 5548, 5549
4917, 4797, 4555, 4289, 4448
4918, 4451, 165, 4568, 5476
4919, 4806, 4314, 4451, 5476
4920, 308, 4863, 4671, 5493
4921, 5383, 4453, 330, 4067
4922, 4533, 435, 4308, 4620
4923, 5445, 4456, 136, 3934
4924, 4457, 4667, 4375, 4283
4925, 4592, 4210, 5903, 251
4926, 4455, 5414, 4461, 5481
4927, 4463, 454, 4599, 4749
4928, 5409, 330, 4453, 4751
4929, 4464, 5409, 5493, 4671
4930, 4551, 4580, 4508, 4399
4931, 415, 4496, 4573, 5599
4932, 4844, 4803, 4688, 157
4933, 4468, 4584, 4684, 4763
4934, 5528, 4521, 4469, 4746
4935, 5567, 224, 5498, 4586
4936, 4483, 448, 4385, 4470
4937, 5627, 4659, 5705, 4471
4938, 170, 4791, 5657, 5597
4939, 5552, 4677, 5607, 4703
4940, 5921, 4686, 4670, 4547
4941, 4698, 4477, 4587, 189
4942, 4897, 4835, 4713, 4698
4943, 4893, 4712, 5581, 4839
4944, 4478, 4712, 4893, 5522
4945, 4480, 4548, 4582, 293
4946, 5574, 5511, 4481, 4595
4947, 4507, 4598, 4704, 470
4948, 4662, 169, 4593, 5062
4949, 4596, 4484, 4662, 4918
4950, 4485, 540, 4575, 4665
4951, 172, 4732, 4616, 4501
4952, 5892, 452, 4686, 4674
4953, 4644, 4578, 305, 4489
4954, 4640, 5533, 4705, 464
4955, 465, 4345, 4493, 5533
4956, 242, 4379, 4494, 4654
4957, 4653, 4495, 4748, 486
4958, 487, 4377, 4495, 4653
4959, 4664, 4708, 4497, 274
4960, 4497, 5835, 273, 4165
4961, 4498, 551, 4632, 4722
4962, 5556, 4498, 4722, 528
4963, 164, 5450, 4499, 5507
4964, 4500, 201, 4603, 4729
4965, 4731, 173, 4501, 4616
4966, 4643, 4614, 538, 4502
4967, 4502, 538, 4364, 4764
4968, 4504, 453, 5890, 4609
4969, 5583, 4508, 546, 4150
4970, 169, 4328, 4510, 4593
4971, 4511, 550, 5556, 4529
4972, 4511, 4529, 5589, 4321
4973, 4522, 4514, 161, 4727
4974, 417, 4418, 439, 4634
4975, 4634, 4785, 5585, 4515
4976, 5465, 4517, 5529, 179
4977, 4518, 4554, 164, 5568
4978, 4701, 4913, 4719, 541
4979, 4215, 4521, 5528, 201
4980, 4650, 4727, 161, 4532
4981, 4617, 4595, 162, 4522
4982, 5010, 4523, 309, 5077
4983, 4523, 5477, 4660, 5522
4984, 4622, 4524, 163, 5512
4985, 4929, 4525, 4330, 4405
4986, 442, 4666, 4711, 4792
4987, 4526, 5590, 5643, 4638
4988, 4631, 4311, 4419, 5508
4989, 4757, 450, 4589, 4812
4990, 4757, 4814, 451, 4528
4991, 4529, 5556, 528, 4794
4992, 552, 4627, 4767, 5546
4993, 5573, 4563, 4531, 5610
4994, 179, 4605, 5610, 4531
4995, 160, 4629, 5645, 4771
4996, 4745, 4650, 4532, 4771
4997, 4533, 4717, 4896, 4454
4998, 4623, 4600, 306, 5554
4999, 4535, 4709, 5008, 4911
5000, 544, 4361, 4536, 4641
5001, 514, 4624, 4626, 4537
5002, 543, 4342, 4538, 4628
5003, 4613, 4625, 159, 5525
5004, 4625, 4629, 4539, 5593
5005, 4586, 5498, 4540, 4795
5006, 4228, 4541, 513, 5382
5007, 4692, 4682, 271, 4965
5008, 270, 4430, 4546, 4692
5009, 4547, 451, 4691, 5921
5010, 5921, 4691, 4892, 4686
5011, 5665, 4765, 4815, 4548
5012, 4582, 4548, 4815, 271
5013, 4560, 4574, 157, 4688
5014, 166, 4411, 4550, 4806
5015, 4580, 4551, 4706, 4777
5016, 546, 4508, 4580, 4465
5017, 4604, 4775, 4828, 4435
5018, 4657, 4689, 4683, 4557
5019, 542, 4444, 4553, 5594
5020, 4826, 4690, 4829, 5612
5021, 4695, 5481, 4556, 5527
5022, 541, 4509, 4557, 4701
5023, 4558, 4710, 4679, 5461
5024, 329, 4458, 4585, 3836
5025, 4700, 4568, 165, 4559
5026, 4559, 165, 4518, 5568
5027, 4574, 4560, 4305, 4446
5028, 4467, 4688, 4803, 4572
5029, 4822, 4561, 471, 5711
5030, 4659, 5627, 4561, 4822
5031, 196, 4492, 4562, 4630
5032, 4563, 5573, 156, 4396
5033, 5508, 4681, 4564, 4631
5034, 4565, 436, 4696, 4801
5035, 166, 4760, 4677, 5552
5036, 5548, 4570, 174, 5549
5037, 4424, 4579, 5761, 272
5038, 272, 4440, 4571, 4424
5039, 4572, 4803, 5480, 158
5040, 4460, 135, 4572, 158
5041, 5532, 4573, 5614, 4466
5042, 4575, 4719, 4913, 5613
5043, 4991, 4665, 4575, 5613
5044, 4576, 456, 4468, 4763
5045, 4576, 4842, 4702, 4434
5046, 5907, 4577, 4901, 457
5047, 4156, 4577, 5907, 4426
5048, 4579, 4768, 4912, 5761
5049, 4777, 4706, 4886, 4850
5050, 4696, 436, 4753, 4849
5051, 4809, 4764, 4583, 5115
5052, 4663, 4584, 455, 4512
5053, 4684, 4584, 4663, 477
5054, 4458, 329, 4761, 5408
5055, 4475, 5552, 4703, 4587
5056, 4711, 4666, 4482, 4525
5057, 4272, 4356, 4588, 5901
5058, 5624, 287, 4712, 4478
5059, 4478, 5566, 4590, 5624
5060, 4450, 4602, 5891, 255
5061, 135, 4594, 3835, 4762
5062, 4784, 5621, 5574, 4595
5063, 4791, 4596, 192, 4808
5064, 4768, 4597, 250, 5812
5065, 4597, 5835, 4497, 4708
5066, 4493, 4838, 4705, 5533
5067, 4697, 4598, 4507, 492
5068, 4601, 553, 5555, 4728
5069, 5660, 4627, 4743, 4908
5070, 4830, 4602, 4733, 5839
5071, 5023, 4716, 4830, 5839
5072, 4920, 4656, 4729, 5701
5073, 230, 4661, 4755, 4902
5074, 4607, 4061, 533, 4474
5075, 4790, 4638, 5643, 527
5076, 5590, 5589, 4608, 5643
5077, 4781, 4609, 475, 4878
5078, 4945, 4789, 4653, 486
5079, 509, 4441, 4610, 4750
5080, 4465, 524, 4813, 4774
5081, 4625, 4613, 5671, 4629
5082, 4614, 4836, 4709, 4535
5083, 4732, 172, 4486, 4747
5084, 4958, 4616, 4845, 5714
5085, 4595, 4617, 184, 4784
5086, 4672, 4724, 531, 5471
5087, 5596, 4905, 5609, 4728
5088, 457, 4769, 4620, 5907
5089, 4642, 4779, 418, 5585
5090, 4779, 4861, 4742, 4621
5091, 5512, 5511, 5574, 4658
5092, 284, 4600, 4623, 4780
5093, 514, 4542, 5606, 4624
5094, 4922, 5237, 4817, 5758
5095, 4726, 4767, 530, 4906
5096, 4824, 4862, 5661, 4925
5097, 4745, 4771, 5645, 182
5098, 4645, 4739, 4825, 4891
5099, 4682, 4692, 4546, 4552
5100, 4722, 4632, 529, 4909
5101, 4633, 186, 4829, 4690
5102, 4317, 4695, 4516, 5551
5103, 537, 4635, 5527, 4556
5104, 4710, 4738, 307, 4679
5105, 256, 4651, 4639, 5823
5106, 522, 4737, 4538, 4641
5107, 4944, 4642, 5638, 440
5108, 4836, 4643, 4837, 516
5109, 283, 4432, 4644, 4740
5110, 4752, 5579, 218, 4890
5111, 4759, 5670, 5614, 5651
5112, 4647, 4506, 4774, 523
5113, 4564, 4772, 5537, 5536
5114, 4648, 4867, 5018, 4795
5115, 4649, 4685, 4667, 4457
5116, 4727, 4650, 183, 4786
5117, 4844, 4735, 5480, 4803
5118, 4783, 4654, 241, 5580
5119, 4776, 4655, 4835, 4916
5120, 4656, 4920, 4997, 4605
5121, 4659, 4822, 5793, 4788
5122, 5521, 4660, 5477, 310
5123, 4523, 5522, 4893, 309
5124, 4661, 4864, 4756, 5906
5125, 4487, 4661, 5906, 253
5126, 4708, 4664, 4831, 5036
5127, 4665, 4991, 5063, 4699
5128, 5903, 4668, 4766, 251
5129, 4746, 4469, 5567, 4586
5130, 4603, 4669, 202, 4816
5131, 4738, 4710, 4863, 4924
5132, 4750, 4724, 4672, 509
5133, 5471, 4675, 5434, 4672
5134, 5881, 4914, 5818, 5880
5135, 531, 4331, 4676, 5471
5136, 5472, 4676, 4331, 5534
5137, 4754, 5713, 4868, 4978
5138, 5461, 4679, 5554, 4332
5139, 4929, 4680, 4711, 4525
5140, 4681, 4965, 4772, 4564
5141, 4847, 4683, 4955, 4973
5142, 4763, 4684, 4827, 478
5143, 4827, 4684, 477, 4980
5144, 4841, 234, 4741, 4685
5145, 257, 4667, 4685, 4741
5146, 4687, 258, 4694, 4881
5147, 4687, 4881, 235, 4841
5148, 4873, 4844, 157, 4802
5149, 4683, 4689, 5130, 4955
5150, 4928, 5655, 5612, 4829
5151, 5568, 4690, 4826, 4559
5152, 4692, 4965, 4681, 270
5153, 4915, 265, 4736, 5261
5154, 5261, 4888, 287, 4693
5155, 4799, 537, 5008, 5042
5156, 4628, 4862, 4569, 543
5157, 437, 4696, 4849, 5164
5158, 4801, 4696, 437, 5651
5159, 5711, 4697, 4953, 5016
5160, 189, 4848, 4897, 4698
5161, 4700, 4559, 4826, 187
5162, 519, 4913, 4701, 4847
5163, 4921, 4865, 457, 4901
5164, 4587, 4703, 5662, 189
5165, 4483, 4704, 4561, 5627
5166, 4852, 4843, 547, 4313
5167, 4970, 5001, 458, 5874
5168, 5001, 4840, 4707, 458
5169, 250, 4597, 4708, 5036
5170, 5042, 5008, 4709, 4952
5171, 4710, 4558, 4671, 4863
5172, 4792, 4711, 4680, 4882
5173, 5581, 4712, 287, 5625
5174, 4655, 5640, 4713, 4835
5175, 4714, 4502, 4764, 4809
5176, 4950, 4917, 4837, 4714
5177, 5843, 4591, 4716, 232
5178, 5874, 4896, 4717, 4769
5179, 4718, 4898, 4613, 5525
5180, 5020, 4720, 4851, 5600
5181, 4720, 5020, 4843, 4852
5182, 4723, 4750, 4610, 4846
5183, 5237, 5068, 4725, 4817
5184, 4537, 4626, 4725, 5550
5185, 4767, 4726, 4530, 5546
5186, 4729, 4603, 4816, 5701
5187, 4822, 4904, 4730, 5793
5188, 4858, 5860, 5823, 4639
5189, 5839, 4733, 5823, 5860
5190, 4734, 475, 4609, 5890
5191, 4873, 4802, 4997, 180
5192, 4873, 5006, 4735, 4844
5193, 4736, 265, 4612, 4856
5194, 5523, 4956, 4924, 4863
5195, 4899, 4738, 4924, 4935
5196, 4630, 195, 4825, 4739
5197, 4877, 284, 4876, 4976
5198, 4601, 4728, 4743, 4543
5199, 4908, 4743, 4728, 5609
5200, 5868, 4744, 5139, 229
5201, 4756, 4744, 252, 5923
5202, 4907, 4745, 182, 5009
5203, 225, 4746, 4586, 4795
5204, 4746, 225, 4926, 4900
5205, 4910, 4747, 193, 4983
5206, 4747, 4910, 5027, 4732
5207, 476, 4749, 4599, 4781
5208, 4807, 4723, 508, 4986
5209, 4326, 5077, 309, 5169
5210, 5579, 4752, 4494, 219
5211, 4840, 4753, 4581, 4707
5212, 4887, 4754, 4978, 4933
5213, 4755, 4606, 231, 5830
5214, 5610, 4758, 4549, 5573
5215, 4982, 5738, 4889, 5125
5216, 4759, 4982, 4868, 5713
5217, 4568, 4700, 4823, 5540
5218, 4677, 4760, 5540, 5302
5219, 4765, 5712, 4821, 4815
5220, 4767, 4627, 5660, 530
5221, 4768, 5812, 4879, 4912
5222, 5031, 4865, 4921, 479
5223, 4773, 4196, 5474, 4216
5224, 4776, 5047, 5062, 4593
5225, 5630, 4951, 4853, 185
5226, 186, 4633, 4778, 5032
5227, 4959, 4880, 4798, 5605
5228, 5658, 5580, 241, 5037
5229, 4784, 4954, 4857, 5621
5230, 5621, 4857, 4658, 5574
5231, 4887, 4872, 439, 4678
5232, 5380, 4787, 532, 4032
5233, 4061, 4607, 4787, 5380
5234, 4472, 4788, 5793, 4445
5235, 4885, 4790, 527, 5022
5236, 4210, 3978, 4077, 5927
5237, 4866, 4792, 4882, 4938
5238, 4820, 4974, 4871, 523
5239, 522, 4641, 4793, 5017
5240, 5822, 259, 4833, 5035
5241, 4796, 4870, 4948, 4811
5242, 4797, 5108, 260, 4833
5243, 259, 4555, 4797, 4833
5244, 174, 5605, 4798, 5549
5245, 173, 4959, 5605, 4855
5246, 5648, 4799, 5042, 515
5247, 4624, 5606, 4799, 5648
5248, 4931, 4966, 4874, 181
5249, 182, 5645, 4800, 5019
5250, 5006, 4873, 180, 5040
5251, 4740, 4644, 4489, 4600
5252, 193, 4637, 4473, 4805
5253, 4986, 4908, 5609, 4807
5254, 4808, 192, 4960, 5026
5255, 4983, 193, 4808, 5026
5256, 4810, 5136, 4956, 5523
5257, 5475, 308, 4751, 5410
5258, 4811, 4948, 5003, 5864
5259, 4811, 235, 4881, 4694
5260, 5879, 5101, 5815, 473
5261, 4813, 524, 5697, 4936
5262, 5168, 5058, 4974, 4820
5263, 451, 4814, 5089, 4691
5264, 4757, 4812, 5101, 4814
5265, 5040, 5701, 4930, 5672
5266, 4816, 202, 4930, 5701
5267, 4818, 5634, 4898, 4718
5268, 4947, 5712, 5761, 4912
5269, 4941, 248, 4964, 5123
5270, 4823, 4700, 187, 5636
5271, 5005, 4823, 5636, 5172
5272, 4925, 5687, 5631, 4824
5273, 4824, 5631, 5594, 4553
5274, 5714, 4932, 5043, 5654
5275, 4919, 4932, 5714, 4845
5276, 4928, 4829, 186, 5061
5277, 5893, 4859, 4831, 4766
5278, 259, 5822, 4870, 4796
5279, 190, 4916, 4835, 4897
5280, 4836, 4927, 4952, 4709
5281, 4939, 4838, 5644, 4866
5282, 5034, 4705, 4838, 4939
5283, 4893, 4839, 5169, 309
5284, 5581, 4963, 5136, 4839
5285, 5056, 4961, 5001, 5114
5286, 4841, 235, 5033, 234
5287, 4946, 4842, 478, 5806
5288, 4921, 4702, 5073, 479
5289, 4706, 547, 4843, 4886
5290, 4919, 194, 5015, 5097
5291, 4723, 4846, 5118, 508
5292, 4848, 189, 5662, 4967
5293, 437, 5164, 4889, 5738
5294, 5024, 5639, 525, 5098
5295, 5697, 4962, 5792, 4936
5296, 4937, 4851, 526, 5021
5297, 525, 5020, 5600, 5098
5298, 5041, 4853, 4951, 5272
5299, 4957, 5843, 232, 5086
5300, 231, 4715, 4854, 5819
5301, 4954, 5050, 5630, 4857
5302, 5630, 5050, 5264, 4951
5303, 5860, 4858, 4972, 233
5304, 5827, 5038, 5893, 4766
5305, 4975, 5036, 5066, 227
5306, 5868, 5080, 5827, 4860
5307, 4742, 4861, 441, 4938
5308, 4628, 521, 5661, 4862
5309, 4864, 230, 4934, 5139
5310, 4884, 4865, 5031, 5076
5311, 4939, 5100, 5078, 5034
5312, 442, 4792, 4866, 5644
5313, 4964, 248, 4832, 5666
5314, 5713, 4754, 438, 4646
5315, 4309, 4680, 4929, 4173
5316, 4869, 4968, 5046, 5178
5317, 236, 4948, 4870, 5865
5318, 4871, 4974, 5216, 5051
5319, 5051, 5756, 5731, 5017
5320, 4872, 5049, 5148, 5014
5321, 5716, 5019, 5044, 205
5322, 5093, 4875, 4979, 505
5323, 5053, 5013, 4875, 5093
5324, 4876, 4977, 5048, 5083
5325, 4976, 261, 5186, 4949
5326, 4877, 4976, 4949, 4804
5327, 4878, 475, 5818, 4992
5328, 5099, 4990, 4895, 476
5329, 4879, 5087, 5739, 249
5330, 173, 4731, 4880, 4959
5331, 4731, 4958, 5653, 4880
5332, 4883, 5190, 5128, 5782
5333, 5782, 5128, 212, 5085
5334, 5013, 5022, 527, 5673
5335, 5710, 5676, 5106, 5213
5336, 4850, 4886, 525, 5639
5337, 5134, 5252, 5765, 5120
5338, 5012, 4890, 5102, 240
5339, 241, 4752, 4890, 5012
5340, 4891, 218, 5579, 4645
5341, 4892, 474, 4674, 4686
5342, 192, 4596, 4918, 4923
5343, 5002, 4894, 4985, 5140
5344, 521, 4737, 4894, 5131
5345, 4980, 477, 4895, 5004
5346, 458, 4707, 4896, 5874
5347, 4613, 4898, 181, 5671
5348, 285, 4636, 4899, 4935
5349, 4669, 4900, 5674, 202
5350, 5830, 5088, 4902, 4755
5351, 5007, 4903, 5105, 485
5352, 486, 4748, 4903, 5007
5353, 5016, 5070, 5724, 4904
5354, 4724, 4807, 5609, 4905
5355, 529, 4726, 4906, 4993
5356, 4988, 4906, 530, 4994
5357, 4907, 5009, 5084, 4998
5358, 4909, 4984, 5121, 4979
5359, 4983, 5081, 5799, 4910
5360, 537, 4556, 4911, 5008
5361, 249, 4947, 4912, 4879
5362, 4987, 4913, 519, 5668
5363, 5613, 518, 5667, 4991
5364, 5096, 5873, 5011, 5784
5365, 5873, 5096, 4914, 474
5366, 4915, 4693, 4566, 4534
5367, 5039, 190, 5028, 5270
5368, 5047, 4776, 4916, 5663
5369, 516, 4837, 4917, 5065
5370, 4919, 4845, 5027, 194
5371, 5073, 4702, 4842, 4946
5372, 5237, 4922, 5146, 5075
5373, 5079, 4952, 4927, 5144
5374, 5737, 5112, 5813, 215
5375, 286, 4935, 4924, 4956
5376, 5631, 520, 5130, 5594
5377, 5018, 5054, 225, 4795
5378, 5231, 5157, 5692, 5054
5379, 5068, 5237, 5075, 4953
5380, 5122, 5082, 187, 5635
5381, 202, 5674, 5072, 4930
5382, 4818, 5149, 5124, 5634
5383, 5196, 5124, 5149, 5158
5384, 4966, 4931, 5059, 204
5385, 4891, 4825, 5043, 4932
5386, 4934, 5151, 229, 5139
5387, 4962, 5697, 4850, 5639
5388, 5100, 4938, 441, 5092
5389, 5078, 4996, 5646, 5034
5390, 5732, 4940, 5157, 203
5391, 5200, 5018, 4867, 4941
5392, 4971, 4942, 472, 5724
5393, 4944, 5025, 441, 4861
5394, 486, 5007, 5064, 4945
5395, 5118, 4846, 4945, 5064
5396, 5141, 5073, 4946, 5187
5397, 5712, 4947, 5666, 4821
5398, 5111, 5736, 5186, 5307
5399, 517, 4950, 4809, 5115
5400, 5272, 4951, 5264, 208
5401, 5068, 4953, 4697, 492
5402, 4969, 184, 4869, 5178
5403, 5050, 4954, 4969, 207
5404, 4989, 5091, 5152, 208
5405, 5654, 5653, 4958, 5714
5406, 192, 4923, 5737, 4960
5407, 5127, 5026, 4960, 5797
5408, 5164, 4849, 4961, 5056
5409, 5639, 5024, 5745, 4962
5410, 5745, 5310, 5792, 4962
5411, 4888, 5679, 5625, 287
5412, 5052, 4821, 5666, 4832
5413, 5123, 4964, 249, 5739
5414, 4832, 4965, 271, 5052
5415, 5080, 5828, 5159, 5796
5416, 5893, 5038, 228, 5226
5417, 5085, 5220, 5270, 5028
5418, 4998, 4968, 183, 4907
5419, 5046, 4968, 4998, 206
5420, 493, 5126, 4971, 5150
5421, 5110, 5837, 5033, 5184
5422, 5090, 4973, 5119, 5183
5423, 519, 4847, 4973, 5090
5424, 4975, 5812, 250, 5036
5425, 4977, 285, 5055, 5048
5426, 4978, 4868, 460, 5060
5427, 498, 5116, 4980, 5004
5428, 460, 4868, 4982, 5125
5429, 5214, 5015, 5081, 5227
5430, 4985, 522, 5017, 5731
5431, 5140, 5116, 498, 5002
5432, 5145, 5095, 4986, 508
5433, 518, 4987, 5133, 5667
5434, 4913, 4987, 518, 5613
5435, 4989, 5212, 5088, 5830
5436, 5004, 5104, 5771, 498
5437, 4991, 5667, 5669, 5063
5438, 5137, 4992, 5780, 496
5439, 4908, 4986, 5095, 4994
5440, 4995, 207, 5721, 5074
5441, 478, 4827, 5000, 5844
5442, 5002, 498, 5771, 5195
5443, 5131, 4894, 5002, 5195
5444, 5182, 5003, 5117, 5220
5445, 5082, 5722, 5636, 187
5446, 188, 5005, 5172, 5698
5447, 5006, 5201, 5030, 4735
5448, 5238, 507, 5171, 5189
5449, 5009, 182, 5019, 5716
5450, 205, 5287, 5166, 5716
5451, 5103, 5011, 5873, 4981
5452, 495, 5133, 5193, 5784
5453, 5037, 5154, 5218, 5107
5454, 5022, 5013, 5053, 5106
5455, 4608, 5673, 527, 5643
5456, 5148, 5789, 5717, 5014
5457, 440, 5638, 5014, 5717
5458, 217, 5097, 5015, 5214
5459, 5711, 5016, 4904, 4822
5460, 5021, 526, 4885, 5676
5461, 5109, 5199, 5838, 5023
5462, 232, 4716, 5023, 5838
5463, 5025, 5057, 5240, 5177
5464, 5254, 5039, 5270, 213
5465, 5149, 4818, 5030, 5201
5466, 5076, 5031, 480, 5174
5467, 5695, 5032, 5041, 209
5468, 5069, 5837, 5110, 5194
5469, 4887, 4933, 5049, 4872
5470, 464, 4705, 5034, 5646
5471, 260, 4949, 5186, 5736
5472, 5821, 4943, 5794, 237
5473, 5037, 5107, 264, 5658
5474, 5224, 5241, 5796, 5159
5475, 5038, 5796, 5241, 228
5476, 5254, 5278, 5702, 5206
5477, 190, 5039, 5663, 4916
5478, 5149, 5201, 5672, 5158
5479, 5152, 5767, 5272, 208
5480, 5032, 5695, 5061, 186
5481, 204, 5179, 5044, 4966
5482, 5076, 5045, 4970, 4884
5483, 206, 5151, 5207, 5046
5484, 5178, 5046, 5207, 5721
5485, 5062, 5047, 5637, 191
5486, 5143, 5083, 5048, 5774
5487, 262, 5774, 5048, 5055
5488, 5225, 5852, 461, 5060
5489, 5717, 462, 5057, 440
5490, 5088, 5212, 207, 4995
5491, 5212, 5264, 5050, 207
5492, 5756, 5129, 499, 5731
5493, 4985, 5731, 499, 5140
5494, 5106, 5053, 504, 5213
5495, 5246, 5157, 5231, 5763
5496, 285, 4935, 5707, 5055
5497, 5245, 5164, 5056, 5211
5498, 5211, 5255, 459, 5245
5499, 5092, 5177, 5279, 5203
5500, 5058, 500, 5216, 4974
5501, 5196, 5197, 5059, 5124
5502, 5060, 460, 5175, 5266
5503, 5122, 5655, 5229, 210
5504, 5239, 5669, 5163, 5729
5505, 5171, 5118, 5064, 5189
5506, 5226, 228, 5165, 5242
5507, 5067, 517, 5142, 5275
5508, 5162, 5244, 5192, 5772
5509, 5194, 5230, 5746, 5271
5510, 5188, 5271, 5109, 233
5511, 5150, 4971, 5724, 5070
5512, 5210, 5112, 5071, 5234
5513, 5196, 5158, 203, 5773
5514, 5150, 5146, 5144, 493
5515, 5075, 5146, 5150, 5070
5516, 5092, 5203, 5078, 5100
5517, 5146, 4922, 5079, 5144
5518, 515, 5079, 4922, 5758
5519, 5151, 5159, 5828, 229
5520, 5081, 4983, 216, 5227
5521, 211, 5230, 5194, 5110
5522, 5083, 261, 4976, 4876
5523, 206, 4998, 5084, 5704
5524, 212, 5182, 5220, 5085
5525, 4957, 5767, 5152, 5819
5526, 5123, 5739, 5167, 5744
5527, 5212, 4989, 208, 5264
5528, 5856, 5089, 5879, 473
5529, 5735, 5703, 496, 5780
5530, 5767, 4957, 5086, 209
5531, 5153, 5093, 505, 5248
5532, 212, 5184, 5094, 5182
5533, 5864, 5094, 235, 4811
5534, 507, 5095, 5145, 5171
5535, 5780, 4914, 5096, 5735
5536, 5097, 217, 5102, 4999
5537, 5138, 4937, 5021, 503
5538, 5024, 5098, 5299, 502
5539, 5099, 4878, 4992, 5137
5540, 5102, 217, 5215, 240
5541, 5856, 5160, 4981, 4892
5542, 497, 5104, 4990, 5221
5543, 463, 5217, 485, 5105
5544, 5021, 5676, 5710, 503
5545, 5181, 5107, 5252, 5679
5546, 5198, 5111, 5307, 5233
5547, 5737, 215, 5797, 4960
5548, 5071, 5112, 5737, 4923
5549, 5154, 5012, 240, 5699
5550, 5205, 5113, 5256, 5312
5551, 5031, 479, 5886, 5863
5552, 5114, 5045, 5841, 481
5553, 5135, 5185, 236, 5865
5554, 5730, 5161, 4925, 5661
5555, 5134, 5120, 286, 4963
5556, 5765, 5208, 5707, 5120
5557, 4979, 5121, 5281, 505
5558, 5167, 5739, 5087, 5781
5559, 5258, 5175, 460, 5125
5560, 5772, 5192, 5126, 493
5561, 494, 5228, 5160, 5219
5562, 5191, 5127, 5797, 5301
5563, 5129, 5756, 5155, 5806
5564, 500, 5187, 5155, 5216
5565, 4955, 5130, 520, 5689
5566, 5594, 5130, 4689, 542
5567, 5730, 5661, 521, 5131
5568, 5209, 5727, 5277, 5243
5569, 5132, 501, 5310, 5745
5570, 5228, 494, 5239, 5729
5571, 5202, 5135, 5821, 237
5572, 4326, 5169, 4810, 5475
5573, 5183, 496, 5703, 5090
5574, 5223, 5138, 503, 5262
5575, 5170, 5256, 5141, 5187
5576, 5113, 5886, 5141, 5256
5577, 5163, 5669, 5667, 5133
5578, 261, 5083, 5143, 5775
5579, 493, 5144, 5065, 5772
5580, 506, 5147, 5232, 5289
5581, 5789, 5804, 5280, 5718
5582, 5672, 4930, 5072, 5158
5583, 5151, 206, 5704, 5159
5584, 5041, 5272, 5767, 209
5585, 5274, 5699, 5303, 5304
5586, 5154, 5699, 5274, 5218
5587, 5051, 5216, 5155, 5756
5588, 5692, 5157, 4940, 4926
5589, 5158, 5072, 5732, 203
5590, 5084, 5166, 5224, 5704
5591, 473, 5219, 5160, 5856
5592, 5688, 5265, 5689, 520
5593, 5161, 5688, 5687, 4925
5594, 5065, 4917, 5162, 5772
5595, 5163, 5133, 495, 5729
5596, 459, 4889, 5164, 5245
5597, 5242, 5179, 204, 5247
5598, 5241, 5224, 5166, 5287
5599, 5231, 5200, 5744, 5763
5600, 5168, 4936, 5792, 5313
5601, 5313, 5811, 5850, 5058
5602, 5170, 500, 5058, 5850
5603, 211, 5747, 5288, 5698
5604, 5851, 5853, 5852, 5276
5605, 5276, 5282, 5817, 5851
5606, 5858, 5243, 5174, 480
5607, 5277, 5841, 5174, 5243
5608, 5273, 214, 5202, 237
5609, 5240, 5057, 462, 5718
5610, 4969, 5178, 5721, 207
5611, 205, 5044, 5179, 5807
5612, 4975, 5180, 5781, 5087
5613, 5659, 5181, 5679, 4888
5614, 5252, 5107, 5218, 263
5615, 5182, 5094, 5864, 5003
5616, 496, 5183, 5221, 5137
5617, 5199, 5229, 209, 5086
5618, 5185, 213, 5117, 236
5619, 5307, 5186, 261, 5775
5620, 5187, 4946, 5806, 5155
5621, 5069, 5194, 5271, 5188
5622, 5232, 507, 5238, 5300
5623, 5747, 5128, 5251, 5288
5624, 215, 5250, 5301, 5797
5625, 5820, 5295, 5824, 5263
5626, 5192, 494, 5219, 5126
5627, 4987, 5668, 5193, 5133
5628, 5131, 5195, 5161, 5730
5629, 5110, 5184, 5747, 211
5630, 5197, 5196, 5773, 5249
5631, 5059, 5197, 5247, 204
5632, 5249, 5773, 5246, 5306
5633, 5235, 5198, 5233, 238
5634, 5838, 5199, 5086, 232
5635, 5054, 5018, 5200, 5231
5636, 5273, 237, 5198, 5235
5637, 214, 5702, 5278, 5202
5638, 463, 4996, 5203, 5279
5639, 5293, 5296, 5842, 482
5640, 5132, 5209, 5285, 501
5641, 5113, 5205, 5863, 5886
5642, 5039, 5254, 5206, 5663
5643, 214, 5210, 5234, 5702
5644, 5831, 5207, 5151, 4934
5645, 5132, 502, 5727, 5209
5646, 5257, 5277, 5727, 5726
5647, 5176, 5210, 214, 5273
5648, 5291, 5211, 481, 5257
5649, 5293, 5262, 503, 5710
5650, 217, 5214, 5290, 5215
5651, 5215, 5263, 5267, 240
5652, 5284, 484, 5298, 5719
5653, 5222, 5104, 497, 5265
5654, 5276, 5852, 5225, 483
5655, 227, 5066, 5226, 5242
5656, 5893, 5226, 5066, 4859
5657, 5244, 5275, 494, 5192
5658, 495, 5103, 5228, 5729
5659, 5722, 5230, 5172, 5636
5660, 5289, 5232, 5300, 5309
5661, 5849, 5233, 5307, 5775
5662, 5206, 5702, 5234, 5637
5663, 5250, 5235, 238, 5301
5664, 5248, 5286, 5283, 483
5665, 5189, 485, 5268, 5238
5666, 5669, 5239, 5142, 5063
5667, 5240, 5269, 5279, 5177
5668, 5165, 228, 5241, 5287
5669, 5285, 5205, 5312, 501
5670, 5157, 5246, 5773, 203
5671, 227, 5242, 5247, 5810
5672, 5281, 5286, 5248, 505
5673, 5294, 483, 5225, 5308
5674, 5250, 215, 5813, 5176
5675, 188, 5251, 5190, 5260
5676, 5765, 5252, 263, 5292
5677, 5679, 5252, 5134, 5625
5678, 262, 5208, 5259, 5808
5679, 5305, 5849, 5816, 5253
5680, 482, 5204, 5255, 5814
5681, 5312, 5256, 5170, 5850
5682, 5175, 5258, 5840, 5266
5683, 5258, 5125, 5204, 5842
5684, 5274, 5292, 263, 5218
5685, 5259, 5292, 5274, 5304
5686, 5807, 5165, 5287, 205
5687, 5261, 4736, 5659, 4888
5688, 5267, 5263, 5824, 5303
5689, 5265, 497, 5119, 5689
5690, 5268, 485, 5217, 5298
5691, 5284, 5719, 5718, 5280
5692, 210, 5109, 5271, 5746
5693, 5297, 504, 5153, 5294
5694, 5267, 5303, 5699, 240
5695, 5275, 5142, 5239, 494
5696, 5276, 483, 5283, 5282
5697, 5851, 5817, 5173, 5853
5698, 5817, 5284, 5280, 5173
5699, 5286, 5156, 5236, 5283
5700, 5282, 484, 5284, 5817
5701, 484, 5282, 5283, 5236
5702, 5309, 484, 5236, 5289
5703, 5288, 5251, 188, 5698
5704, 5255, 5211, 5291, 5814
5705, 5223, 5291, 5257, 5726
5706, 5297, 5296, 5213, 504
5707, 5293, 482, 5814, 5262
5708, 5840, 5296, 5297, 5308
5709, 239, 5824, 5295, 5311
5710, 5258, 5842, 5296, 5840
5711, 5304, 5303, 5824, 239
5712, 238, 5233, 5849, 5305
5713, 5306, 5246, 5763, 226
5714, 5306, 226, 5781, 5180
5715, 5811, 5313, 5792, 5310
5716, 238, 5311, 5191, 5301
5717, 5318, 787, 778, 852
5718, 5319, 777, 775, 850
5719, 5320, 889, 5324, 954
5720, 997, 5344, 1042, 5325
5721, 1011, 5326, 1005, 5338
5722, 5327, 1027, 5339, 1088
5723, 5346, 5335, 5340, 292
5724, 1021, 5342, 968, 5355
5725, 921, 854, 859, 862
5726, 5393, 5355, 1020, 1079
5727, 5358, 1124, 1160, 1223
5728, 1053, 5360, 1050, 5392
5729, 5361, 1002, 5388, 1006
5730, 995, 5363, 938, 5436
5731, 5368, 3131, 349, 3511
5732, 5377, 3783, 3742, 138
5733, 5378, 3787, 3744, 246
5734, 4068, 5350, 5381, 5382
5735, 1258, 1292, 1224, 1194
5736, 3564, 154, 5395, 5396
5737, 5398, 3869, 223, 4227
5738, 5401, 572, 4177, 5462
5739, 197, 5373, 5403, 5404
5740, 5374, 5389, 4089, 3949
5741, 5407, 3740, 3764, 328
5742, 5410, 4034, 4326, 5475
5743, 5416, 447, 5453, 4212
5744, 564, 3875, 5420, 5421
5745, 4073, 4204, 5463, 5420
5746, 5428, 1323, 1351, 1410
5747, 1261, 1301, 5431, 5430
5748, 5432, 1358, 1335, 1270
5749, 5446, 4114, 3913, 4018
5750, 5524, 4407, 4279, 5451
5751, 3743, 5411, 5455, 5456
5752, 3617, 3743, 5456, 5501
5753, 4093, 3708, 3879, 5491
5754, 5458, 403, 5496, 3427
5755, 5492, 5460, 1207, 1242
5756, 5464, 5463, 4204, 541
5757, 5467, 396, 5412, 4353
5758, 5469, 465, 5533, 4640
5759, 5476, 4568, 5540, 4760
5760, 5482, 4365, 5546, 4530
5761, 5484, 5498, 224, 4227
5762, 555, 5518, 4194, 3880
5763, 5491, 4318, 5466, 5539
5764, 160, 4407, 5524, 5592
5765, 5494, 4254, 196, 5553
5766, 5506, 5502, 144, 4081
5767, 3811, 5503, 304, 5598
5768, 5508, 4419, 270, 4681
5769, 398, 3907, 5509, 5510
5770, 163, 4503, 5511, 5512
5771, 5515, 3990, 5564, 4213
5772, 149, 4124, 5515, 5516
5773, 5557, 5521, 4230, 4335
5774, 5522, 4660, 5566, 4478
5775, 537, 4799, 5606, 4635
5776, 5531, 4101, 5583, 4150
5777, 5595, 5534, 4331, 4545
5778, 5536, 5535, 247, 4564
5779, 4347, 5536, 5537, 4540
5780, 1528, 5459, 5541, 5542
5781, 1614, 5616, 5542, 5602
5782, 4208, 4325, 5543, 5544
5783, 5510, 5509, 4405, 4028
5784, 3990, 148, 5563, 5564
5785, 4020, 5516, 5565, 5587
5786, 1228, 1188, 1200, 5576
5787, 549, 4321, 5589, 5590
5788, 4183, 4324, 5593, 4539
5789, 5596, 4479, 4618, 4905
5790, 5600, 4851, 4937, 5138
5791, 1854, 5601, 1760, 5652
5792, 4267, 5544, 5603, 5604
5793, 5605, 174, 4397, 4855
5794, 5607, 4883, 5662, 4703
5795, 5608, 168, 4198, 4315
5796, 5614, 5670, 4646, 4466
5797, 5628, 5617, 404, 4022
5798, 5618, 1451, 5728, 1478
5799, 5619, 1033, 1034, 5678
5800, 4213, 5564, 5622, 5629
5801, 5678, 5623, 1083, 5619
5802, 5655, 5122, 5635, 5612
5803, 3161, 1283, 5642, 5768
5804, 5647, 1473, 1482, 5677
5805, 5648, 515, 5758, 4817
5806, 5650, 4110, 3951, 5598
5807, 4759, 5651, 437, 5738
5808, 195, 4782, 5653, 5654
5809, 5658, 264, 4856, 5580
5810, 5674, 4940, 5732, 5072
5811, 5677, 1482, 5681, 1453
5812, 5708, 5677, 1453, 5749
5813, 4418, 416, 4490, 4462
5814, 5682, 1623, 1646, 1706
5815, 5685, 1497, 5686, 1465
5816, 520, 5631, 5687, 5688
5817, 5693, 5759, 3932, 3809
5818, 209, 5229, 5061, 5695
5819, 5698, 5172, 5230, 211
5820, 5783, 5700, 1314, 3161
5821, 5193, 5668, 5703, 5735
5822, 5706, 1449, 1416, 1450
5823, 4765, 272, 5761, 5712
5824, 5715, 1598, 5787, 1640
5825, 5240, 5718, 5719, 5269
5826, 5789, 5718, 462, 5717
5827, 5722, 5082, 5746, 5230
5828, 502, 5299, 5726, 5727
5829, 5736, 5111, 5794, 5035
5830, 226, 5763, 5744, 5167
5831, 5751, 1133, 1099, 5683
5832, 5757, 1539, 5802, 1545
5833, 391, 5700, 5783, 5766
5834, 5768, 3398, 5783, 3161
5835, 5770, 1886, 1921, 1989
5836, 5774, 262, 5808, 5253
5837, 5775, 5143, 5816, 5849
5838, 5804, 5789, 5148, 5809
5839, 4431, 4567, 4448, 282
5840, 5805, 1426, 1435, 1489
5841, 5809, 5148, 5049, 461
5842, 5811, 5310, 501, 5850
5843, 475, 4734, 5880, 5818
5844, 5820, 5227, 216, 5295
5845, 5822, 4943, 5865, 4870
5846, 229, 5828, 5080, 5868
5847, 3799, 3941, 5833, 5834
5848, 5861, 5833, 278, 4235
5849, 233, 4972, 5069, 5188
5850, 5843, 4854, 5887, 4591
5851, 5298, 5309, 5300, 5268
5852, 5863, 5858, 480, 5031
5853, 5205, 5285, 5858, 5863
5854, 5885, 5872, 1755, 1819
5855, 5876, 345, 1654, 5897
5856, 1552, 1609, 5877, 5862
5857, 4814, 5101, 5879, 5089
5858, 5892, 4674, 5881, 5880
5859, 1815, 1775, 5884, 5900
5860, 5886, 479, 5073, 5141
5861, 5890, 453, 4372, 4488
5862, 5892, 5880, 4734, 4488
5863, 5944, 5894, 1689, 5917
5864, 5908, 5909, 1826, 1792
5865, 1858, 5909, 1828, 1835
5866, 1748, 5898, 5911, 5924
5867, 2030, 2000, 5919, 5920
5868, 4611, 4520, 5947, 4274
5869, 5947, 4459, 5927, 5932
5870, 5953, 5931, 2321, 2405
5871, 5954, 5932, 275, 5955
5872, 2536, 5934, 2457, 5957
5873, 3715, 3563, 5936, 5948
5874, 1827, 5952, 5965, 1865
5875, 430, 5958, 5970, 3969
5876, 5959, 4172, 456, 4366
5877, 5962, 430, 3969, 3953
5878, 3985, 4166, 5962, 3953
5879, 1894, 5949, 5963, 5964
5880, 2062, 2065, 5945, 2156
5881, 5986, 5966, 1865, 5965
5882, 5967, 1942, 344, 1980
5883, 5979, 5969, 2534, 5990
5884, 5971, 2028, 2026, 2117
5885, 2166, 5951, 5975, 5976
5886, 2194, 6017, 5976, 5975
5887, 5977, 2955, 2986, 6009
5888, 5981, 2581, 2621, 2697
5889, 3725, 3814, 5985, 3582
5890, 2618, 5979, 5990, 6001
5891, 2203, 2134, 2172, 2214
5892, 2260, 5992, 361, 2263
5893, 2228, 5996, 2181, 6020
5894, 6003, 2334, 6023, 2372
5895, 6004, 2527, 2488, 2452
5896, 6010, 2573, 6032, 2615
5897, 2569, 5999, 6010, 6024
5898, 6011, 2318, 2368, 2386
5899, 2203, 6012, 6013, 2194
5900, 6016, 6015, 6037, 2326
5901, 6019, 3034, 3046, 3111
5902, 2735, 2737, 6027, 6028
5903, 6033, 2615, 6057, 2657
5904, 2610, 6024, 6033, 6051
5905, 6036, 2772, 6028, 6049
5906, 6038, 6070, 6054, 2960
5907, 2479, 2452, 6041, 6042
5908, 3001, 6029, 6045, 6048
5909, 6046, 2806, 2840, 6056
5910, 6048, 3028, 6068, 3001
5911, 6053, 6052, 2401, 2442
5912, 2324, 2354, 2287, 2244
5913, 6055, 2873, 2835, 2875
5914, 2412, 2360, 6065, 6066
5915, 6042, 6041, 2555, 2504
5916, 6080, 6070, 2971, 2916
5917, 6075, 6076, 2657, 6057
5918, 2693, 2657, 6076, 6078
5919, 6091, 6090, 3045, 3062
5920, 3090, 6097, 6114, 3073
5921, 6116, 6100, 2422, 2480
5922, 6115, 6102, 2677, 2743
5923, 6103, 2428, 2426, 6095
5924, 6104, 3077, 6091, 3062
5925, 6108, 2677, 2626, 6094
5926, 2636, 6111, 6112, 2712
5927, 6117, 2956, 2929, 2858
5928, 6130, 6132, 2816, 2779
5929, 6135, 2866, 2907, 2898
*ELEMENT, TYPE=U3, ELSET=PHASE_TRIS
5930, 4288, 4259, 4030
5931, 3699, 3962, 3809
5932, 1382, 1332, 1354
5933, 4217, 4302, 4058
5934, 5421, 4338, 564
5935, 3397, 3149, 339
5936, 5539, 5495, 5491
5937, 5696, 4565, 4299
5938, 5738, 4982, 4759
5939, 5587, 5586, 4020
5940, 4089, 5389, 5404
5941, 2451, 2413, 2372
5942, 5766, 5783, 3398
5943, 5970, 431, 4139
5944, 5842, 5204, 482
5945, 4836, 4614, 4643
5946, 794, 868, 790
5947, 854, 921, 856
5948, 5429, 1040, 973
5949, 980, 1123, 1030
5950, 1115, 1078, 1082
5951, 1041, 1119, 1038
5952, 1162, 1098, 1132
5953, 1244, 1208, 1241
5954, 1281, 5526, 1246
5955, 1235, 1203, 1171
5956, 1261, 1192, 1257
5957, 1243, 1208, 1174
5958, 1301, 1261, 1294
5959, 1268, 1329, 1362
5960, 1388, 1322, 1356
5961, 5847, 1523, 1584
5962, 5829, 1563, 5846
5963, 1583, 1580, 1547
5964, 1578, 359, 1561
5965, 1605, 1573, 1564
5966, 5626, 1600, 1568
5967, 1691, 1629, 1648
5968, 5866, 383, 3140
5969, 1865, 5966, 1799
5970, 1816, 1880, 1851
5971, 1870, 1832, 1804
5972, 1828, 5909, 5908
5973, 1946, 1966, 1877
5974, 1903, 1959, 1928
5975, 2012, 1948, 1975
5976, 2026, 1979, 2003
5977, 2065, 2062, 2027
5978, 2156, 5945, 2099
5979, 2135, 2098, 2059
5980, 5998, 2162, 2084
5981, 2259, 2215, 2131
5982, 2172, 2134, 2098
5983, 5992, 2222, 361
5984, 2236, 2200, 2163
5985, 2286, 2207, 2255
5986, 6016, 6035, 2284
5987, 2495, 2418, 2456
5988, 6082, 2510, 2425
5989, 2398, 2426, 2428
5990, 5999, 2569, 2530
5991, 6024, 2610, 2569
5992, 2714, 2637, 2597
5993, 2687, 2669, 2639
5994, 2650, 2767, 2681
5995, 2711, 2706, 6124
5996, 2834, 2769, 2800
5997, 2847, 2661, 2703
5998, 2822, 2783, 2817
5999, 6123, 2894, 2893
6000, 2969, 2966, 2909
6001, 2860, 2929, 2930
6002, 2829, 2907, 2866
6003, 6040, 2989, 2958
6004, 2991, 2941, 2961
6005, 3022, 2992, 2968
6006, 3086, 3064, 3037
6007, 3031, 3004, 2975
6008, 3074, 3035, 3057
6009, 3096, 3069, 3094
6010, 3724, 3571, 406
6011, 3582, 3409, 408
6012, 3584, 3545, 410
6013, 3800, 129, 3734
6014, 3895, 289, 3718
6015, 3977, 3696, 3586
6016, 3980, 3843, 3957
6017, 5396, 4026, 3736
6018, 4301, 4189, 3877
6019, 5578, 4055, 425
6020, 5451, 4279, 137
6021, 5405, 5474, 4112
6022, 4130, 311, 4072
6023, 4371, 5467, 5547
6024, 4158, 4149, 434
6025, 5397, 4188, 246
6026, 5444, 4239, 4111
6027, 4554, 4277, 4363
6028, 4298, 4452, 5926
6029, 4578, 4249, 4381
6030, 5586, 4282, 150
6031, 5947, 5954, 4274
6032, 5491, 3879, 4318
6033, 4585, 4458, 5519
6034, 4335, 4230, 4090
6035, 5954, 5947, 5932
6036, 5450, 4363, 4211
6037, 4406, 4014, 4142
6038, 4439, 266, 4370
6039, 5923, 4611, 253
6040, 4718, 4513, 4652
6041, 5624, 4693, 287
6042, 5896, 4592, 274
6043, 4915, 4673, 265
6044, 4811, 4694, 4796
6045, 5887, 5891, 4591
6046, 4864, 4661, 230
6047, 5673, 4608, 4794
6048, 4802, 157, 4574
6049, 5067, 4950, 517
6050, 5648, 4626, 4624
6051, 4591, 4830, 4716
6052, 4927, 4836, 516
6053, 4958, 4731, 4616
6054, 4997, 4920, 180
6055, 5049, 4933, 461
6056, 5313, 5058, 5168
6057, 4950, 4714, 4809
6058, 4966, 5044, 4874
6059, 5203, 4996, 5078
6060, 5782, 5085, 4967
6061, 5105, 4996, 463
6062, 230, 5831, 4934
6063, 5308, 5297, 5294
6064, 5170, 5187, 500
6065, 5266, 5225, 5060
6066, 5771, 5104, 5222
6067, 5251, 5128, 5190
6068, 5255, 5204, 459
6069, 5704, 5224, 5159
6070, 5261, 4693, 4915
6071, 5309, 5298, 484
6072, 5191, 5311, 5295
6073, 5300, 5238, 5268
6074, 1324, 1301, 1294
6075, 5502, 4053, 144
6076, 5513, 1228, 5576
6077, 5523, 4863, 308
6078, 4059, 4220, 535
6079, 1307, 1242, 5558
6080, 5640, 168, 5608
6081, 4791, 170, 4596
6082, 5762, 1434, 5686
6083, 5781, 226, 5167
6084, 5809, 5853, 5804
6085, 5312, 5850, 501
6086, 5815, 5101, 4942
6087, 3419, 5836, 3544
6088, 5860, 233, 5839
6089, 5855, 5862, 1583
6090, 5867, 1662, 1634
6091, 5868, 4860, 4744
6092, 5069, 4972, 5837
6093, 5001, 4961, 4840
6094, 5912, 5887, 4423
6095, 5890, 4488, 4734
6096, 5876, 5897, 1681
6097, 1924, 5914, 1891
6098, 3618, 5918, 3707
6099, 5920, 2067, 2030
6100, 5955, 275, 4120
6101, 5955, 4274, 5954
6102, 5955, 4120, 4274
6103, 5987, 2166, 5976
6104, 2311, 2265, 2306
6105, 6020, 2226, 2313
6106, 6028, 2772, 2735
6107, 2308, 6047, 2273
6108, 6051, 2652, 2610
6109, 6061, 2681, 2767
6110, 6101, 2934, 2992
6111, 6112, 2743, 2712
6112, 6114, 6097, 6104
*ELEMENT, TYPE=U2, ELSET=MECH_QUADS
6113, 626, 3249, 753, 25
6114, 753, 3249, 3384, 98
6115, 99, 754, 3383, 3380
6116, 3359, 3355, 100, 755
6117, 101, 756, 3315, 3319
6118, 3319, 3357, 757, 101
6119, 3378, 3381, 758, 102
6120, 3382, 3385, 759, 103
6121, 3305, 3222, 105, 761
6122, 762, 105, 3222, 3198
6123, 3208, 3237, 763, 106
6124, 3322, 3360, 764, 107
6125, 6181, 765, 5316, 6180
6126, 765, 108, 3386, 5316
6127, 625, 3199, 3225, 23
6128, 3199, 625, 22, 3182
6129, 3503, 3663, 153, 5322
6130, 153, 3815, 3527, 5322
6131, 3519, 3628, 3823, 198
6132, 3607, 3949, 3760, 5348
6133, 3837, 3599, 3938, 243
6134, 3965, 3837, 243, 4145
6135, 290, 3718, 3700, 3676
6136, 3881, 3714, 3580, 3700
6137, 334, 3464, 3642, 3752
6138, 3532, 357, 3500, 3657
6139, 6179, 3332, 3334, 6178
6140, 3329, 3334, 3532, 356
6141, 624, 3176, 3182, 22
6142, 3443, 3615, 3175, 3178
6143, 4294, 4245, 3993, 4196
6144, 4089, 4355, 4253, 220
6145, 243, 4269, 4260, 4145
6146, 4145, 4260, 4370, 266
6147, 4307, 4176, 5479, 4066
6148, 4335, 4090, 289, 4266
6149, 355, 3522, 3638, 3763
6150, 6176, 3325, 3313, 6175
6151, 3325, 6176, 6177, 3329
6152, 3175, 21, 623, 3178
6153, 3824, 150, 4007, 5440
6154, 5514, 4397, 4773, 4216
6155, 4630, 4562, 4782, 195
6156, 4505, 5553, 4739, 4645
6157, 4654, 4494, 4752, 241
6158, 4856, 4612, 4783, 5580
6159, 4566, 4693, 5624, 4590
6160, 4660, 5521, 5557, 5566
6161, 332, 4107, 4207, 4333
6162, 355, 3763, 3612, 3517
6163, 6174, 3303, 3274, 6173
6164, 3274, 354, 3480, 3266
6165, 20, 3231, 3194, 622
6166, 3194, 3231, 3684, 3450
6167, 3631, 3524, 126, 3770
6168, 4362, 5029, 5587, 5565
6169, 4845, 4616, 4732, 5027
6170, 4932, 4919, 5097, 4999
6171, 4999, 5102, 4890, 218
6172, 5012, 5154, 5037, 241
6173, 5625, 5134, 4963, 5581
6174, 5136, 4810, 5169, 4839
6175, 331, 4195, 4034, 3908
6176, 354, 3730, 3559, 3480
6177, 3266, 6172, 6173, 3274
6178, 19, 3288, 3262, 621
6179, 3288, 3292, 3534, 126
6180, 3655, 3534, 125, 3789
6181, 5564, 5563, 4358, 5622
6182, 4637, 193, 4747, 4486
6183, 5799, 5081, 5015, 194
6184, 5263, 5215, 5290, 5820
6185, 5208, 5765, 5292, 5259
6186, 286, 5120, 5707, 4935
6187, 4636, 307, 4738, 4899
6188, 4458, 5408, 4558, 5461
6189, 3960, 3836, 352, 4085
6190, 3317, 3307, 747, 746
6191, 3308, 353, 4085, 3318
6192, 619, 3291, 3299, 18
6193, 18, 3299, 3292, 620
6194, 3670, 3487, 124, 3794
6195, 4222, 5530, 4382, 171
6196, 4473, 5657, 4791, 4805
6197, 216, 4983, 5026, 5127
6198, 5305, 239, 5311, 238
6199, 5774, 5253, 5816, 5143
6200, 4876, 284, 4780, 4977
6201, 4623, 307, 4636, 4780
6202, 4332, 5519, 4458, 5461
6203, 352, 3836, 3600, 3512
6204, 6168, 3323, 3327, 6167
6205, 3320, 3327, 3512, 351
6206, 618, 3246, 3277, 17
6207, 3277, 3246, 3475, 124
6208, 3671, 3475, 123, 3768
6209, 4017, 4415, 4350, 4229
6210, 4662, 5062, 191, 4918
6211, 5112, 5210, 5176, 5813
6212, 5235, 5250, 5176, 5273
6213, 260, 5736, 5035, 4833
6214, 4877, 4804, 283, 4740
6215, 4600, 4489, 4349, 306
6216, 4205, 306, 4349, 4234
6217, 3591, 350, 3482, 3740
6218, 6165, 3309, 3243, 6164
6219, 3243, 3309, 3482, 350
6220, 617, 3211, 3224, 16
6221, 3211, 617, 15, 3202
6222, 3769, 3461, 3627, 122
6223, 4655, 4776, 4593, 4510
6224, 191, 5637, 5234, 5071
6225, 5278, 5254, 213, 5185
6226, 4943, 5822, 5035, 5794
6227, 283, 4804, 5108, 4567
6228, 4138, 304, 4249, 4389
6229, 4135, 3976, 326, 3974
6230, 3974, 3753, 3741, 4070
6231, 6163, 3217, 3165, 6162
6232, 3165, 3217, 3543, 349
6233, 3202, 15, 616, 3213
6234, 3202, 3213, 3457, 3627
6235, 4053, 3587, 3722, 144
6236, 4414, 4273, 167, 4477
6237, 5028, 4848, 4967, 5085
6238, 236, 5117, 5003, 4948
6239, 4694, 258, 4619, 4796
6240, 4186, 4271, 4289, 4437
6241, 4138, 5650, 5598, 304
6242, 5455, 5411, 326, 3976
6243, 5366, 3395, 5447, 348
6244, 841, 1288, 741, 87
6245, 6160, 1255, 840, 6159
6246, 14, 3230, 3213, 616
6247, 3230, 3252, 3472, 3678
6248, 4037, 120, 4258, 4033
6249, 5260, 5607, 4677, 5302
6250, 5260, 5190, 4883, 5607
6251, 5033, 235, 5094, 5184
6252, 258, 4687, 4649, 4421
6253, 4283, 281, 4304, 4457
6254, 3826, 303, 3952, 4084
6255, 1110, 1109, 1016, 5439
6256, 737, 86, 824, 827
6257, 6154, 823, 821, 6153
6258, 13, 3279, 3273, 614
6259, 3273, 3279, 4258, 120
6260, 3565, 3712, 3885, 4033
6261, 165, 4451, 4193, 4518
6262, 4823, 5005, 5302, 5540
6263, 210, 5746, 5082, 5122
6264, 4639, 257, 4741, 4858
6265, 279, 3932, 5759, 4248
6266, 324, 3400, 3160, 1251
6267, 1141, 347, 1146, 1174
6268, 788, 785, 724, 723
6269, 791, 6139, 6140, 789
6270, 612, 3295, 3300, 12
6271, 12, 3300, 3296, 613
6272, 3906, 3613, 3746, 141
6273, 4056, 4363, 4277, 142
6274, 4690, 5568, 164, 5507
6275, 5229, 5655, 4928, 5061
6276, 5023, 5839, 233, 5109
6277, 4830, 4591, 5891, 4602
6278, 278, 4123, 4247, 4297
6279, 301, 3910, 3797, 3604
6280, 3394, 3510, 1588, 1437
6281, 1365, 1340, 1308, 1342
6282, 1030, 935, 873, 980
6283, 1104, 1138, 370, 1061
6284, 3675, 3717, 3418, 3420
6285, 4496, 4565, 4801, 4573
6286, 5713, 4646, 5670, 4759
6287, 5060, 461, 4933, 4978
6288, 5236, 5156, 506, 5289
6289, 5147, 4993, 4906, 4988
6290, 4543, 4743, 4627, 552
6291, 4341, 4403, 4240, 4118
6292, 3525, 598, 3637, 3820
6293, 3347, 3348, 3531, 598
6294, 680, 3227, 3340, 50
6295, 719, 3227, 680, 73
6296, 718, 3200, 3207, 84
6297, 3880, 3710, 3583, 3721
6298, 5472, 4201, 5449, 4032
6299, 4905, 4618, 531, 4724
6300, 5171, 5145, 508, 5118
6301, 5217, 5269, 5719, 5298
6302, 439, 4872, 4785, 4634
6303, 438, 4678, 4462, 4646
6304, 3867, 4394, 4122, 5387
6305, 371, 3143, 1062, 1017
6306, 827, 894, 899, 830
6307, 815, 817, 735, 734
6308, 779, 854, 856, 783
6309, 611, 3283, 3293, 11
6310, 118, 3485, 3283, 3276
6311, 3644, 3485, 118, 3780
6312, 4319, 4178, 163, 4524
6313, 4622, 4778, 4633, 4524
6314, 185, 4853, 4778, 4622
6315, 5091, 231, 5819, 5152
6316, 5891, 5887, 5912, 255
6317, 4100, 277, 3979, 5861
6318, 3690, 300, 3799, 3798
6319, 1790, 3393, 321, 1923
6320, 1598, 5715, 1581, 368
6321, 5899, 3336, 3404, 3148
6322, 3883, 3635, 3584, 410
6323, 4417, 455, 4584, 4468
6324, 4980, 5116, 5000, 4827
6325, 522, 4985, 4894, 4737
6326, 544, 4641, 4538, 4342
6327, 567, 4232, 4021, 3931
6328, 586, 3514, 3609, 3767
6329, 63, 3341, 3311, 696
6330, 695, 3352, 3341, 63
6331, 694, 3286, 3338, 62
6332, 3448, 3634, 3203, 3170
6333, 3926, 3840, 568, 4009
6334, 4361, 4237, 545, 4536
6335, 4647, 4793, 4641, 4536
6336, 523, 4871, 4793, 4647
6337, 5129, 5844, 5000, 499
6338, 456, 4576, 4434, 4366
6339, 4366, 4577, 4156, 5959
6340, 3791, 411, 3701, 3937
6341, 1558, 3392, 1559, 1497
6342, 1372, 1347, 1346, 1376
6343, 870, 937, 990, 932
6344, 610, 3263, 3276, 10
6345, 3479, 3263, 3241, 117
6346, 3479, 117, 3790, 3665
6347, 4384, 4481, 5511, 4503
6348, 4622, 5512, 4658, 185
6349, 4954, 4784, 184, 4969
6350, 5830, 231, 5091, 4989
6351, 254, 4606, 4487, 5902
6352, 5902, 4100, 4339, 254
6353, 3804, 299, 3944, 3961
6354, 3405, 320, 3119, 3158
6355, 1890, 1790, 1923, 1952
6356, 1999, 1965, 2031, 5993
6357, 2091, 1912, 1984, 2052
6358, 3431, 3505, 3150, 3152
6359, 409, 3711, 3590, 3431
6360, 4400, 4512, 455, 4374
6361, 4663, 4463, 4749, 477
6362, 5004, 4895, 4990, 5104
6363, 5161, 5195, 5771, 5222
6364, 4862, 4824, 4553, 4569
6365, 585, 3529, 3624, 3745
6366, 64, 3236, 3195, 697
6367, 3236, 3311, 3529, 585
6368, 609, 3229, 3241, 9
6369, 3241, 3229, 3469, 117
6370, 3783, 3469, 116, 3742
6371, 4322, 162, 4192, 139
6372, 4727, 4786, 4617, 4522
6373, 4786, 183, 4968, 4869
6374, 5074, 5831, 230, 4995
6375, 4756, 5923, 253, 5906
6376, 276, 4452, 4611, 4274
6377, 3959, 298, 4099, 4120
6378, 320, 3509, 3133, 2218
6379, 5928, 2218, 2256, 2172
6380, 2244, 343, 2292, 2324
6381, 2413, 2294, 6003, 2372
6382, 3132, 387, 2851, 3417
6383, 3725, 3953, 3969, 3814
6384, 4373, 454, 4268, 4097
6385, 4504, 4609, 4781, 4599
6386, 5099, 5137, 5221, 4990
6387, 5689, 5119, 4973, 4955
6388, 542, 4689, 4657, 4428
6389, 4402, 565, 4164, 4428
6390, 3662, 584, 3540, 3747
6391, 65, 3180, 3179, 698
6392, 3180, 3195, 3540, 584
6393, 8, 3232, 3229, 609
6394, 3232, 3250, 3537, 116
6395, 3646, 3537, 115, 3756
6396, 4279, 4407, 4168, 4064
6397, 183, 4650, 4745, 4907
6398, 5009, 5716, 5166, 5084
6399, 252, 4744, 4860, 4668
6400, 275, 5932, 5927, 4077
6401, 297, 3933, 3795, 3687
6402, 3432, 3135, 5935, 319
6403, 342, 2619, 2614, 2573
6404, 6024, 6010, 2615, 6033
6405, 2738, 2773, 2812, 2775
6406, 2889, 3127, 2813, 2850
6407, 3563, 3692, 3873, 5936
6408, 4166, 3985, 4272, 5901
6409, 5881, 4674, 474, 4914
6410, 5784, 5011, 5103, 495
6411, 5090, 5703, 5668, 519
6412, 4575, 540, 4519, 4719
6413, 3666, 3813, 3447, 584
6414, 698, 3179, 3181, 66
6415, 3447, 3179, 3180, 584
6416, 7, 3287, 3250, 608
6417, 3287, 3294, 3521, 115
6418, 3622, 3521, 114, 3765
6419, 4183, 4539, 5592, 5524
6420, 5671, 4800, 5645, 4629
6421, 181, 4874, 4800, 5671
6422, 251, 4766, 4831, 4664
6423, 4664, 274, 4592, 251
6424, 4115, 3871, 4098, 4165
6425, 2980, 2922, 2984, 3015
6426, 2458, 2496, 2538, 2459
6427, 2825, 2787, 2733, 2802
6428, 4148, 428, 4303, 4420
6429, 5089, 5856, 4892, 4691
6430, 5160, 5228, 5103, 4981
6431, 5142, 517, 5115, 5063
6432, 4665, 4699, 4583, 4485
6433, 4239, 4387, 563, 4111
6434, 3598, 583, 3807, 3945
6435, 699, 3196, 3235, 67
6436, 3621, 3463, 3196, 3181
6437, 606, 3281, 3298, 6
6438, 3281, 3253, 113, 3484
6439, 3835, 4594, 3934, 3606
6440, 159, 4224, 4340, 5525
6441, 4652, 5030, 4818, 4718
6442, 5124, 5059, 4931, 5634
6443, 5810, 5249, 5306, 5180
6444, 5812, 4975, 5087, 4879
6445, 5835, 4597, 4768, 4579
6446, 4292, 4152, 4002, 4161
6447, 317, 3713, 3649, 3414
6448, 3145, 5832, 2499, 340
6449, 2096, 2173, 2136, 2057
6450, 2414, 2375, 2374, 2453
6451, 3138, 2420, 2460, 3146
6452, 406, 3571, 3403, 3138
6453, 4367, 4278, 3987, 4197
6454, 4942, 5101, 4812, 472
6455, 4971, 5126, 5815, 4942
6456, 4917, 4950, 5067, 5162
6457, 539, 4583, 4764, 4364
6458, 562, 4250, 4045, 3935
6459, 582, 3757, 3605, 3493
6460, 700, 3312, 3349, 68
6461, 582, 3493, 3312, 3235
6462, 605, 3238, 3253, 5
6463, 112, 5332, 3228, 3233
6464, 4762, 3835, 3958, 4351
6465, 4688, 4467, 4834, 4560
6466, 4735, 5030, 4652, 5480
6467, 5201, 5006, 5040, 5672
6468, 4926, 225, 5054, 5692
6469, 248, 4941, 4867, 4648
6470, 4815, 4821, 5052, 271
6471, 4480, 4301, 4393, 4425
6472, 3852, 316, 3983, 3968
6473, 1887, 1822, 5785, 5786
6474, 1957, 5882, 5883, 1992
6475, 3146, 2460, 2215, 2259
6476, 426, 3793, 3723, 4131
6477, 4244, 4380, 4197, 427
6478, 4589, 4730, 472, 4812
6479, 5016, 4953, 5075, 5070
6480, 4952, 5079, 515, 5042
6481, 4614, 4535, 4344, 538
6482, 561, 4221, 4011, 3909
6483, 580, 3555, 3909, 4071
6484, 69, 701, 3353, 3351
6485, 3353, 701, 68, 3349
6486, 4, 3233, 3228, 604
6487, 3733, 3901, 3575, 111
6488, 4446, 4305, 5571, 4169
6489, 4758, 4997, 4802, 4574
6490, 4500, 4729, 4656, 5529
6491, 4669, 5528, 4746, 4900
6492, 4772, 4965, 4832, 248
6493, 293, 4582, 4552, 4828
6494, 5545, 3705, 315, 5611
6495, 3705, 3977, 3586, 315
6496, 1644, 1587, 1615, 1669
6497, 1788, 1733, 1761, 1823
6498, 1791, 1761, 1733, 382
6499, 3888, 4055, 4131, 3723
6500, 5543, 4386, 5603, 5544
6501, 470, 4704, 4483, 4470
6502, 4598, 4697, 5711, 471
6503, 4817, 4725, 4626, 5648
6504, 5527, 4635, 4516, 4695
6505, 4911, 4461, 4344, 4535
6506, 3551, 4057, 4191, 3893
6507, 70, 3316, 3251, 704
6508, 3316, 3346, 3496, 579
6509, 3, 3278, 3248, 603
6510, 3248, 3278, 3679, 3471
6511, 3520, 110, 3625, 3834
6512, 5446, 4184, 3733, 4114
6513, 4280, 4041, 4179, 4360
6514, 4343, 4215, 201, 4500
6515, 5398, 4390, 4010, 5385
6516, 5478, 4043, 5402, 4409
6517, 4076, 4527, 4188, 5397
6518, 4604, 4435, 4306, 4242
6519, 3956, 3829, 314, 4038
6520, 1496, 1557, 3144, 336
6521, 1436, 1253, 1320, 1404
6522, 1491, 1524, 5616, 1551
6523, 3134, 1791, 382, 1703
6524, 3973, 3709, 3818, 424
6525, 4212, 4325, 3991, 5416
6526, 4470, 4141, 4214, 470
6527, 470, 4214, 4337, 4507
6528, 4223, 4336, 4537, 5550
6529, 71, 3212, 3188, 705
6530, 3212, 3251, 3467, 3683
6531, 601, 3289, 3297, 2
6532, 2, 3297, 3290, 602
6533, 3653, 3486, 109, 3441
6534, 155, 3996, 3821, 3855
6535, 3528, 177, 3632, 3831
6536, 3654, 3536, 199, 3774
6537, 3672, 3477, 222, 3792
6538, 3787, 3465, 245, 3744
6539, 4035, 3636, 3697, 3719
6540, 4044, 3570, 4181, 291
6541, 3900, 3702, 313, 5370
6542, 3428, 335, 3151, 3530
6543, 1105, 1059, 1103, 1144
6544, 1184, 1248, 1213, 1139
6545, 3566, 3508, 3504, 3399
6546, 3566, 3399, 3810, 3698
6547, 3541, 446, 3667, 3782
6548, 3660, 3476, 468, 5367
6549, 490, 3640, 3468, 3630
6550, 3579, 3453, 512, 4063
6551, 3726, 3899, 3568, 534
6552, 3620, 3750, 3902, 4129
6553, 3452, 3683, 3803, 3652
6554, 705, 3188, 3189, 72
6555, 600, 5315, 3282, 1
6556, 3282, 5315, 3183, 109
6557, 3167, 3439, 3438, 3168
6558, 3439, 3167, 3169, 3442
6559, 3688, 3177, 3215, 3528
6560, 3536, 3268, 3272, 199
6561, 3261, 222, 3477, 3271
6562, 3465, 3234, 3210, 245
6563, 3184, 3686, 3449, 3186
6564, 3451, 3185, 3190, 4181
6565, 4295, 3219, 3242, 3474
6566, 3270, 3269, 39, 667
6567, 836, 1108, 666, 665
6568, 852, 5319, 850, 945
6569, 787, 796, 661, 660
6570, 645, 809, 801, 646
6571, 822, 892, 890, 819
6572, 638, 3120, 908, 35
6573, 3538, 3254, 3259, 423
6574, 3541, 3256, 3258, 446
6575, 3476, 3257, 3255, 468
6576, 3630, 3468, 3221, 3201
6577, 3191, 3193, 4285, 512
6578, 3204, 3223, 3681, 3454
6579, 578, 3478, 3264, 3260
6580, 706, 3214, 627, 49
6581, 627, 3214, 3260, 26
6582, 693, 3170, 3203, 61
6583, 3436, 3440, 3163, 3164
6584, 3585, 3954, 3832, 588
6585, 569, 4101, 3975, 3995
6586, 4820, 4813, 4936, 5168
6587, 5874, 4769, 4884, 4970
6588, 434, 4426, 4308, 4158
6589, 412, 3876, 3796, 5836
6590, 3419, 3544, 5788, 390
6591, 1246, 5526, 1210, 1318
6592, 60, 3164, 3163, 692
6593, 3436, 3539, 3659, 589
6594, 3805, 570, 3942, 3659
6595, 4218, 4399, 4508, 5583
6596, 4465, 4580, 4777, 524
6597, 5745, 5024, 502, 5132
6598, 5257, 481, 5841, 5277
6599, 5001, 4970, 5045, 5114
6600, 4581, 4329, 5795, 4454
6601, 4000, 4155, 3862, 413
6602, 3717, 3693, 3574, 3418
6603, 59, 3205, 3172, 691
6604, 3205, 3302, 3542, 590
6605, 3668, 3542, 591, 3785
6606, 4313, 547, 4819, 4170
6607, 4615, 526, 4851, 4720
6608, 5098, 5600, 5138, 5299
6609, 5814, 5291, 5223, 5262
6610, 4581, 4753, 436, 4329
6611, 58, 3339, 3302, 690
6612, 3339, 3350, 3535, 591
6613, 3784, 3535, 592, 3775
6614, 4316, 548, 4171, 5400
6615, 4790, 4615, 5520, 4638
6616, 5022, 5106, 5676, 4885
6617, 5213, 5296, 5293, 5710
6618, 5125, 4889, 459, 5204
6619, 688, 3344, 3345, 57
6620, 3344, 688, 56, 3342
6621, 3641, 3497, 593, 3762
6622, 4321, 549, 4177, 3998
6623, 4529, 4794, 4608, 5589
6624, 4875, 4794, 528, 4979
6625, 5248, 483, 5294, 5153
6626, 5308, 5225, 5266, 5840
6627, 3342, 56, 687, 3343
6628, 3614, 3516, 594, 3761
6629, 550, 4231, 4014, 4354
6630, 4984, 506, 5156, 5121
6631, 5156, 5286, 5281, 5121
6632, 686, 3306, 3337, 55
6633, 3306, 3239, 595, 3491
6634, 3936, 3603, 3727, 575
6635, 4365, 5482, 4251, 4144
6636, 4726, 529, 4632, 4530
6637, 529, 4993, 4984, 4909
6638, 685, 3216, 3239, 54
6639, 3680, 3458, 3206, 3209
6640, 576, 4094, 3839, 3856
6641, 553, 4346, 576, 4240
6642, 53, 3209, 3206, 684
6643, 4284, 3588, 3729, 577
6644, 52, 3301, 3226, 683
6645, 3331, 682, 51, 3347
6646, 3207, 3200, 3455, 599
6647, 83, 3220, 3200, 718
6648, 4675, 5471, 4676, 532
6649, 4846, 4610, 4789, 4945
6650, 4996, 5105, 4903, 5646
6651, 5025, 5177, 5092, 441
6652, 4642, 5585, 4785, 5638
6653, 5457, 4287, 5569, 4036
6654, 3589, 3691, 3828, 5375
6655, 966, 1288, 841, 909
6656, 834, 838, 740, 739
6657, 3220, 3280, 3470, 3685
6658, 82, 3356, 3280, 717
6659, 4378, 4262, 510, 4544
6660, 4146, 4263, 4369, 510
6661, 4748, 4495, 4640, 464
6662, 4866, 4938, 5100, 4939
6663, 4779, 4642, 4944, 4861
6664, 4225, 417, 4353, 4003
6665, 3915, 3616, 3754, 394
6666, 3411, 3444, 3218, 3166
6667, 3122, 3155, 1288, 966
6668, 3356, 3377, 4721, 556
6669, 3371, 715, 714, 3376
6670, 3966, 3838, 488, 4146
6671, 488, 4270, 4263, 4146
6672, 5644, 4838, 4493, 443
6673, 4742, 4938, 4882, 419
6674, 396, 5467, 4371, 4143
6675, 3494, 374, 5343, 3569
6676, 3166, 3218, 743, 88
6677, 3371, 4474, 533, 3361
6678, 3362, 80, 713, 3370
6679, 3838, 3601, 3940, 488
6680, 4345, 465, 4368, 4004
6681, 5644, 443, 4666, 442
6682, 396, 3967, 3841, 5412
6683, 3328, 3324, 91, 745
6684, 3244, 3310, 744, 89
6685, 712, 3369, 3372, 79
6686, 467, 3513, 3611, 3766
6687, 3994, 4388, 4219, 444
6688, 4206, 4330, 420, 4226
6689, 3907, 3558, 4060, 4029
6690, 376, 3307, 3317, 4383
6691, 3321, 3328, 745, 90
6692, 79, 3372, 3370, 713
6693, 3363, 78, 711, 3375
6694, 445, 3518, 3633, 3771
6695, 4023, 5505, 4206, 4226
6696, 3921, 3610, 3735, 398
6697, 3481, 3267, 3285, 4203
6698, 3307, 3285, 92, 747
6699, 3363, 467, 3501, 3369
6700, 3364, 77, 710, 3368
6701, 422, 3526, 3648, 3777
6702, 3639, 3492, 378, 3759
6703, 377, 3275, 3267, 3481
6704, 748, 92, 3285, 3267
6705, 3364, 445, 3513, 3375
6706, 3365, 76, 709, 3374
6707, 401, 3533, 3661, 3786
6708, 750, 94, 3314, 3326
6709, 3275, 3304, 749, 93
6710, 3518, 3368, 3365, 422
6711, 3367, 708, 74, 3373
6712, 3335, 3333, 96, 751
6713, 3366, 3367, 3533, 401
6714, 707, 5314, 3373, 74
6715, 3330, 3335, 751, 95
6716, 3373, 5314, 3333, 380
6717, 3500, 3360, 3322, 334
6718, 3464, 3237, 3208, 3626
6719, 3459, 3198, 3222, 3676
6720, 244, 4086, 3385, 3382
6721, 3378, 221, 3502, 3381
6722, 3319, 198, 3499, 3357
6723, 3319, 3315, 3519, 198
6724, 3359, 3380, 5322, 3527
6725, 130, 3503, 3383, 3384
6726, 3168, 3171, 678, 47
6727, 3486, 3653, 3816, 110
6728, 3679, 3520, 3834, 111
6729, 112, 3471, 3575, 4050
6730, 3958, 3835, 113, 4082
6731, 114, 3484, 3606, 3765
6732, 115, 3521, 3622, 3756
6733, 116, 3537, 3646, 3742
6734, 3673, 117, 3469, 3783
6735, 118, 3479, 3665, 3780
6736, 3485, 3644, 3746, 119
6737, 3830, 3677, 3488, 3613
6738, 3565, 4033, 4258, 3483
6739, 3553, 121, 3678, 3472
6740, 3457, 3587, 122, 3627
6741, 3650, 123, 3461, 3769
6742, 124, 3475, 3671, 3794
6743, 125, 3487, 3670, 3789
6744, 126, 3534, 3655, 3770
6745, 3524, 3631, 3825, 3684
6746, 3443, 3550, 128, 3615
6747, 3663, 3503, 130, 3460
6748, 677, 676, 3169, 3167
6749, 5395, 3874, 4026, 5396
6750, 4160, 3996, 155, 4396
6751, 4433, 4054, 5571, 4305
6752, 4467, 4572, 135, 4762
6753, 4052, 5445, 3934, 4594
6754, 137, 3911, 4027, 5451
6755, 138, 3882, 4064, 5399
6756, 139, 3865, 4031, 4322
6757, 4016, 4320, 4108, 3870
6758, 3999, 4334, 4125, 3927
6759, 3986, 4056, 142, 3712
6760, 4081, 144, 3722, 3889
6761, 145, 5500, 4075, 4198
6762, 146, 3914, 4015, 4199
6763, 4017, 147, 5441, 3864
6764, 4008, 148, 5442, 3866
6765, 5515, 4124, 3947, 3990
6766, 4265, 4007, 150, 4282
6767, 4112, 152, 5372, 5405
6768, 3651, 3815, 153, 3779
6769, 3215, 3177, 46, 675
6770, 3855, 3821, 3831, 3632
6771, 4758, 5610, 4605, 4997
6772, 5480, 4652, 4513, 158
6773, 5525, 4340, 4513, 4718
6774, 160, 5592, 4539, 4629
6775, 4407, 4532, 161, 4168
6776, 4522, 162, 4322, 4514
6777, 5507, 4524, 4633, 4690
6778, 4277, 4554, 4518, 4193
6779, 5476, 4760, 166, 4806
6780, 4411, 4475, 167, 4174
6781, 4713, 4414, 4477, 4698
6782, 4655, 4510, 168, 5640
6783, 170, 4350, 4484, 4596
6784, 171, 4382, 4473, 4637
6785, 4486, 172, 5622, 4358
6786, 5029, 4501, 173, 4855
6787, 4798, 4782, 4562, 5549
6788, 175, 4157, 4030, 3891
6789, 3628, 3519, 176, 3749
6790, 3268, 3245, 45, 674
6791, 177, 3536, 3654, 3758
6792, 4312, 4179, 4041, 178
6793, 4605, 179, 5529, 4656
6794, 4920, 5701, 5040, 180
6795, 4931, 181, 4898, 5634
6796, 5019, 4800, 4874, 5044
6797, 4786, 4869, 184, 4617
6798, 185, 4658, 4857, 5630
6799, 5032, 4778, 4853, 5041
6800, 4826, 5612, 5635, 187
6801, 5302, 5005, 188, 5260
6802, 5662, 4883, 5782, 4967
6803, 5028, 190, 4897, 4848
6804, 5663, 5206, 5637, 5047
6805, 4918, 191, 5071, 4923
6806, 4808, 193, 4805, 4791
6807, 194, 5027, 4910, 5799
6808, 4825, 195, 5654, 5043
6809, 4630, 4739, 5553, 196
6810, 198, 3808, 3607, 3499
6811, 3261, 3271, 673, 43
6812, 199, 3477, 3672, 3774
6813, 4521, 4010, 4390, 4469
6814, 4669, 4603, 201, 5528
6815, 4900, 4926, 4940, 5674
6816, 5247, 5197, 5249, 5810
6817, 5242, 5165, 5807, 5179
6818, 5038, 5827, 5080, 5796
6819, 5074, 5721, 5207, 5831
6820, 4902, 5088, 4995, 230
6821, 5843, 4957, 5819, 4854
6822, 5199, 5109, 210, 5229
6823, 5837, 4972, 234, 5033
6824, 5128, 5747, 5184, 212
6825, 5220, 5117, 213, 5270
6826, 5135, 5202, 5278, 5185
6827, 216, 5127, 5191, 5295
6828, 5290, 5214, 5227, 5820
6829, 4932, 4999, 218, 4891
6830, 4645, 5579, 219, 4505
6831, 4042, 220, 4253, 4379
6832, 221, 5348, 3599, 3502
6833, 3210, 3234, 672, 42
6834, 3669, 222, 3465, 3787
6835, 4347, 5484, 4043, 5478
6836, 4648, 4795, 4540, 5537
6837, 5200, 4941, 5123, 5744
6838, 5180, 4975, 227, 5810
6839, 5036, 4831, 4859, 5066
6840, 5827, 4766, 4668, 4860
6841, 4756, 4864, 5139, 4744
6842, 4755, 4661, 4487, 4606
6843, 4606, 254, 4715, 231
6844, 5823, 4733, 4602, 256
6845, 234, 4972, 4858, 4741
6846, 4687, 4841, 4685, 4649
6847, 4619, 4555, 259, 4796
6848, 5135, 5865, 4943, 5821
6849, 5794, 5111, 5198, 237
6850, 239, 5305, 5253, 5304
6851, 5304, 5253, 5808, 5259
6852, 242, 4654, 4783, 5483
6853, 244, 3837, 3965, 4086
6854, 3184, 3186, 671, 41
6855, 3886, 3744, 3636, 4035
6856, 4527, 4076, 4311, 4631
6857, 4648, 5537, 4772, 248
6858, 4964, 5666, 4947, 249
6859, 5947, 4520, 252, 4459
6860, 4520, 4611, 5923, 252
6861, 4109, 5926, 4452, 276
6862, 4100, 5861, 4235, 4339
6863, 279, 4247, 4123, 3910
6864, 4357, 4128, 5691, 280
6865, 4555, 4619, 4437, 4289
6866, 4797, 4448, 4567, 5108
6867, 4804, 4949, 260, 5108
6868, 285, 4977, 4780, 4636
6869, 5055, 5707, 5208, 262
6870, 264, 5107, 5181, 5659
6871, 4736, 4856, 264, 5659
6872, 4439, 4370, 4443, 4673
6873, 3549, 4049, 3895, 3718
6874, 3185, 3184, 41, 670
6875, 3719, 3697, 268, 3570
6876, 4242, 4306, 4096, 292
6877, 4425, 4393, 294, 5725
6878, 295, 4161, 4002, 3923
6879, 4098, 3871, 296, 5922
6880, 4099, 276, 4274, 4120
6881, 3798, 3799, 5834, 3979
6882, 5833, 3941, 4123, 278
6883, 5691, 4128, 5759, 5693
6884, 280, 5691, 5690, 4084
6885, 5650, 4138, 282, 4271
6886, 4740, 4600, 284, 4877
6887, 4956, 5136, 4963, 286
6888, 288, 4590, 5566, 5557
6889, 5479, 4266, 289, 3895
6890, 3700, 3580, 3459, 3676
6891, 3242, 3219, 40, 668
6892, 5335, 4246, 3857, 5340
6893, 4106, 3956, 4604, 4242
6894, 3956, 4038, 4775, 4604
6895, 3968, 3983, 4153, 4039
6896, 3923, 4002, 5790, 3713
6897, 3597, 3548, 3416, 3972
6898, 3972, 3515, 3687, 296
6899, 3509, 3618, 3707, 3608
6900, 3158, 3424, 3594, 3405
6901, 3435, 3402, 5798, 322
6902, 3602, 3434, 3174, 3400
6903, 1287, 3197, 3429, 324
6904, 5501, 5456, 5517, 303
6905, 5503, 4095, 4264, 304
6906, 4349, 4489, 305, 4159
6907, 4205, 4332, 5554, 306
6908, 4464, 4671, 4558, 5408
6909, 5077, 4195, 4327, 5010
6910, 4207, 310, 5477, 4333
6911, 4072, 311, 4154, 4040
6912, 3464, 3626, 3751, 3642
6913, 3157, 3270, 667, 38
6914, 3425, 3547, 3530, 336
6915, 3456, 3121, 337, 3581
6916, 1993, 338, 3162, 3407
6917, 3397, 3674, 3388, 3149
6918, 3414, 3572, 3145, 3159
6919, 2952, 2985, 3061, 2984
6920, 2661, 2807, 2619, 2571
6921, 2256, 2288, 2214, 2172
6922, 1951, 1913, 1983, 1981
6923, 1643, 5800, 1672, 1701
6924, 1365, 1396, 5776, 1340
6925, 1219, 1183, 1109, 1110
6926, 3433, 3511, 5384, 3592
6927, 3974, 326, 3645, 3753
6928, 3740, 3482, 351, 3764
6929, 3836, 4585, 3930, 3600
6930, 3836, 3960, 4761, 329
6931, 3908, 3559, 3730, 331
6932, 3612, 3763, 3920, 4113
6933, 3638, 3522, 356, 3781
6934, 356, 3532, 3657, 3781
6935, 1064, 1185, 1014, 958
6936, 1286, 1320, 1253, 1218
6937, 1525, 1587, 1556, 1495
6938, 1821, 1853, 1789, 1759
6939, 2132, 2173, 2096, 2092
6940, 2458, 2419, 5934, 2496
6941, 6051, 6033, 2657, 2693
6942, 2287, 2354, 2328, 2230
6943, 1963, 1972, 2002, 2038
6944, 871, 934, 799, 798
6945, 1180, 1139, 1213, 1233
6946, 1457, 1432, 1491, 1515
6947, 1756, 1700, 1733, 1788
6948, 2021, 5883, 1958, 2131
6949, 2297, 2374, 2375, 2336
6950, 2698, 2617, 2620, 385
6951, 2773, 2809, 2848, 2812
6952, 1954, 1982, 2025, 1984
6953, 1379, 1347, 1409, 3173
6954, 1640, 5787, 1699, 1589
6955, 1147, 1065, 1061, 370
6956, 1065, 1107, 1015, 1012
6957, 3143, 3567, 3413, 1062
6958, 372, 3629, 3444, 3411
6959, 374, 3643, 3616, 5343
6960, 3494, 3569, 375, 3842
6961, 375, 3841, 3967, 5347
6962, 377, 3481, 3558, 3735
6963, 378, 3489, 3610, 3759
6964, 379, 3492, 3639, 3778
6965, 3533, 380, 3495, 3661
6966, 35, 908, 837, 639
6967, 3399, 3504, 3125, 3390
6968, 3389, 3134, 1703, 5541
6969, 1823, 1761, 1855, 1920
6970, 2259, 2131, 383, 5866
6971, 2461, 2380, 2420, 3124
6972, 2846, 385, 3142, 3128
6973, 2813, 2851, 387, 2775
6974, 2575, 2624, 2739, 2774
6975, 2213, 3150, 3139, 2133
6976, 3392, 3506, 3387, 1559
6977, 389, 1917, 1953, 2091
6978, 392, 3868, 3776, 3619
6979, 3988, 5572, 4162, 414
6980, 5376, 5387, 394, 3754
6981, 3915, 4036, 395, 3737
6982, 4003, 4353, 5412, 5437
6983, 4256, 4376, 4143, 4371
6984, 3907, 4029, 4173, 5509
6985, 399, 3921, 4028, 4206
6986, 399, 4206, 5505, 3943
6987, 3648, 3526, 401, 3786
6988, 34, 3254, 3187, 637
6989, 404, 5617, 3576, 5577
6990, 3556, 405, 3423, 4022
6991, 3578, 3793, 3724, 406
6992, 3571, 3971, 3695, 3403
6993, 407, 4137, 4291, 4006
6994, 3715, 408, 5968, 3563
6995, 3422, 3582, 5985, 409
6996, 3819, 3590, 3711, 3859
6997, 3791, 3937, 4047, 3904
6998, 3635, 3701, 411, 3507
6999, 4646, 4462, 4490, 4466
7000, 4394, 5532, 4466, 4490
7001, 439, 4418, 4462, 4678
7002, 5547, 4515, 5585, 418
7003, 419, 4438, 4621, 4742
7004, 420, 4330, 4525, 4482
7005, 4023, 4226, 421, 4105
7006, 3633, 3518, 422, 3777
7007, 3258, 635, 32, 3257
7008, 4212, 448, 5543, 4325
7009, 4131, 4055, 5578, 4267
7010, 3858, 3971, 428, 4148
7011, 4356, 4420, 4303, 5869
7012, 4272, 3985, 4048, 429
7013, 432, 3859, 4257, 4374
7014, 4047, 433, 4156, 4426
7015, 4156, 433, 4172, 5959
7016, 3982, 3981, 3853, 3796
7017, 4167, 4151, 3981, 3982
7018, 438, 4754, 4887, 4678
7019, 4785, 4872, 5014, 5638
7020, 5025, 4944, 440, 5057
7021, 4004, 444, 4219, 4345
7022, 3611, 3513, 445, 3771
7023, 634, 3255, 3257, 32
7024, 446, 3476, 3660, 3788
7025, 4212, 5453, 4385, 448
7026, 4386, 4471, 5705, 449
7027, 450, 4380, 4445, 4589
7028, 4476, 4528, 451, 4547
7029, 452, 4588, 4670, 4686
7030, 454, 4373, 4504, 4599
7031, 4463, 4663, 4512, 4400
7032, 4842, 4576, 4763, 478
7033, 4417, 4468, 456, 4172
7034, 4620, 4769, 4717, 4533
7035, 4454, 4896, 4707, 4581
7036, 4753, 4840, 4961, 4849
7037, 5853, 5809, 461, 5852
7038, 5173, 5280, 5804, 5853
7039, 463, 5279, 5269, 5217
7040, 5646, 4903, 4748, 464
7041, 5469, 4640, 4495, 4377
7042, 466, 4252, 4025, 3940
7043, 467, 3766, 3601, 3501
7044, 633, 3221, 3240, 31
7045, 3640, 3773, 5331, 3468
7046, 4337, 4214, 5435, 4013
7047, 4561, 4704, 4598, 471
7048, 4730, 4904, 5724, 472
7049, 5219, 473, 5815, 5126
7050, 474, 4892, 4981, 5873
7051, 5818, 4914, 5780, 4992
7052, 476, 4781, 4878, 5099
7053, 4895, 477, 4749, 476
7054, 5844, 5129, 5806, 478
7055, 4865, 4884, 4769, 457
7056, 5045, 5076, 5174, 5841
7057, 5211, 5056, 5114, 481
7058, 5147, 506, 4984, 4993
7059, 507, 5232, 5147, 4988
7060, 5007, 485, 5189, 5064
7061, 487, 4653, 4789, 5470
7062, 3838, 3966, 5333, 489
7063, 632, 3192, 3201, 30
7064, 3579, 3897, 3728, 490
7065, 4336, 4223, 4080, 4541
7066, 5550, 4725, 5068, 492
7067, 5065, 5144, 4927, 516
7068, 5244, 5162, 5067, 5275
7069, 5784, 5193, 5735, 5096
7070, 5119, 497, 5221, 5183
7071, 5161, 5222, 5265, 5688
7072, 5017, 4793, 4871, 5051
7073, 5116, 5140, 499, 5000
7074, 5243, 5858, 5285, 5209
7075, 5726, 5299, 5138, 5223
7076, 5153, 504, 5053, 5093
7077, 5660, 4908, 4994, 530
7078, 4988, 4994, 5095, 507
7079, 4750, 4723, 4807, 4724
7080, 510, 4369, 4442, 4544
7081, 4262, 4378, 511, 4087
7082, 3193, 631, 630, 3204
7083, 4063, 512, 4285, 4068
7084, 4083, 4348, 4398, 4228
7085, 4635, 5606, 4542, 4516
7086, 4714, 4837, 4643, 4502
7087, 4699, 5063, 5115, 4583
7088, 4719, 4519, 5464, 541
7089, 4847, 4701, 4557, 4683
7090, 4647, 4536, 545, 4506
7091, 4737, 521, 4628, 4538
7092, 4813, 4820, 523, 4774
7093, 524, 4777, 4850, 5697
7094, 4843, 5020, 525, 4886
7095, 4790, 4885, 526, 4615
7096, 4794, 4875, 5013, 5673
7097, 528, 4722, 4909, 4979
7098, 4728, 5555, 4479, 5596
7099, 4403, 5595, 4479, 5555
7100, 3557, 4721, 533, 4061
7101, 28, 3223, 3204, 630
7102, 4220, 4059, 5495, 5539
7103, 536, 5551, 4516, 4542
7104, 4221, 538, 4344, 4011
7105, 4250, 539, 4364, 4045
7106, 4387, 540, 4485, 4413
7107, 4338, 4519, 4239, 5444
7108, 4204, 4323, 4509, 541
7109, 4569, 4553, 4444, 4302
7110, 4009, 568, 4237, 4361
7111, 4342, 543, 4217, 4021
7112, 547, 4706, 4551, 4819
7113, 548, 4615, 4720, 4852
7114, 548, 4316, 5520, 4615
7115, 550, 4354, 4498, 5556
7116, 551, 5482, 4530, 4632
7117, 4404, 5473, 4019, 5588
7118, 628, 3264, 3265, 27
7119, 3478, 3652, 3817, 557
7120, 3879, 3720, 559, 4318
7121, 4182, 4057, 3551, 3496
7122, 3909, 3555, 3732, 561
7123, 3935, 3605, 3757, 562
7124, 3747, 3540, 585, 3745
7125, 3624, 3529, 586, 3767
7126, 588, 3832, 3840, 5351
7127, 3931, 3609, 3738, 567
7128, 3832, 4092, 568, 3840
7129, 4391, 4117, 4399, 4218
7130, 570, 3918, 4005, 4170
7131, 571, 3925, 3989, 5400
7132, 572, 3924, 3998, 4177
7133, 4014, 4231, 3929, 4142
7134, 574, 3936, 4144, 4251
7135, 3903, 4079, 5452, 575
7136, 3455, 3685, 3802, 3656
7137, 3531, 3656, 3812, 598
7138, 3585, 588, 3448, 3440
7139, 590, 3542, 3668, 3805
7140, 3658, 591, 3535, 3784
7141, 592, 3497, 3641, 3775
7142, 593, 3516, 3614, 3762
7143, 594, 3491, 3603, 3761
7144, 595, 3466, 3552, 3727
7145, 3680, 3462, 5349, 3827
7146, 24, 679, 5315, 600
7147, 1, 3282, 3289, 601
7148, 602, 3290, 3278, 3
7149, 603, 3248, 3233, 4
7150, 604, 3228, 3238, 605
7151, 5, 3253, 3281, 606
7152, 607, 3294, 3287, 7
7153, 608, 3250, 3232, 8
7154, 9, 3241, 3263, 610
7155, 10, 3276, 3283, 611
7156, 11, 3293, 3295, 612
7157, 613, 3296, 3279, 13
7158, 614, 3273, 3252, 615
7159, 615, 3252, 3230, 14
7160, 16, 3224, 3246, 618
7161, 17, 3277, 3291, 619
7162, 620, 3292, 3288, 19
7163, 621, 3262, 3231, 20
7164, 622, 3194, 3178, 623
7165, 21, 3175, 3176, 624
7166, 23, 3225, 3249, 626
7167, 26, 3260, 3264, 628
7168, 629, 3247, 3223, 28
7169, 631, 3193, 3191, 29
7170, 29, 3191, 3192, 632
7171, 30, 3201, 3221, 633
7172, 31, 3240, 3255, 634
7173, 33, 3256, 3259, 636
7174, 637, 3187, 3120, 638
7175, 3430, 3390, 1066, 1018
7176, 639, 837, 833, 640
7177, 641, 829, 825, 642
7178, 642, 825, 822, 643
7179, 643, 822, 819, 36
7180, 644, 814, 809, 645
7181, 646, 801, 776, 647
7182, 647, 776, 774, 648
7183, 649, 772, 770, 650
7184, 650, 770, 769, 651
7185, 651, 769, 768, 652
7186, 652, 768, 767, 653
7187, 653, 767, 766, 654
7188, 654, 766, 771, 655
7189, 655, 771, 773, 656
7190, 656, 773, 775, 657
7191, 657, 775, 777, 658
7192, 658, 777, 778, 659
7193, 659, 778, 787, 660
7194, 662, 661, 796, 806
7195, 663, 37, 897, 826
7196, 826, 832, 664, 663
7197, 832, 836, 665, 664
7198, 3412, 3157, 1108, 959
7199, 3269, 3242, 668, 39
7200, 3219, 3190, 669, 40
7201, 3190, 3185, 670, 669
7202, 3186, 3210, 42, 671
7203, 3234, 3261, 43, 672
7204, 3271, 3272, 44, 673
7205, 3245, 3215, 675, 45
7206, 3177, 3169, 676, 46
7207, 3167, 3168, 47, 677
7208, 3171, 3183, 48, 678
7209, 50, 3340, 3348, 681
7210, 682, 3331, 3301, 52
7211, 683, 3226, 3209, 53
7212, 684, 3206, 3216, 685
7213, 54, 3239, 3306, 686
7214, 55, 3337, 3343, 687
7215, 57, 3345, 3350, 689
7216, 690, 3302, 3205, 59
7217, 691, 3172, 3164, 60
7218, 692, 3163, 3170, 693
7219, 61, 3203, 3286, 694
7220, 62, 3338, 3352, 695
7221, 696, 3311, 3236, 64
7222, 697, 3195, 3180, 65
7223, 66, 3181, 3196, 699
7224, 67, 3235, 3312, 700
7225, 69, 3351, 3354, 702
7226, 703, 3346, 3316, 70
7227, 704, 3251, 3212, 71
7228, 72, 3189, 3214, 706
7229, 85, 752, 5314, 707
7230, 708, 3367, 3366, 75
7231, 75, 3366, 3374, 709
7232, 77, 3364, 3375, 711
7233, 78, 3363, 3369, 712
7234, 80, 3362, 3376, 714
7235, 715, 3371, 3361, 81
7236, 81, 3361, 3377, 716
7237, 717, 3280, 3220, 83
7238, 84, 3207, 3227, 719
7239, 6138, 795, 798, 6137
7240, 794, 790, 722, 721
7241, 785, 781, 725, 724
7242, 789, 6140, 6141, 786
7243, 781, 779, 726, 725
7244, 786, 6141, 6142, 782
7245, 723, 722, 790, 788
7246, 782, 6142, 6143, 780
7247, 727, 726, 779, 783
7248, 784, 6144, 6145, 793
7249, 793, 6145, 6146, 803
7250, 728, 727, 783, 792
7251, 803, 6146, 6147, 805
7252, 784, 793, 863, 857
7253, 728, 792, 802, 729
7254, 805, 6147, 6148, 808
7255, 730, 729, 802, 804
7256, 6144, 784, 780, 6143
7257, 804, 807, 731, 730
7258, 807, 810, 732, 731
7259, 810, 812, 733, 732
7260, 812, 815, 734, 733
7261, 6149, 811, 808, 6148
7262, 6151, 816, 813, 6150
7263, 6150, 813, 811, 6149
7264, 6153, 821, 818, 6152
7265, 86, 736, 820, 824
7266, 738, 737, 827, 830
7267, 6155, 828, 823, 6154
7268, 830, 834, 739, 738
7269, 823, 895, 891, 821
7270, 6158, 839, 835, 6157
7271, 6157, 835, 831, 6156
7272, 6159, 840, 839, 6158
7273, 838, 841, 87, 740
7274, 3136, 3131, 5329, 1255
7275, 3391, 5329, 3131, 5368
7276, 6162, 3165, 3136, 6161
7277, 3155, 3166, 88, 742
7278, 6164, 3243, 3217, 6163
7279, 3218, 3244, 89, 743
7280, 6166, 3320, 3309, 6165
7281, 3310, 3321, 90, 744
7282, 6169, 3318, 3323, 6168
7283, 3324, 3317, 746, 91
7284, 6171, 3284, 3308, 6170
7285, 6170, 3308, 3318, 6169
7286, 6172, 3266, 3284, 6171
7287, 3267, 3275, 93, 748
7288, 6175, 3313, 3303, 6174
7289, 3304, 3314, 94, 749
7290, 3326, 3330, 95, 750
7291, 752, 96, 3333, 5314
7292, 3383, 754, 98, 3384
7293, 3380, 3359, 755, 99
7294, 3355, 3315, 756, 100
7295, 3357, 3378, 102, 757
7296, 3381, 3382, 103, 758
7297, 3379, 3358, 760, 104
7298, 3358, 3305, 761, 760
7299, 3198, 3208, 106, 762
7300, 3237, 3322, 107, 763
7301, 3386, 3360, 3500, 357
7302, 766, 842, 844, 771
7303, 772, 649, 648, 774
7304, 843, 767, 768, 845
7305, 845, 768, 769, 846
7306, 846, 769, 770, 847
7307, 847, 770, 772, 849
7308, 767, 843, 842, 766
7309, 771, 844, 848, 773
7310, 814, 644, 36, 819
7311, 773, 848, 850, 775
7312, 832, 826, 5317, 900
7313, 782, 780, 855, 858
7314, 859, 781, 785, 862
7315, 793, 803, 875, 863
7316, 721, 720, 797, 794
7317, 862, 785, 788, 866
7318, 786, 782, 858, 861
7319, 848, 844, 915, 920
7320, 788, 790, 868, 866
7321, 6139, 791, 795, 6138
7322, 720, 97, 800, 797
7323, 5323, 868, 794, 797
7324, 789, 786, 861, 865
7325, 783, 856, 864, 792
7326, 803, 805, 877, 875
7327, 781, 859, 854, 779
7328, 791, 789, 865, 867
7329, 853, 5318, 852, 945
7330, 37, 662, 806, 897
7331, 795, 791, 867, 869
7332, 6137, 798, 799, 97
7333, 979, 1029, 871, 869
7334, 872, 800, 97, 935
7335, 922, 857, 863, 927
7336, 874, 802, 792, 864
7337, 857, 855, 780, 784
7338, 796, 787, 5318, 853
7339, 876, 804, 802, 874
7340, 816, 6151, 6152, 818
7341, 880, 807, 804, 876
7342, 812, 810, 881, 940
7343, 774, 851, 849, 772
7344, 736, 735, 817, 820
7345, 882, 879, 808, 811
7346, 817, 815, 886, 889
7347, 882, 811, 813, 883
7348, 801, 878, 860, 776
7349, 817, 889, 5320, 820
7350, 828, 6155, 6156, 831
7351, 885, 883, 813, 816
7352, 829, 641, 640, 833
7353, 809, 884, 878, 801
7354, 885, 816, 818, 887
7355, 894, 827, 5320, 954
7356, 814, 888, 884, 809
7357, 826, 897, 961, 5317
7358, 951, 955, 899, 894
7359, 821, 891, 887, 818
7360, 825, 896, 892, 822
7361, 830, 899, 903, 834
7362, 831, 902, 898, 828
7363, 832, 900, 904, 836
7364, 944, 892, 896, 946
7365, 834, 903, 906, 838
7366, 898, 956, 952, 895
7367, 1108, 836, 904, 959
7368, 833, 905, 901, 829
7369, 838, 906, 909, 841
7370, 835, 907, 902, 831
7371, 1255, 6160, 6161, 3136
7372, 839, 910, 907, 835
7373, 842, 843, 914, 913
7374, 843, 845, 916, 914
7375, 913, 915, 844, 842
7376, 851, 774, 776, 860
7377, 918, 917, 846, 847
7378, 912, 919, 849, 851
7379, 850, 848, 920, 945
7380, 5319, 852, 778, 777
7381, 911, 912, 851, 860
7382, 948, 796, 853, 994
7383, 893, 806, 796, 948
7384, 922, 923, 855, 857
7385, 856, 921, 5330, 864
7386, 808, 879, 877, 805
7387, 927, 863, 875, 5362
7388, 858, 855, 923, 924
7389, 921, 862, 866, 989
7390, 888, 814, 819, 890
7391, 878, 931, 911, 860
7392, 797, 800, 870, 5323
7393, 877, 933, 5362, 875
7394, 858, 924, 926, 861
7395, 929, 866, 868, 5323
7396, 865, 861, 926, 928
7397, 798, 795, 869, 871
7398, 867, 865, 928, 930
7399, 5323, 870, 932, 929
7400, 800, 872, 937, 870
7401, 866, 929, 991, 989
7402, 873, 935, 97, 799
7403, 5327, 5321, 982, 1027
7404, 925, 874, 864, 5330
7405, 933, 877, 879, 5363
7406, 876, 874, 925, 936
7407, 807, 880, 881, 810
7408, 973, 922, 927, 5429
7409, 878, 884, 939, 931
7410, 880, 876, 936, 5337
7411, 886, 815, 812, 940
7412, 976, 5362, 933, 5433
7413, 884, 888, 942, 939
7414, 5363, 879, 882, 938
7415, 895, 823, 828, 898
7416, 891, 947, 950, 887
7417, 889, 886, 949, 5324
7418, 896, 825, 829, 901
7419, 998, 5364, 941, 1004
7420, 970, 913, 914, 5341
7421, 961, 893, 948, 5326
7422, 5320, 827, 824, 820
7423, 1035, 5559, 1046, 1090
7424, 943, 942, 888, 890
7425, 897, 806, 893, 961
7426, 895, 952, 947, 891
7427, 1007, 1012, 955, 951
7428, 904, 900, 958, 1014
7429, 900, 5317, 1011, 958
7430, 905, 833, 837, 960
7431, 953, 901, 905, 957
7432, 902, 963, 956, 898
7433, 955, 962, 903, 899
7434, 960, 837, 908, 1018
7435, 1010, 1066, 381, 1106
7436, 962, 964, 906, 903
7437, 910, 839, 840, 1290
7438, 956, 1013, 1008, 952
7439, 1018, 908, 3120, 3430
7440, 966, 909, 1017, 1062
7441, 1290, 840, 1255, 5329
7442, 907, 965, 963, 902
7443, 911, 1019, 967, 912
7444, 5355, 968, 969, 1020
7445, 1048, 5344, 970, 5341
7446, 845, 846, 917, 916
7447, 917, 918, 968, 5342
7448, 915, 913, 970, 920
7449, 969, 968, 918, 919
7450, 967, 969, 919, 912
7451, 918, 847, 849, 919
7452, 922, 973, 5424, 923
7453, 5362, 976, 5429, 927
7454, 974, 924, 923, 5424
7455, 1039, 925, 5330, 1038
7456, 924, 974, 975, 926
7457, 938, 882, 883, 5364
7458, 5363, 995, 5433, 933
7459, 926, 975, 977, 928
7460, 869, 867, 930, 979
7461, 5330, 921, 989, 1038
7462, 983, 931, 939, 985
7463, 932, 990, 1036, 992
7464, 885, 941, 5364, 883
7465, 5429, 976, 1035, 1040
7466, 981, 934, 1028, 1073
7467, 799, 934, 981, 873
7468, 1030, 1076, 982, 935
7469, 993, 936, 925, 1039
7470, 5337, 996, 881, 880
7471, 872, 5321, 984, 937
7472, 990, 937, 984, 1080
7473, 941, 885, 887, 950
7474, 976, 5433, 5559, 1035
7475, 892, 944, 943, 890
7476, 985, 939, 942, 986
7477, 940, 881, 996, 1003
7478, 949, 886, 940, 1003
7479, 1004, 941, 950, 999
7480, 986, 942, 943, 987
7481, 931, 983, 1019, 911
7482, 901, 953, 946, 896
7483, 988, 944, 946, 1000
7484, 853, 945, 5325, 994
7485, 5559, 5433, 995, 1046
7486, 1074, 5438, 1031, 1032
7487, 5361, 1006, 954, 5324
7488, 951, 894, 954, 1006
7489, 951, 1006, 1060, 1007
7490, 947, 1001, 999, 950
7491, 964, 962, 1015, 3153
7492, 952, 1008, 1001, 947
7493, 960, 1010, 957, 905
7494, 953, 1009, 1000, 946
7495, 1103, 1058, 1101, 1140
7496, 959, 904, 1014, 1068
7497, 1108, 3157, 38, 666
7498, 1066, 1010, 960, 1018
7499, 948, 994, 1005, 5326
7500, 1012, 1015, 962, 955
7501, 965, 907, 910, 348
7502, 5439, 965, 348, 1110
7503, 1017, 964, 3153, 371
7504, 909, 906, 964, 1017
7505, 963, 1016, 1013, 956
7506, 3122, 966, 1062, 3413
7507, 1020, 969, 967, 1019
7508, 5342, 971, 916, 917
7509, 5325, 1042, 1054, 994
7510, 916, 971, 972, 914
7511, 945, 920, 997, 5325
7512, 5341, 914, 972, 1048
7513, 1022, 975, 974, 5425
7514, 975, 1022, 1023, 977
7515, 928, 977, 978, 930
7516, 5364, 998, 5436, 938
7517, 977, 1023, 1024, 978
7518, 979, 930, 978, 1026
7519, 980, 873, 981, 1025
7520, 1075, 1029, 979, 1026
7521, 1112, 1025, 1113, 1148
7522, 935, 982, 5321, 872
7523, 987, 943, 944, 988
7524, 983, 985, 1031, 1079
7525, 1072, 934, 871, 1029
7526, 5327, 1044, 984, 5321
7527, 985, 986, 1032, 1031
7528, 987, 1033, 1032, 986
7529, 988, 1034, 1033, 987
7530, 1039, 1084, 1045, 993
7531, 929, 932, 992, 991
7532, 989, 991, 1041, 1038
7533, 991, 992, 1043, 1041
7534, 992, 1036, 1086, 1043
7535, 936, 993, 996, 5337
7536, 5561, 5436, 998, 1049
7537, 1049, 998, 1004, 1051
7538, 1084, 1039, 1038, 1119
7539, 949, 1003, 5360, 1002
7540, 997, 920, 970, 5344
7541, 1021, 1094, 971, 5342
7542, 1051, 1004, 999, 1052
7543, 1022, 1078, 1069, 1023
7544, 1009, 953, 957, 1055
7545, 5684, 5561, 1049, 1121
7546, 1002, 5360, 1053, 5388
7547, 5361, 5324, 949, 1002
7548, 1005, 994, 1054, 5352
7549, 5326, 1011, 5317, 961
7550, 1060, 1006, 5388, 1102
7551, 1012, 1007, 1061, 1065
7552, 1001, 1056, 1052, 999
7553, 1055, 957, 1010, 1106
7554, 1047, 1000, 1009, 1057
7555, 1059, 5338, 1058, 1103
7556, 1016, 963, 965, 5439
7557, 1013, 1067, 1063, 1008
7558, 1059, 958, 1011, 5338
7559, 1185, 1064, 1145, 1220
7560, 3197, 5447, 3395, 325
7561, 1067, 1013, 1016, 1109
7562, 3390, 3125, 381, 1066
7563, 1155, 1166, 1129, 1157
7564, 1019, 983, 1079, 1020
7565, 5344, 1048, 1096, 1042
7566, 1094, 5356, 972, 971
7567, 5424, 1037, 5425, 974
7568, 1069, 1070, 1024, 1023
7569, 1026, 978, 1024, 1071
7570, 1124, 1028, 5336, 1160
7571, 1080, 5328, 1154, 1120
7572, 1029, 1075, 1126, 1072
7573, 1025, 1112, 1123, 980
7574, 1000, 1047, 1034, 988
7575, 1074, 1032, 1033, 5619
7576, 1047, 5623, 5678, 1034
7577, 1116, 1129, 1077, 1083
7578, 5561, 1046, 995, 5436
7579, 1081, 1037, 1040, 1035
7580, 984, 1044, 5328, 1080
7581, 1082, 5425, 1037, 1081
7582, 973, 1040, 1037, 5424
7583, 1137, 5490, 1161, 1169
7584, 1050, 996, 993, 1045
7585, 1041, 1043, 1172, 1119
7586, 1080, 1120, 1036, 990
7587, 1043, 1086, 1135, 1172
7588, 1044, 5327, 1088, 1122
7589, 1089, 1045, 1084, 5490
7590, 1003, 996, 1050, 5360
7591, 1074, 1077, 1127, 5438
7592, 1118, 1082, 1081, 1087
7593, 1045, 1089, 5392, 1050
7594, 1087, 1081, 1035, 1090
7595, 1056, 1001, 1008, 1063
7596, 1091, 1121, 1049, 1051
7597, 5392, 1089, 5490, 1137
7598, 1102, 5388, 1053, 1095
7599, 1092, 1101, 1054, 1042
7600, 5352, 1058, 5338, 1005
7601, 1057, 1009, 1055, 1139
7602, 1093, 1091, 1051, 1052
7603, 5619, 1083, 1077, 1074
7604, 1144, 1103, 1140, 1179
7605, 1181, 1105, 1144, 1217
7606, 1064, 958, 1059, 1105
7607, 1060, 1104, 1061, 1007
7608, 3143, 371, 3396, 3619
7609, 1067, 1100, 5683, 1063
7610, 1220, 1145, 1218, 1253
7611, 1107, 1065, 1147, 3137
7612, 1107, 3137, 3129, 5413
7613, 347, 1100, 1067, 1109
7614, 1078, 1022, 5425, 1082
7615, 1111, 1070, 1069, 5488
7616, 1070, 1111, 1150, 1114
7617, 1071, 1024, 1070, 1114
7618, 1075, 1114, 1163, 1126
7619, 1152, 1076, 1030, 1123
7620, 1028, 934, 1072, 5336
7621, 1113, 1073, 1149, 1195
7622, 1025, 981, 1073, 1113
7623, 5356, 1096, 1048, 972
7624, 1114, 1075, 1026, 1071
7625, 1027, 982, 1076, 1117
7626, 1047, 1057, 1098, 5623
7627, 1046, 5561, 5684, 1090
7628, 5438, 5393, 1079, 1031
7629, 1086, 1036, 1120, 1135
7630, 5623, 1098, 1162, 1131
7631, 1173, 1202, 5427, 1130
7632, 5490, 1084, 1119, 1161
7633, 1085, 1158, 1094, 1021
7634, 1021, 5355, 5393, 1085
7635, 1164, 5488, 1115, 1151
7636, 1154, 5328, 1196, 1205
7637, 1102, 1143, 1104, 1060
7638, 1095, 1053, 5392, 1137
7639, 1052, 1056, 1099, 1093
7640, 1115, 1082, 1118, 1151
7641, 5683, 1100, 1142, 5751
7642, 5427, 1128, 1096, 5356
7643, 1118, 5620, 1168, 1151
7644, 1092, 1042, 1096, 1128
7645, 1139, 1055, 1106, 1184
7646, 1098, 1057, 1097, 1132
7647, 1127, 1166, 1158, 1085
7648, 5683, 1099, 1056, 1063
7649, 1091, 1125, 5620, 1121
7650, 1100, 347, 1141, 1142
7651, 5752, 1093, 1099, 1133
7652, 1134, 1140, 1101, 1092
7653, 1101, 1058, 5352, 1054
7654, 1138, 1104, 1143, 1175
7655, 1218, 1145, 1181, 1250
7656, 1216, 1184, 1106, 381
7657, 3396, 5413, 3129, 3573
7658, 5413, 3396, 371, 3153
7659, 3412, 959, 1068, 335
7660, 1146, 1183, 5615, 1214
7661, 3197, 1287, 1219, 5447
7662, 5488, 1069, 1078, 1115
7663, 1123, 1112, 1159, 1152
7664, 1073, 1028, 1124, 1149
7665, 1126, 1160, 5336, 1072
7666, 1121, 1087, 1090, 5684
7667, 5623, 1131, 1116, 1083
7668, 1152, 1189, 1117, 1076
7669, 1117, 1153, 5339, 1027
7670, 1091, 1093, 5752, 1125
7671, 1087, 1121, 5620, 1118
7672, 1122, 1196, 5328, 1044
7673, 1120, 1154, 1170, 1135
7674, 1168, 5620, 1125, 5641
7675, 5353, 1088, 5339, 1153
7676, 1156, 1122, 1088, 5353
7677, 1112, 1148, 1194, 1159
7678, 1152, 1159, 1186, 1189
7679, 1191, 1221, 1262, 5365
7680, 1125, 5752, 1165, 5641
7681, 1114, 1150, 1193, 1163
7682, 1124, 5358, 1187, 1149
7683, 1130, 1094, 1158, 1173
7684, 1085, 5393, 5438, 1127
7685, 1134, 1092, 1128, 1167
7686, 1127, 1077, 1129, 1166
7687, 1157, 1129, 1116, 1131
7688, 5427, 5356, 1094, 1130
7689, 358, 1300, 1267, 1259
7690, 1097, 1171, 1203, 1132
7691, 1131, 1162, 5632, 1198
7692, 1199, 5641, 1165, 1206
7693, 1190, 1155, 1157, 5497
7694, 1172, 1135, 1204, 5391
7695, 1178, 1175, 1143, 1136
7696, 1102, 1095, 1136, 1143
7697, 1136, 1095, 1137, 1169
7698, 1138, 1281, 1245, 370
7699, 1171, 1097, 1180, 1201
7700, 1097, 1057, 1139, 1180
7701, 1177, 1179, 1140, 1134
7702, 1182, 1141, 1174, 1208
7703, 1146, 347, 1109, 1183
7704, 1182, 1176, 1142, 1141
7705, 5751, 1142, 1176, 1133
7706, 1178, 1136, 1169, 1209
7707, 1105, 1181, 1145, 1064
7708, 1252, 1185, 1220, 1289
7709, 1214, 1243, 1174, 1146
7710, 1281, 1138, 1175, 5526
7711, 3154, 1350, 5700, 391
7712, 1159, 1194, 1224, 1186
7713, 5488, 1164, 5489, 1111
7714, 1126, 1163, 1191, 1160
7715, 1151, 1168, 1188, 1164
7716, 1196, 1122, 1156, 5354
7717, 1156, 5353, 1230, 5390
7718, 1192, 1230, 5353, 1153
7719, 1237, 1196, 5354, 1270
7720, 1202, 1207, 5460, 1167
7721, 1298, 1225, 1256, 1323
7722, 5359, 1256, 1225, 1195
7723, 1209, 1169, 1211, 1239
7724, 1171, 1201, 1259, 1235
7725, 1238, 1190, 5497, 1333
7726, 1221, 1193, 1222, 1269
7727, 1163, 1193, 1221, 1191
7728, 1164, 1188, 1228, 5489
7729, 5641, 1200, 1188, 1168
7730, 1190, 1202, 1173, 1155
7731, 1167, 1128, 5427, 1202
7732, 1177, 1134, 1167, 5460
7733, 1264, 5576, 1200, 1229
7734, 1210, 1178, 1209, 1316
7735, 1161, 5391, 1211, 1169
7736, 1119, 1172, 5391, 1161
7737, 1204, 1135, 1170, 1240
7738, 1173, 1158, 1166, 1155
7739, 1175, 1178, 1210, 5526
7740, 1133, 1176, 1165, 5752
7741, 1177, 5460, 5492, 1215
7742, 1217, 1284, 1250, 1181
7743, 1217, 1144, 1179, 1247
7744, 1214, 5615, 1251, 1313
7745, 1249, 1248, 1184, 1216
7746, 1185, 1252, 1068, 1014
7747, 1231, 1189, 1186, 1260
7748, 1225, 1148, 1113, 1195
7749, 1195, 1149, 1187, 5359
7750, 1222, 1193, 1150, 1197
7751, 1260, 1186, 1224, 1292
7752, 1117, 1189, 1226, 1153
7753, 1207, 1202, 1190, 1238
7754, 1157, 1131, 1198, 5497
7755, 1160, 1191, 5365, 1223
7756, 1306, 1237, 1270, 1335
7757, 5358, 1223, 1265, 1187
7758, 1227, 5359, 1187, 1265
7759, 5430, 1230, 1192, 1261
7760, 1197, 1150, 1111, 5489
7761, 1222, 1197, 5513, 1272
7762, 5633, 5632, 1203, 1235
7763, 1206, 1165, 1176, 1182
7764, 1229, 1200, 5641, 1199
7765, 1235, 1259, 1267, 5633
7766, 1162, 1132, 1203, 5632
7767, 1205, 1236, 1170, 1154
7768, 1212, 1285, 1239, 1211
7769, 1237, 1271, 1205, 1196
7770, 1199, 1234, 1263, 1229
7771, 1244, 1241, 1277, 1274
7772, 1316, 1209, 1239, 369
7773, 1282, 1318, 1210, 1316
7774, 1212, 1211, 5391, 1204
7775, 1240, 1285, 1212, 1204
7776, 1275, 1303, 1233, 1213
7777, 1275, 1213, 1248, 1311
7778, 1314, 1245, 1281, 3161
7779, 1183, 1219, 1287, 5615
7780, 1179, 1177, 1215, 1247
7781, 1254, 1216, 381, 3125
7782, 1280, 1249, 1312, 1345
7783, 1206, 1182, 1208, 1244
7784, 1251, 5615, 1287, 324
7785, 1289, 1220, 1253, 1436
7786, 1296, 5365, 1262, 1331
7787, 5489, 1228, 5513, 1197
7788, 1322, 1265, 1296, 1356
7789, 1226, 1189, 1231, 1266
7790, 1225, 1258, 1194, 1148
7791, 1226, 1257, 1192, 1153
7792, 1223, 5365, 1296, 1265
7793, 1272, 1264, 1304, 1302
7794, 1234, 1199, 1206, 1244
7795, 1332, 1260, 1292, 1354
7796, 1238, 1333, 1268, 5558
7797, 1232, 1198, 5632, 5633
7798, 1201, 1180, 1233, 1273
7799, 1234, 1244, 1274, 1263
7800, 1259, 1201, 1273, 358
7801, 1240, 5426, 1317, 1285
7802, 1240, 1170, 1236, 5426
7803, 5431, 5432, 1270, 5390
7804, 1242, 1207, 1238, 5558
7805, 1271, 1278, 1236, 1205
7806, 1208, 1243, 1276, 1241
7807, 1242, 1307, 5584, 5492
7808, 1313, 1276, 1243, 1214
7809, 1147, 370, 1245, 3137
7810, 1283, 3161, 1281, 1246
7811, 1215, 5492, 5584, 1279
7812, 1303, 1275, 1337, 1328
7813, 1311, 1248, 1249, 1280
7814, 1249, 1216, 1254, 1312
7815, 1280, 1345, 5649, 1341
7816, 1284, 1217, 1247, 1315
7817, 1349, 1286, 1319, 1408
7818, 1251, 3160, 1406, 1313
7819, 1313, 1406, 1378, 1276
7820, 3151, 1252, 1289, 3123
7821, 335, 1068, 1252, 3151
7822, 1218, 1250, 1319, 1286
7823, 1461, 1312, 1254, 3130
7824, 5329, 3391, 5366, 1290
7825, 1294, 1261, 1257, 1299
7826, 1297, 1325, 1266, 1231
7827, 358, 1321, 1330, 1300
7828, 1297, 1231, 1260, 1332
7829, 5390, 1230, 5430, 5431
7830, 1269, 1302, 1326, 1295
7831, 1295, 1262, 1221, 1269
7832, 1272, 1302, 1269, 1222
7833, 5576, 1264, 1272, 5513
7834, 1264, 1229, 1263, 1304
7835, 1265, 1322, 1293, 1227
7836, 1257, 1226, 1266, 1299
7837, 1232, 1329, 1268, 1333
7838, 1232, 5633, 1267, 1329
7839, 1339, 1317, 1278, 1310
7840, 1270, 5354, 1156, 5390
7841, 1306, 1338, 1271, 1237
7842, 5575, 1336, 1302, 1304
7843, 1328, 1321, 1291, 1303
7844, 1233, 1303, 1291, 1273
7845, 1342, 1241, 1276, 1378
7846, 1277, 5723, 1309, 1274
7847, 5426, 1236, 1278, 1317
7848, 1367, 1343, 1307, 1362
7849, 1247, 1215, 1279, 1315
7850, 1311, 1280, 1341, 1370
7851, 5642, 1283, 1246, 1318
7852, 1350, 5591, 1314, 5700
7853, 1282, 1346, 1347, 1379
7854, 369, 1239, 1285, 1317
7855, 1319, 1250, 1284, 1348
7856, 1405, 1349, 1408, 1420
7857, 5447, 1219, 1110, 348
7858, 1288, 3155, 742, 741
7859, 348, 910, 1290, 5366
7860, 358, 1273, 1291, 1321
7861, 1298, 1327, 1258, 1225
7862, 1325, 1297, 1352, 1389
7863, 1351, 1293, 1322, 1388
7864, 1323, 1227, 1293, 1351
7865, 1294, 1299, 1359, 1324
7866, 1331, 1262, 1295, 1363
7867, 1363, 1295, 1326, 1385
7868, 1325, 1359, 1299, 1266
7869, 1357, 1298, 1323, 5428
7870, 1361, 1330, 1321, 1328
7871, 5431, 1301, 1358, 5432
7872, 1329, 1267, 1300, 1362
7873, 1337, 1275, 1311, 1370
7874, 1369, 1361, 1328, 1337
7875, 1305, 5575, 1274, 1309
7876, 1383, 1331, 1363, 1411
7877, 1338, 1306, 1355, 1360
7878, 5584, 1307, 1343, 1279
7879, 1277, 1308, 1340, 5723
7880, 1309, 346, 1334, 1305
7881, 1317, 1339, 1344, 369
7882, 1310, 1278, 1271, 1338
7883, 1375, 5649, 1399, 1428
7884, 5768, 3173, 5788, 3398
7885, 1367, 1362, 1300, 1330
7886, 1316, 369, 1346, 1282
7887, 5642, 1318, 1282, 1379
7888, 1348, 1284, 1315, 1377
7889, 1320, 1286, 1349, 1381
7890, 1433, 1381, 1431, 1460
7891, 1404, 1320, 1381, 1433
7892, 324, 3429, 3147, 3400
7893, 1331, 1383, 1356, 1296
7894, 1357, 5428, 1386, 1413
7895, 1323, 1256, 5359, 1227
7896, 1335, 1358, 1414, 1390
7897, 1327, 1354, 1292, 1258
7898, 1447, 1467, 1446, 1414
7899, 1302, 1336, 1353, 1326
7900, 1387, 1371, 1343, 1367
7901, 1387, 1367, 1330, 1361
7902, 1441, 1423, 1392, 1422
7903, 1468, 1352, 1382, 1438
7904, 1352, 1297, 1332, 1382
7905, 1198, 1232, 1333, 5497
7906, 1368, 1305, 1334, 1392
7907, 1398, 346, 1364, 5769
7908, 5575, 1304, 1263, 1274
7909, 1305, 1368, 1336, 5575
7910, 1355, 1306, 1335, 1390
7911, 1310, 1338, 1360, 1400
7912, 1339, 1310, 1400, 1374
7913, 1364, 5776, 1396, 5769
7914, 1364, 5723, 1340, 5776
7915, 1377, 1393, 1427, 1407
7916, 1365, 1342, 1378, 1401
7917, 1308, 1277, 1241, 1342
7918, 1279, 1343, 1371, 1315
7919, 1372, 1376, 1402, 1434
7920, 1373, 1345, 1312, 1461
7921, 1373, 1399, 5649, 1345
7922, 1376, 1346, 369, 1344
7923, 1409, 1347, 1372, 1527
7924, 1380, 1408, 1319, 1348
7925, 1459, 1405, 1420, 1492
7926, 3129, 1350, 3154, 3573
7927, 1350, 3129, 3137, 5591
7928, 1388, 1356, 1383, 1419
7929, 1352, 1468, 1443, 1389
7930, 1385, 1326, 1353, 5570
7931, 1357, 1384, 1327, 1298
7932, 1354, 1327, 1384, 1412
7933, 1394, 1355, 1390, 1424
7934, 1391, 1324, 1359, 1418
7935, 1414, 1358, 1391, 1447
7936, 1389, 1418, 1359, 1325
7937, 1400, 1360, 1415, 1421
7938, 1395, 1387, 1361, 1369
7939, 1268, 1362, 1307, 5558
7940, 5570, 1353, 1336, 1368
7941, 1363, 1385, 5560, 1411
7942, 5723, 1364, 346, 1309
7943, 1396, 1435, 1426, 5769
7944, 1410, 1351, 1388, 1442
7945, 1366, 1334, 346, 1398
7946, 1334, 1366, 1422, 1392
7947, 1393, 1371, 1387, 1395
7948, 1375, 1397, 1341, 5649
7949, 1483, 1500, 1541, 5748
7950, 1377, 1315, 1371, 1393
7951, 1403, 1402, 1376, 1344
7952, 1372, 1434, 5762, 1527
7953, 1399, 1373, 1432, 1457
7954, 1344, 1339, 1374, 1403
7955, 5720, 1416, 1449, 1369
7956, 1396, 1365, 1401, 1435
7957, 1348, 1377, 1407, 1380
7958, 1381, 1349, 1405, 1431
7959, 1459, 1490, 1431, 1405
7960, 1498, 1531, 1468, 1438
7961, 1413, 1439, 1384, 1357
7962, 1368, 1392, 1423, 5570
7963, 1386, 5487, 1440, 1475
7964, 1390, 1414, 1446, 1424
7965, 1447, 1391, 1418, 1480
7966, 1324, 1391, 1358, 1301
7967, 1366, 1398, 5681, 1422
7968, 5560, 1454, 1445, 1411
7969, 1449, 1417, 1395, 1369
7970, 5706, 1450, 5748, 1481
7971, 5720, 1369, 1337, 1370
7972, 1370, 1341, 1397, 5720
7973, 1444, 1394, 1424, 1479
7974, 1360, 1355, 1394, 1415
7975, 5805, 1489, 1464, 5779
7976, 5769, 1426, 5749, 1453
7977, 1397, 1375, 1425, 1450
7978, 1481, 5728, 1451, 5706
7979, 1422, 5681, 1482, 1441
7980, 1375, 1428, 1452, 1425
7981, 1401, 5680, 1437, 1435
7982, 1434, 1402, 1465, 5686
7983, 1421, 1429, 1374, 1400
7984, 1429, 1430, 1403, 1374
7985, 1254, 3125, 3504, 3130
7986, 1432, 1373, 1461, 1494
7987, 1463, 1404, 1433, 1495
7988, 1404, 1463, 1466, 1436
7989, 1460, 1431, 1490, 1521
7990, 323, 5680, 1406, 3160
7991, 1420, 1408, 1380, 1458
7992, 1409, 390, 5788, 3173
7993, 1412, 1438, 1382, 1354
7994, 1413, 1386, 1475, 5504
7995, 5428, 1410, 5487, 1386
7996, 1419, 1383, 1411, 1445
7997, 1412, 1384, 1439, 1474
7998, 1415, 1394, 1444, 1448
7999, 1416, 5720, 1397, 1450
8000, 1451, 1417, 1449, 5706
8001, 1393, 1395, 1417, 1427
8002, 1504, 1443, 1468, 1531
8003, 1410, 1442, 1472, 5487
8004, 1442, 1388, 1419, 1471
8005, 1407, 1455, 1458, 1380
8006, 1448, 1456, 1421, 1415
8007, 1398, 5769, 1453, 5681
8008, 1454, 1473, 1502, 1445
8009, 5570, 1423, 5560, 1385
8010, 1424, 1446, 1469, 1479
8011, 1492, 1420, 1458, 1519
8012, 5749, 5779, 1485, 5708
8013, 1452, 1476, 1505, 1470
8014, 1456, 1462, 1429, 1421
8015, 1493, 1462, 1516, 1553
8016, 1402, 1403, 1430, 1465
8017, 1491, 1432, 1494, 1524
8018, 1428, 1399, 1457, 1487
8019, 1495, 1433, 1460, 1525
8020, 1497, 1559, 5762, 5686
8021, 5680, 1401, 1378, 1406
8022, 1436, 1466, 3123, 1289
8023, 1489, 1588, 1554, 1523
8024, 1474, 1439, 1503, 1537
8025, 5504, 1503, 1439, 1413
8026, 1472, 1534, 1440, 5487
8027, 1471, 1419, 1445, 1502
8028, 1442, 1471, 1501, 1472
8029, 1504, 1543, 1480, 1443
8030, 1418, 1389, 1443, 1480
8031, 1477, 1444, 1479, 1506
8032, 1446, 1467, 5582, 1469
8033, 1447, 1480, 1507, 1467
8034, 1477, 1484, 1448, 1444
8035, 1483, 1425, 1452, 1470
8036, 1427, 5618, 1455, 1407
8037, 1427, 1417, 1451, 5618
8038, 1476, 1452, 1428, 1487
8039, 1471, 1502, 1532, 1501
8040, 1423, 1441, 1454, 5560
8041, 1473, 1454, 1441, 1482
8042, 1478, 1488, 1455, 5618
8043, 1484, 1486, 1456, 1448
8044, 1514, 1487, 5740, 1542
8045, 1458, 1455, 1488, 1519
8046, 1490, 1520, 1550, 1521
8047, 1560, 1494, 1461, 3130
8048, 1465, 1430, 1493, 5685
8049, 1430, 1429, 1462, 1493
8050, 1529, 1463, 1495, 1556
8051, 1496, 1466, 1463, 1529
8052, 1464, 1518, 1485, 5779
8053, 5685, 1493, 1553, 1526
8054, 336, 3123, 1466, 1496
8055, 1469, 5582, 1510, 1499
8056, 1474, 1498, 1438, 1412
8057, 1499, 1506, 1479, 1469
8058, 1511, 5764, 1478, 5728
8059, 1472, 1501, 5562, 1534
8060, 1571, 1596, 1537, 1503
8061, 1540, 5504, 1475, 1569
8062, 1470, 1505, 1500, 1483
8063, 1511, 1509, 1541, 1565
8064, 1499, 1510, 1535, 1533
8065, 5708, 1485, 5778, 1512
8066, 1547, 1548, 1512, 5778
8067, 1425, 1483, 5748, 1450
8068, 1508, 1517, 1484, 1477
8069, 1473, 5647, 1513, 1502
8070, 5779, 5749, 1426, 5805
8071, 1516, 1486, 1546, 1581
8072, 1462, 1456, 1486, 1516
8073, 1549, 1492, 1519, 1536
8074, 1489, 1435, 1437, 1588
8075, 1523, 1554, 5800, 1584
8076, 1520, 1490, 1459, 1522
8077, 1544, 1582, 1520, 1522
8078, 1497, 5685, 1526, 1558
8079, 1528, 1524, 1494, 1560
8080, 1525, 1460, 1521, 1555
8081, 1527, 5762, 1559, 3387
8082, 1499, 1533, 5694, 1506
8083, 1565, 1541, 1500, 1530
8084, 1501, 1532, 1567, 5562
8085, 1513, 5647, 1512, 1548
8086, 5647, 5677, 5708, 1512
8087, 1440, 1534, 1569, 1475
8088, 1537, 1562, 1498, 1474
8089, 1572, 1504, 1531, 1593
8090, 1561, 1563, 5829, 1514
8091, 5694, 1533, 5757, 1545
8092, 1477, 1506, 5694, 1508
8093, 1507, 1480, 1543, 1566
8094, 1507, 1538, 5582, 1467
8095, 1509, 1511, 5728, 1481
8096, 1509, 1481, 5748, 1541
8097, 1538, 1568, 1510, 5582
8098, 1591, 1570, 1565, 1530
8099, 5855, 5778, 1485, 1518
8100, 1532, 1502, 1513, 1574
8101, 1476, 1487, 1514, 5829
8102, 1551, 1579, 1515, 1491
8103, 1457, 1515, 5740, 1487
8104, 1516, 1581, 5715, 1553
8105, 1576, 1517, 1545, 1603
8106, 1486, 1484, 1517, 1546
8107, 1464, 1489, 1523, 5847
8108, 5862, 5855, 1518, 1552
8109, 1536, 1519, 5764, 1570
8110, 1522, 1459, 1492, 1549
8111, 1522, 1549, 1577, 1544
8112, 5847, 1584, 1616, 1552
8113, 1645, 1671, 1700, 5742
8114, 1590, 1617, 1674, 5486
8115, 1589, 1558, 1526, 1640
8116, 390, 1409, 1527, 3387
8117, 1585, 1551, 5616, 1614
8118, 1590, 1529, 1556, 1617
8119, 1500, 1505, 5846, 1530
8120, 1549, 1536, 1575, 1577
8121, 1592, 1566, 1620, 1633
8122, 1573, 5802, 1539, 1564
8123, 1564, 1539, 1535, 1600
8124, 1595, 1534, 5562, 1623
8125, 1538, 1507, 1566, 1592
8126, 1539, 5757, 1533, 1535
8127, 1563, 1561, 359, 5857
8128, 1505, 1476, 5829, 5846
8129, 5764, 1519, 1488, 1478
8130, 1511, 1565, 1570, 5764
8131, 1540, 1571, 1503, 5504
8132, 1630, 1655, 1596, 1571
8133, 1508, 5694, 1545, 1517
8134, 1599, 1540, 1569, 1626
8135, 1601, 1604, 1544, 1577
8136, 1561, 1514, 1542, 1578
8137, 1562, 1593, 1531, 1498
8138, 1568, 1538, 1592, 5626
8139, 1597, 1619, 1578, 1542
8140, 1550, 1520, 1582, 1611
8141, 1546, 1517, 1576, 1607
8142, 368, 1581, 1546, 1607
8143, 1574, 1513, 1548, 5709
8144, 1548, 1547, 1580, 5709
8145, 1628, 5777, 1610, 1664
8146, 1551, 1585, 1612, 1579
8147, 1610, 1583, 5862, 5877
8148, 5847, 1552, 1518, 1464
8149, 1637, 1667, 1598, 368
8150, 1640, 1526, 1553, 5715
8151, 5800, 1554, 322, 1672
8152, 1521, 1550, 1586, 1555
8153, 1555, 1615, 1587, 1525
8154, 1529, 1590, 1557, 1496
8155, 1557, 5485, 3121, 3144
8156, 3148, 3392, 1558, 1589
8157, 3389, 3427, 5496, 3408
8158, 1602, 1620, 1566, 1543
8159, 1530, 5846, 1563, 5857
8160, 1564, 1600, 1625, 1605
8161, 1570, 1591, 1575, 1536
8162, 1572, 1602, 1543, 1504
8163, 1646, 1567, 1606, 1636
8164, 1623, 5562, 1567, 1646
8165, 1568, 1600, 1535, 1510
8166, 1595, 1626, 1569, 1534
8167, 1596, 1621, 1562, 1537
8168, 5859, 1573, 1605, 1653
8169, 1574, 1606, 1567, 1532
8170, 5709, 1580, 5777, 1594
8171, 1608, 1601, 1577, 1575
8172, 1603, 1545, 5802, 5845
8173, 5741, 1579, 1612, 1635
8174, 1743, 1692, 1725, 1771
8175, 5741, 5740, 1515, 1579
8176, 1659, 1594, 5777, 1628
8177, 1629, 1647, 1619, 1648
8178, 1604, 1634, 1582, 1544
8179, 5855, 1583, 1547, 5778
8180, 5877, 1609, 1664, 1610
8181, 5800, 1643, 1616, 1584
8182, 1609, 1552, 1616, 1642
8183, 1524, 1528, 5542, 5616
8184, 1612, 1585, 1639, 1663
8185, 1611, 1638, 1586, 1550
8186, 1613, 1615, 1555, 1586
8187, 1641, 1669, 1615, 1613
8188, 3394, 1437, 5680, 323
8189, 1554, 1588, 3510, 322
8190, 1850, 1917, 1918, 1883
8191, 1590, 5486, 5485, 1557
8192, 1617, 1556, 1587, 1644
8193, 3595, 3144, 3121, 3456
8194, 1632, 5857, 359, 1647
8195, 1631, 1572, 1593, 1649
8196, 1633, 1650, 5626, 1592
8197, 1600, 5626, 1650, 1625
8198, 1636, 1606, 1594, 1659
8199, 5709, 1594, 1606, 1574
8200, 1599, 1630, 1571, 1540
8201, 1745, 1774, 1714, 1687
8202, 5741, 1597, 1542, 5740
8203, 368, 1607, 1624, 1637
8204, 5787, 1598, 1667, 1728
8205, 1660, 1599, 1626, 1684
8206, 1619, 1647, 359, 1578
8207, 1652, 1633, 1620, 1679
8208, 1573, 5859, 5845, 5802
8209, 1607, 1576, 1622, 1624
8210, 1627, 1668, 1604, 1601
8211, 5845, 5859, 1651, 1603
8212, 1622, 1576, 1603, 1651
8213, 1575, 1591, 1632, 1608
8214, 1530, 5857, 1632, 1591
8215, 345, 1664, 1609, 1642
8216, 1636, 1675, 1706, 1646
8217, 1583, 1610, 5777, 1580
8218, 1634, 1662, 1611, 1582
8219, 1627, 1629, 1691, 1668
8220, 5602, 1671, 1645, 1614
8221, 1645, 1639, 1585, 1614
8222, 1644, 1669, 1702, 1670
8223, 1616, 1643, 1665, 1642
8224, 1674, 1670, 1704, 5538
8225, 1762, 1672, 322, 5798
8226, 1701, 1672, 1762, 1734
8227, 337, 3121, 5485, 1618
8228, 1670, 1674, 1617, 1644
8229, 1629, 1627, 1601, 1608
8230, 1657, 1648, 1619, 1597
8231, 1621, 1649, 1593, 1562
8232, 1677, 1650, 1633, 1652
8233, 1620, 1602, 1658, 1679
8234, 1595, 1623, 5682, 1690
8235, 1624, 1622, 1656, 1661
8236, 1605, 1625, 1688, 1653
8237, 1625, 1650, 1677, 1688
8238, 1651, 5859, 1680, 1686
8239, 5801, 5750, 1676, 1710
8240, 1663, 1692, 1635, 1612
8241, 1676, 1628, 1664, 1683
8242, 1608, 1632, 1647, 1629
8243, 5682, 1706, 5753, 1690
8244, 1631, 1658, 1602, 1572
8245, 5875, 5867, 1668, 1720
8246, 1675, 1636, 1659, 5750
8247, 1728, 1667, 5871, 5872
8248, 1641, 1613, 1666, 1695
8249, 1613, 1586, 1638, 1666
8250, 1639, 5743, 1696, 1663
8251, 1641, 1698, 1730, 1669
8252, 1682, 1642, 1665, 5898
8253, 1621, 1596, 1655, 1678
8254, 1656, 1622, 1651, 1686
8255, 1685, 1707, 1658, 1631
8256, 1707, 1685, 1739, 1763
8257, 1687, 1714, 1655, 1630
8258, 1654, 1682, 1711, 5897
8259, 1660, 1687, 1630, 1599
8260, 1635, 1657, 1597, 5741
8261, 1720, 1668, 1691, 1727
8262, 1685, 1631, 1649, 1712
8263, 1678, 1712, 1649, 1621
8264, 1683, 1713, 1710, 1676
8265, 5876, 1681, 1713, 1683
8266, 1667, 1637, 1697, 5871
8267, 1637, 1624, 1661, 1697
8268, 1638, 1611, 1662, 1694
8269, 1604, 1668, 5867, 1634
8270, 1722, 1694, 1693, 1724
8271, 5876, 1683, 1664, 345
8272, 1701, 1721, 1665, 1643
8273, 1694, 1722, 1666, 1638
8274, 1785, 1728, 5872, 5885
8275, 1698, 1641, 1695, 1726
8276, 1730, 1759, 1702, 1669
8277, 5601, 1854, 1922, 1888
8278, 5602, 5542, 5541, 1703
8279, 1671, 382, 1733, 1700
8280, 1818, 1758, 1846, 1884
8281, 1729, 1696, 5743, 1673
8282, 1645, 5742, 5743, 1639
8283, 5538, 1705, 5486, 1674
8284, 1742, 1776, 1715, 5753
8285, 1659, 1628, 1676, 5750
8286, 1809, 1736, 1709, 1741
8287, 1707, 1738, 1679, 1658
8288, 1652, 1679, 1738, 1708
8289, 1653, 1688, 1747, 1716
8290, 1719, 1718, 1686, 1680
8291, 1642, 1682, 1654, 345
8292, 1660, 1684, 1715, 5754
8293, 1690, 1684, 1626, 1595
8294, 1685, 1712, 1768, 1739
8295, 1677, 1652, 1708, 1717
8296, 5895, 1656, 1686, 1718
8297, 1829, 1800, 5755, 1763
8298, 1688, 1677, 1717, 1747
8299, 5894, 1697, 1661, 1689
8300, 1689, 1661, 1656, 5895
8301, 1691, 1648, 1657, 1727
8302, 1635, 1692, 1727, 1657
8303, 1663, 1696, 1725, 1692
8304, 1662, 5867, 1693, 1694
8305, 1695, 1666, 1722, 1750
8306, 1722, 1753, 1779, 1750
8307, 1697, 5894, 1723, 5871
8308, 1699, 5787, 1728, 1757
8309, 1730, 1698, 1754, 1787
8310, 1754, 1698, 1726, 1782
8311, 1883, 1699, 1757, 1850
8312, 1751, 1673, 1731, 1786
8313, 1758, 1721, 1701, 1734
8314, 1704, 1732, 1760, 5601
8315, 1703, 382, 1671, 5602
8316, 5459, 1528, 1560, 3508
8317, 1670, 1702, 1732, 1704
8318, 3126, 1888, 1922, 1993
8319, 1618, 1705, 3126, 337
8320, 5486, 1705, 1618, 5485
8321, 1675, 1709, 1736, 1706
8322, 1765, 1801, 1747, 1717
8323, 1709, 1675, 5750, 5801
8324, 1709, 5801, 1710, 1741
8325, 1737, 1681, 5897, 1711
8326, 1804, 1737, 1772, 1838
8327, 1678, 1655, 1714, 1735
8328, 1735, 1768, 1712, 1678
8329, 1777, 1832, 1806, 1741
8330, 1710, 1713, 1777, 1741
8331, 5754, 1745, 1687, 1660
8332, 1776, 5803, 5754, 1715
8333, 1736, 1742, 5753, 1706
8334, 1740, 1770, 1719, 1680
8335, 1653, 1716, 1680, 5859
8336, 1765, 1769, 1795, 1825
8337, 1773, 5950, 5917, 1744
8338, 1689, 5895, 1718, 5917
8339, 1740, 1680, 1716, 1766
8340, 1783, 1721, 1758, 1818
8341, 1721, 5911, 5898, 1665
8342, 1726, 1695, 1750, 1780
8343, 1755, 5872, 5871, 1723
8344, 1720, 1743, 1749, 5875
8345, 1696, 1729, 1752, 1725
8346, 1727, 1692, 1743, 1720
8347, 1849, 1785, 5885, 1848
8348, 5742, 1731, 1673, 5743
8349, 1729, 1767, 1781, 1752
8350, 1732, 1702, 1759, 1789
8351, 1775, 1751, 1786, 5884
8352, 1767, 1751, 1775, 1807
8353, 1817, 1756, 1788, 1852
8354, 1734, 1762, 1790, 1890
8355, 1707, 1763, 5755, 1738
8356, 1713, 1681, 1737, 1777
8357, 1711, 1748, 1772, 1737
8358, 1769, 1708, 1738, 5755
8359, 1763, 1739, 1796, 1829
8360, 1860, 1794, 1793, 1840
8361, 1766, 1716, 1747, 1801
8362, 5753, 1715, 1684, 1690
8363, 5944, 5917, 5950, 1746
8364, 1718, 1719, 1744, 5917
8365, 1776, 1742, 1764, 1842
8366, 1784, 1755, 1723, 1746
8367, 1723, 5894, 5944, 1746
8368, 1765, 1717, 1708, 1769
8369, 1748, 5924, 1814, 1772
8370, 1682, 5898, 1748, 1711
8371, 1693, 1749, 1778, 1724
8372, 5875, 1749, 1693, 5867
8373, 1753, 1722, 1724, 1778
8374, 1805, 1779, 1792, 1826
8375, 1673, 1751, 1767, 1729
8376, 1835, 1802, 1808, 1833
8377, 1771, 1778, 1749, 1743
8378, 1779, 1753, 1811, 1792
8379, 1782, 1726, 1780, 1813
8380, 1816, 1754, 1782, 1843
8381, 1757, 1728, 1785, 1820
8382, 1807, 1775, 1815, 1861
8383, 1700, 1756, 1731, 5742
8384, 1850, 1757, 1820, 1882
8385, 1760, 1732, 1789, 1822
8386, 1922, 1854, 1919, 1994
8387, 1889, 1823, 1920, 1958
8388, 1762, 5798, 3393, 1790
8389, 1796, 1739, 1768, 1830
8390, 1769, 5755, 1800, 1795
8391, 1764, 1742, 1736, 1809
8392, 1836, 1809, 1741, 1806
8393, 1770, 1740, 1793, 1794
8394, 1766, 1824, 1793, 1740
8395, 1798, 1781, 1767, 1807
8396, 1735, 1714, 1774, 1797
8397, 1744, 1719, 1770, 5916
8398, 1771, 1808, 1802, 1778
8399, 1794, 1827, 5916, 1770
8400, 1799, 5966, 1837, 1773
8401, 1786, 1731, 1756, 1817
8402, 1836, 1806, 1832, 1857
8403, 1834, 1805, 1826, 1863
8404, 1843, 1782, 1813, 1872
8405, 1845, 1783, 1818, 1879
8406, 1783, 5924, 5911, 1721
8407, 1746, 5950, 1812, 1784
8408, 1848, 5885, 1819, 1878
8409, 1755, 1784, 1847, 1819
8410, 1881, 1849, 5938, 1954
8411, 1817, 1844, 5884, 1786
8412, 1759, 1730, 1787, 1821
8413, 1852, 1788, 1823, 1889
8414, 5652, 1887, 1921, 1886
8415, 1913, 1846, 1890, 1952
8416, 5628, 3141, 5760, 3415
8417, 1811, 1753, 1778, 1802
8418, 1863, 1826, 5909, 1858
8419, 1801, 1765, 1825, 1864
8420, 1799, 5916, 1827, 1865
8421, 1744, 5916, 1799, 1773
8422, 1768, 1735, 1797, 1830
8423, 1874, 1803, 1836, 1857
8424, 1870, 1804, 1838, 1902
8425, 5908, 1792, 1811, 1828
8426, 1829, 1866, 1841, 1800
8427, 1824, 1766, 1801, 1864
8428, 1808, 1752, 1781, 1833
8429, 5803, 1810, 1745, 5754
8430, 1842, 1764, 1803, 1874
8431, 1777, 1737, 1804, 1832
8432, 1838, 1772, 1814, 1875
8433, 1780, 1750, 1779, 1805
8434, 1803, 1764, 1809, 1836
8435, 1781, 1798, 1859, 1833
8436, 1810, 1839, 1774, 1745
8437, 1808, 1771, 1725, 1752
8438, 1813, 1834, 1868, 1872
8439, 1895, 1940, 1900, 1856
8440, 1909, 1843, 1872, 1939
8441, 1807, 1861, 1831, 1798
8442, 1821, 1787, 1851, 1885
8443, 1787, 1754, 1816, 1851
8444, 1844, 1817, 1852, 1914
8445, 1846, 1758, 1734, 1890
8446, 1784, 1812, 1876, 1847
8447, 1878, 1819, 1847, 1911
8448, 1882, 1820, 1881, 1912
8449, 1822, 1789, 1853, 5785
8450, 5770, 1991, 1919, 1886
8451, 1854, 5652, 1886, 1919
8452, 1761, 1791, 5760, 1855
8453, 1840, 1862, 1932, 1906
8454, 1840, 1793, 1824, 1862
8455, 1795, 1800, 1841, 1869
8456, 1840, 1906, 5949, 1860
8457, 1835, 1828, 1811, 1802
8458, 1891, 1835, 1833, 1859
8459, 1796, 1830, 1895, 1856
8460, 1829, 1796, 1856, 1866
8461, 1892, 1905, 1873, 1874
8462, 360, 1859, 1798, 1831
8463, 5848, 1873, 1810, 5803
8464, 1834, 1813, 1780, 1805
8465, 1901, 1837, 5966, 5986
8466, 1773, 1837, 1812, 5950
8467, 1875, 1814, 1845, 1910
8468, 1839, 1867, 1797, 1774
8469, 1824, 1864, 1898, 1862
8470, 1869, 1893, 1825, 1795
8471, 5965, 5952, 1894, 1931
8472, 1842, 5848, 5803, 1776
8473, 1924, 1925, 1896, 5914
8474, 1877, 1903, 1815, 5900
8475, 5925, 1939, 1872, 1868
8476, 5884, 1844, 5913, 5900
8477, 1937, 1927, 1899, 1870
8478, 1845, 1814, 5924, 1783
8479, 1876, 1812, 1837, 1901
8480, 1878, 1908, 1871, 1848
8481, 1849, 1848, 1871, 5938
8482, 1820, 1785, 1849, 1881
8483, 1917, 1850, 1882, 1953
8484, 3148, 1883, 1918, 5899
8485, 1853, 1821, 1885, 5825
8486, 1914, 1852, 1889, 5882
8487, 5786, 1956, 1921, 1887
8488, 3126, 1993, 3407, 337
8489, 5652, 1760, 1822, 1887
8490, 3141, 3140, 1855, 5760
8491, 1920, 1855, 3140, 383
8492, 1830, 1797, 1867, 1895
8493, 1892, 1874, 1857, 1899
8494, 1891, 1859, 360, 1924
8495, 1827, 1794, 1860, 5952
8496, 1831, 1861, 1928, 1925
8497, 1864, 1825, 1893, 1898
8498, 5888, 1926, 5915, 1972
8499, 5914, 1896, 1863, 1858
8500, 1868, 1834, 1863, 1896
8501, 1858, 1835, 1891, 5914
8502, 5952, 1860, 5949, 1894
8503, 5965, 1931, 5988, 5986
8504, 1866, 1856, 1900, 1938
8505, 5854, 1839, 1810, 1873
8506, 1902, 1838, 1875, 1945
8507, 1903, 1928, 1861, 1815
8508, 1866, 1938, 1897, 1841
8509, 1869, 1841, 1897, 1930
8510, 1832, 1870, 1899, 1857
8511, 1929, 1896, 1925, 1928
8512, 1874, 1873, 5848, 1842
8513, 1910, 1845, 1879, 1947
8514, 1986, 1955, 1915, 1950
8515, 1911, 1847, 1876, 1944
8516, 1911, 1935, 1908, 1878
8517, 1818, 1884, 1907, 1879
8518, 1945, 1875, 1910, 1977
8519, 1915, 1885, 1851, 1880
8520, 1909, 1880, 1816, 1843
8521, 1949, 1844, 1914, 1985
8522, 1589, 1699, 1883, 3148
8523, 1907, 1884, 1951, 1942
8524, 5786, 5785, 1916, 5826
8525, 1993, 1922, 1994, 338
8526, 5825, 1916, 5785, 1853
8527, 1705, 5538, 1888, 3126
8528, 1704, 5601, 1888, 5538
8529, 5882, 1957, 1987, 1914
8530, 1884, 1846, 1913, 1951
8531, 1873, 1905, 1943, 5854
8532, 1906, 1932, 1963, 1941
8533, 1867, 1904, 1934, 1895
8534, 1896, 1929, 5925, 1868
8535, 1898, 1893, 1926, 5888
8536, 1930, 1926, 1893, 1869
8537, 1862, 1898, 5888, 1932
8538, 1902, 1969, 1937, 1870
8539, 2009, 1947, 1933, 1964
8540, 1901, 5986, 5988, 1968
8541, 1867, 1839, 5854, 1904
8542, 1927, 1905, 1892, 1899
8543, 1909, 1939, 1978, 1950
8544, 1949, 1973, 5913, 1844
8545, 1933, 1907, 1942, 5967
8546, 1970, 1908, 1935, 1995
8547, 5925, 1959, 1966, 1939
8548, 1933, 1947, 1879, 1907
8549, 1938, 1900, 1960, 2001
8550, 1944, 1876, 1901, 1968
8551, 1911, 1944, 1976, 1935
8552, 1912, 2091, 1953, 1882
8553, 1936, 1948, 5938, 1871
8554, 5938, 1948, 1982, 1954
8555, 1983, 1913, 1952, 2017
8556, 1880, 1909, 1950, 1915
8557, 1916, 5825, 1955, 2018
8558, 1915, 1955, 5825, 1885
8559, 1956, 1988, 2049, 2020
8560, 5899, 1918, 1917, 389
8561, 1958, 1920, 383, 2131
8562, 1989, 2022, 1991, 5770
8563, 2024, 1994, 1919, 1991
8564, 2023, 321, 3158, 3119
8565, 2023, 1990, 1923, 321
8566, 360, 1831, 1925, 1924
8567, 2001, 1960, 2027, 2044
8568, 1997, 1941, 1963, 2038
8569, 1979, 1927, 1937, 2003
8570, 1962, 1943, 1905, 1927
8571, 1877, 1966, 1959, 1903
8572, 5925, 1929, 1928, 1959
8573, 1960, 1900, 1940, 1998
8574, 1941, 5963, 5949, 1906
8575, 5988, 5964, 1999, 1968
8576, 1926, 1930, 1961, 5915
8577, 1967, 1961, 1930, 1897
8578, 5913, 1946, 1877, 5900
8579, 1940, 1895, 1934, 1974
8580, 1971, 1943, 1962, 2004
8581, 1908, 1970, 1936, 1871
8582, 1996, 1962, 1927, 1979
8583, 1977, 1910, 1947, 2009
8584, 5946, 2007, 5915, 1961
8585, 5964, 5963, 1965, 1999
8586, 1980, 1964, 1933, 5967
8587, 1904, 5854, 1943, 1971
8588, 1944, 1968, 2008, 1976
8589, 1969, 1902, 1945, 2011
8590, 1973, 2006, 1946, 5913
8591, 2028, 2079, 5919, 2004
8592, 367, 2041, 1975, 5983
8593, 2006, 1973, 2086, 2037
8594, 1946, 2006, 2014, 1966
8595, 344, 1942, 1951, 1981
8596, 1952, 1923, 1990, 2017
8597, 2012, 2053, 1982, 1948
8598, 1912, 1881, 1954, 1984
8599, 5826, 1988, 1956, 5786
8600, 1956, 2020, 1989, 1921
8601, 3336, 5899, 389, 3421
8602, 3336, 3545, 3584, 3404
8603, 1958, 5883, 5882, 1889
8604, 1985, 1914, 1987, 5940
8605, 2021, 2131, 2094, 5910
8606, 2050, 1992, 2056, 5942
8607, 2040, 2002, 2007, 2069
8608, 1932, 5888, 1972, 1963
8609, 2003, 1937, 1969, 2029
8610, 2002, 2040, 2060, 2038
8611, 2031, 1965, 1997, 2070
8612, 1931, 1894, 5964, 5988
8613, 1897, 1938, 2001, 1967
8614, 5993, 2066, 2036, 1999
8615, 2011, 1945, 1977, 2043
8616, 1995, 1935, 1976, 5982
8617, 2034, 1970, 1995, 5989
8618, 1971, 2000, 1934, 1904
8619, 2047, 2087, 2114, 2083
8620, 2043, 1977, 2009, 2076
8621, 1998, 1940, 1974, 2033
8622, 1975, 1948, 1936, 5983
8623, 1968, 1999, 2036, 2008
8624, 2105, 2079, 2028, 5971
8625, 1939, 1966, 2014, 1978
8626, 2153, 2076, 2112, 2188
8627, 2032, 1980, 344, 5939
8628, 2025, 2084, 2090, 5956
8629, 2015, 1983, 2017, 2046
8630, 1978, 2014, 2078, 2016
8631, 2018, 2047, 2083, 5870
8632, 2019, 1957, 1992, 2050
8633, 2042, 1987, 1957, 2019
8634, 2018, 5870, 5826, 1916
8635, 2020, 2049, 2089, 2055
8636, 2024, 1991, 2057, 2097
8637, 2098, 5951, 2051, 2059
8638, 2015, 2054, 1981, 1983
8639, 2021, 2056, 1992, 5883
8640, 3162, 338, 3426, 3586
8641, 2058, 338, 1994, 2024
8642, 1970, 2034, 5983, 1936
8643, 2000, 1971, 2004, 5919
8644, 2004, 1962, 1996, 2028
8645, 1997, 1965, 5963, 1941
8646, 1972, 5915, 2007, 2002
8647, 1967, 2001, 2044, 2005
8648, 2108, 2036, 2066, 2143
8649, 2016, 2078, 2048, 2087
8650, 2013, 1949, 1985, 5940
8651, 1974, 1934, 2000, 2030
8652, 2027, 1960, 1998, 2065
8653, 1961, 1967, 2005, 5946
8654, 5973, 2193, 5995, 2148
8655, 1979, 2026, 2028, 1996
8656, 2003, 2029, 2117, 2026
8657, 2071, 2005, 2044, 2103
8658, 5982, 1976, 2008, 2073
8659, 2010, 1964, 1980, 2032
8660, 5939, 344, 1981, 2054
8661, 2029, 1969, 2011, 2074
8662, 2012, 1975, 2041, 2075
8663, 2072, 2115, 2041, 367
8664, 2085, 2080, 2010, 2032
8665, 1973, 1949, 2013, 2086
8666, 5940, 5941, 2063, 2013
8667, 2037, 2078, 2014, 2006
8668, 2051, 2017, 1990, 2059
8669, 2054, 2015, 2046, 2093
8670, 2016, 1986, 1950, 1978
8671, 2046, 2017, 2051, 2088
8672, 1955, 1986, 2047, 2018
8673, 2082, 2019, 2050, 2122
8674, 2049, 1988, 2045, 2081
8675, 2049, 2081, 2123, 2089
8676, 2126, 5943, 5942, 2056
8677, 1989, 2020, 2055, 2022
8678, 2092, 2128, 2168, 2132
8679, 2057, 1991, 2022, 2096
8680, 2169, 2090, 2124, 2210
8681, 2117, 2029, 2074, 2139
8682, 2033, 1974, 2030, 2067
8683, 2102, 5982, 2073, 2111
8684, 2061, 2101, 2064, 2035
8685, 2202, 2198, 5972, 2138
8686, 2034, 5989, 2061, 2035
8687, 5983, 2034, 2035, 367
8688, 2076, 2009, 1964, 2010
8689, 2013, 2063, 2068, 2086
8690, 2038, 2060, 2070, 1997
8691, 2039, 2069, 2007, 5946
8692, 1995, 5982, 2102, 5989
8693, 2073, 2008, 2036, 2108
8694, 2104, 2040, 2069, 2147
8695, 2100, 2147, 2069, 2039
8696, 2064, 2072, 367, 2035
8697, 2053, 5997, 5998, 2084
8698, 5940, 1987, 2042, 5941
8699, 2074, 2011, 2043, 2118
8700, 5870, 2045, 1988, 5826
8701, 2093, 2046, 2088, 2130
8702, 1986, 2016, 2087, 2047
8703, 2159, 2107, 2157, 2150
8704, 2150, 2157, 2110, 2186
8705, 2063, 5941, 2077, 2110
8706, 2152, 2196, 2197, 2158
8707, 2163, 2223, 2122, 2095
8708, 2122, 2050, 5942, 2095
8709, 2059, 1990, 2023, 2135
8710, 2129, 2133, 2052, 5956
8711, 2052, 1984, 2025, 5956
8712, 2025, 1982, 2053, 2084
8713, 2179, 2146, 2144, 2227
8714, 2055, 2089, 2128, 2092
8715, 5910, 2126, 2056, 2021
8716, 2092, 2096, 2022, 2055
8717, 2058, 2024, 2097, 2137
8718, 2137, 3149, 3388, 2058
8719, 2135, 2023, 3119, 5928
8720, 2144, 2146, 2070, 2060
8721, 2079, 2155, 5920, 5919
8722, 2062, 2103, 2044, 2027
8723, 2107, 2087, 2048, 2109
8724, 2037, 2109, 2048, 2078
8725, 2072, 2064, 2113, 2142
8726, 2065, 1998, 2033, 5945
8727, 2067, 2099, 5945, 2033
8728, 2106, 2031, 2070, 2146
8729, 2138, 5972, 2105, 5971
8730, 2068, 2109, 2037, 2086
8731, 2100, 2039, 2071, 2148
8732, 2148, 2071, 2103, 5973
8733, 2060, 2040, 2104, 2144
8734, 2149, 2177, 2101, 2061
8735, 2005, 2071, 2039, 5946
8736, 2139, 2138, 5971, 2117
8737, 2127, 2199, 2238, 2187
8738, 2143, 2066, 2106, 2184
8739, 2118, 2043, 2076, 2153
8740, 2053, 2012, 2075, 5997
8741, 2112, 2076, 2010, 2080
8742, 5972, 2198, 2178, 2155
8743, 2082, 2116, 2042, 2019
8744, 2110, 2077, 2145, 2186
8745, 2085, 2120, 2154, 2121
8746, 2083, 2119, 2045, 5870
8747, 5974, 2116, 2082, 2219
8748, 2114, 2087, 2107, 2159
8749, 2124, 2090, 2084, 2162
8750, 2164, 2120, 5939, 2054
8751, 2054, 2093, 2125, 2164
8752, 5951, 2166, 2088, 2051
8753, 2089, 2123, 2165, 2128
8754, 2129, 2169, 2212, 2167
8755, 5956, 2090, 2169, 2129
8756, 2204, 2125, 2161, 2245
8757, 2171, 2126, 5910, 2094
8758, 2123, 2158, 2205, 2165
8759, 2211, 2257, 2173, 2132
8760, 2136, 2174, 2097, 2057
8761, 2172, 2098, 2135, 5928
8762, 2154, 2120, 2164, 2189
8763, 2102, 2149, 2061, 5989
8764, 2062, 2156, 5973, 2103
8765, 2140, 2113, 2064, 2101
8766, 2155, 2079, 2105, 5972
8767, 2146, 2179, 2221, 6043
8768, 2031, 2106, 2066, 5993
8769, 2160, 2114, 2159, 2185
8770, 2183, 2220, 2270, 2300
8771, 2160, 2185, 2224, 2196
8772, 2149, 2102, 2111, 2180
8773, 2073, 2108, 2141, 2111
8774, 2080, 2085, 2121, 2151
8775, 2063, 2110, 2157, 2068
8776, 2180, 2237, 2177, 2149
8777, 2185, 2159, 2150, 2186
8778, 2115, 6062, 2075, 2041
8779, 2042, 2116, 2077, 5941
8780, 2139, 2074, 2118, 2191
8781, 2176, 5996, 2228, 6021
8782, 2081, 2045, 2119, 2152
8783, 2119, 2083, 2114, 2160
8784, 2283, 2195, 2247, 2290
8785, 2120, 2085, 2032, 5939
8786, 2104, 2147, 5996, 2176
8787, 2201, 2236, 2163, 2095
8788, 2081, 2152, 2158, 2123
8789, 5998, 5997, 2127, 2187
8790, 2093, 2130, 2161, 2125
8791, 2175, 2094, 2131, 2215
8792, 5943, 2201, 2095, 5942
8793, 2072, 2142, 6062, 2115
8794, 2199, 2127, 6062, 2142
8795, 2129, 2167, 2213, 2133
8796, 2206, 5987, 5976, 6017
8797, 2171, 2094, 2175, 2217
8798, 2209, 2251, 2293, 2254
8799, 2216, 2258, 2174, 2136
8800, 2091, 2052, 2133, 3139
8801, 2134, 5975, 5951, 2098
8802, 2137, 2097, 2174, 2298
8803, 3149, 2137, 2298, 339
8804, 2178, 2067, 5920, 2155
8805, 2151, 2188, 2112, 2080
8806, 2232, 2190, 2178, 2198
8807, 2108, 2143, 2183, 2141
8808, 2113, 2140, 2182, 2142
8809, 2227, 2144, 2104, 2176
8810, 2145, 2077, 2116, 5974
8811, 2177, 2229, 2140, 2101
8812, 2106, 2146, 6043, 2184
8813, 2181, 2100, 2148, 5995
8814, 2147, 2100, 2181, 5996
8815, 2111, 2141, 6030, 2180
8816, 2247, 2154, 2189, 2242
8817, 2122, 2223, 2219, 2082
8818, 2191, 2118, 2153, 2231
8819, 2222, 5974, 2219, 2261
8820, 2178, 2190, 2099, 2067
8821, 2231, 2153, 2188, 2272
8822, 2157, 2107, 2109, 2068
8823, 2262, 2261, 2219, 2223
8824, 2152, 2119, 2160, 2196
8825, 2075, 6062, 2127, 5997
8826, 2161, 2206, 5991, 2245
8827, 2323, 6034, 2365, 6064
8828, 6022, 2192, 2124, 2162
8829, 2170, 5943, 2126, 2207
8830, 2250, 2165, 2205, 5930
8831, 2189, 2164, 2125, 2204
8832, 2158, 2197, 2239, 2205
8833, 2130, 2088, 2166, 5987
8834, 2167, 2212, 2294, 2532
8835, 2213, 2167, 2532, 388
8836, 2128, 2165, 2208, 2168
8837, 2168, 2208, 2251, 2209
8838, 2210, 2124, 2192, 2249
8839, 2169, 2210, 2253, 2212
8840, 2207, 2126, 2171, 2255
8841, 2252, 2170, 2207, 2286
8842, 2255, 2171, 2217, 2297
8843, 2209, 2211, 2132, 2168
8844, 2254, 2296, 2211, 2209
8845, 2136, 2173, 2257, 2216
8846, 2217, 2175, 384, 2338
8847, 2242, 2189, 2204, 2281
8848, 6030, 2141, 2183, 2300
8849, 2139, 2191, 2202, 2138
8850, 2190, 2225, 2156, 2099
8851, 2181, 5995, 2226, 6020
8852, 2143, 2184, 2220, 2183
8853, 2187, 2238, 2240, 6022
8854, 2162, 5998, 2187, 6022
8855, 2186, 2145, 5992, 2260
8856, 5992, 2145, 5974, 2222
8857, 2151, 2121, 2195, 2233
8858, 2195, 2121, 2154, 2247
8859, 2161, 2130, 5987, 2206
8860, 2223, 2163, 2200, 2262
8861, 2191, 2231, 2246, 2202
8862, 2282, 2192, 6022, 2240
8863, 2284, 2241, 6015, 6016
8864, 6017, 2230, 5991, 2206
8865, 2273, 2193, 2225, 2308
8866, 2196, 2224, 2235, 2197
8867, 2261, 2262, 2306, 2265
8868, 2142, 2182, 2243, 2199
8869, 2238, 2199, 2243, 2312
8870, 2276, 2201, 2234, 2302
8871, 2406, 2369, 2447, 5978
8872, 2241, 2232, 2198, 2202
8873, 2232, 2268, 2225, 2190
8874, 2194, 5975, 2134, 2203
8875, 6013, 6012, 343, 2244
8876, 6021, 2310, 2227, 2176
8877, 2405, 2279, 2353, 5953
8878, 2230, 6013, 2244, 2287
8879, 2245, 5991, 2295, 6000
8880, 2234, 2170, 2252, 2285
8881, 2296, 2339, 2257, 2211
8882, 2294, 2212, 2253, 6003
8883, 3150, 2213, 388, 3152
8884, 2214, 343, 6012, 2203
8885, 384, 2460, 2420, 2380
8886, 2175, 2215, 2460, 384
8887, 2299, 2216, 2257, 2339
8888, 2297, 2217, 2338, 2374
8889, 2533, 2494, 2415, 2377
8890, 2260, 2224, 2185, 2186
8891, 2221, 2267, 2184, 6043
8892, 2264, 2357, 2310, 6021
8893, 2264, 6021, 2228, 2277
8894, 2229, 2274, 2182, 2140
8895, 2224, 2260, 2263, 2235
8896, 2220, 2184, 2267, 2303
8897, 2188, 2151, 2233, 2272
8898, 2225, 2193, 5973, 2156
8899, 2281, 2204, 2245, 6000
8900, 2277, 2228, 6020, 2313
8901, 2271, 2179, 2227, 2310
8902, 2229, 2177, 2237, 2266
8903, 6013, 2230, 6017, 2194
8904, 2290, 2247, 2242, 2323
8905, 2280, 2246, 2231, 2272
8906, 2170, 2234, 2201, 5943
8907, 2359, 2395, 2349, 2285
8908, 2276, 2314, 2236, 2201
8909, 2180, 6030, 2269, 2237
8910, 2278, 2240, 2238, 2312
8911, 2197, 2235, 2275, 2239
8912, 2301, 2282, 2240, 2278
8913, 2241, 2202, 2246, 6015
8914, 2268, 2232, 2241, 2284
8915, 2274, 2229, 2266, 2319
8916, 2292, 343, 2248, 2333
8917, 6058, 6059, 6037, 2280
8918, 2248, 343, 2214, 2288
8919, 2291, 2253, 2210, 2249
8920, 2358, 2302, 2349, 2399
8921, 2208, 2165, 2250, 2289
8922, 2318, 2252, 2286, 2368
8923, 2253, 2291, 2334, 6003
8924, 2367, 2407, 2331, 2293
8925, 2255, 2297, 2336, 2286
8926, 2256, 2377, 2337, 2288
8927, 2288, 2337, 2327, 2248
8928, 2340, 2258, 2341, 2381
8929, 339, 2298, 2340, 2416
8930, 2258, 2340, 2298, 2174
8931, 3138, 3146, 3578, 406
8932, 2265, 361, 2222, 2261
8933, 361, 2265, 2311, 2263
8934, 2279, 2200, 2236, 2314
8935, 2200, 2279, 2405, 2262
8936, 2226, 2273, 6047, 2313
8937, 2266, 2237, 2269, 6063
8938, 2269, 6030, 2300, 2316
8939, 2221, 2179, 2271, 2304
8940, 2308, 2225, 2268, 2317
8941, 2270, 2220, 2303, 2396
8942, 2320, 2264, 2277, 2350
8943, 2300, 2270, 2343, 2316
8944, 2315, 2309, 2272, 2233
8945, 2193, 2273, 2226, 5995
8946, 6035, 6016, 2326, 2362
8947, 2274, 2307, 2243, 2182
8948, 2235, 2263, 2311, 2275
8949, 2302, 2234, 2285, 2349
8950, 2283, 2315, 2233, 2195
8951, 2345, 2278, 2312, 2398
8952, 2312, 2243, 2307, 2398
8953, 2302, 2358, 2314, 2276
8954, 2306, 2321, 2275, 2311
8955, 2280, 6037, 6015, 2246
8956, 2396, 2423, 2343, 2270
8957, 2249, 2192, 2282, 6050
8958, 2323, 2242, 2281, 6034
8959, 2317, 2268, 2284, 6035
8960, 5931, 5930, 2205, 2239
8961, 2239, 2275, 2321, 5931
8962, 2293, 2251, 2330, 2367
8963, 2403, 2328, 2354, 2439
8964, 2208, 2289, 2330, 2251
8965, 2329, 2250, 5930, 2361
8966, 2356, 2290, 2323, 6064
8967, 2355, 2352, 2387, 2402
8968, 6050, 2325, 2291, 2249
8969, 2333, 2248, 2327, 6018
8970, 2360, 2412, 2324, 2292
8971, 2532, 2294, 2413, 2492
8972, 2332, 6000, 2295, 2363
8973, 2328, 2295, 5991, 2230
8974, 2331, 2335, 2254, 2293
8975, 2335, 2376, 2296, 2254
8976, 2380, 5929, 2338, 384
8977, 2341, 2299, 2378, 2419
8978, 2258, 2216, 2299, 2341
8979, 2385, 2301, 2278, 2345
8980, 2282, 2301, 2305, 6050
8981, 2399, 2349, 2395, 2432
8982, 2267, 2221, 2304, 2342
8983, 2344, 2271, 2310, 2357
8984, 2274, 2319, 2348, 2307
8985, 2305, 2347, 2394, 2351
8986, 2266, 6063, 2346, 2319
8987, 2316, 2346, 6063, 2269
8988, 6073, 6047, 2308, 2317
8989, 2315, 2364, 2352, 2309
8990, 2280, 2272, 2309, 6058
8991, 2350, 2277, 2313, 2393
8992, 2389, 2434, 2484, 2523
8993, 2353, 2391, 2361, 5953
8994, 2322, 2283, 2290, 2356
8995, 2283, 2322, 2364, 2315
8996, 2342, 2440, 2303, 2267
8997, 2285, 2252, 2318, 2359
8998, 2436, 2397, 2408, 2472
8999, 2319, 2346, 2383, 2348
9000, 2357, 2264, 2320, 2425
9001, 2353, 2279, 2314, 2358
9002, 2281, 6000, 2332, 6034
9003, 2363, 2295, 2328, 2403
9004, 6066, 6065, 2487, 6074
9005, 2371, 2334, 2291, 2325
9006, 2352, 2355, 6058, 2309
9007, 2327, 2337, 2379, 2366
9008, 2422, 2345, 2398, 2428
9009, 2289, 2250, 2329, 2369
9010, 2335, 2331, 2370, 5960
9011, 2365, 6034, 2332, 6053
9012, 2366, 2379, 2417, 2448
9013, 2292, 2333, 6044, 2360
9014, 2455, 6023, 2409, 2486
9015, 2376, 2335, 5960, 5961
9016, 2373, 2368, 2286, 2336
9017, 2256, 2218, 3133, 2377
9018, 2414, 2498, 2527, 6004
9019, 2457, 2378, 2418, 2495
9020, 2340, 2381, 2421, 2416
9021, 2378, 2299, 2339, 2418
9022, 6035, 2362, 6073, 2317
9023, 2342, 2304, 2384, 2440
9024, 2304, 2271, 2344, 2384
9025, 2382, 2346, 2316, 2343
9026, 2389, 2320, 2350, 2434
9027, 2424, 2347, 2385, 6100
9028, 2466, 2394, 2464, 2500
9029, 2347, 2305, 2301, 2385
9030, 2346, 2382, 2429, 2383
9031, 2388, 2387, 2352, 2364
9032, 2404, 2371, 2325, 2351
9033, 2351, 2325, 6050, 2305
9034, 2356, 6064, 2397, 2322
9035, 2404, 2351, 2433, 2469
9036, 6059, 2362, 2326, 6037
9037, 6059, 6058, 2355, 6071
9038, 2363, 6052, 6053, 2332
9039, 2431, 2434, 2444, 2402
9040, 2361, 2391, 2400, 2329
9041, 6011, 2386, 2435, 2392
9042, 2395, 2359, 2392, 2427
9043, 2333, 6018, 2411, 6044
9044, 2360, 6044, 2443, 6065
9045, 2361, 5930, 5931, 5953
9046, 6047, 6073, 2393, 2313
9047, 2480, 6121, 2473, 6116
9048, 2388, 2364, 2322, 2397
9049, 6103, 2476, 6119, 2428
9050, 6018, 2327, 2366, 2411
9051, 2369, 2406, 2330, 2289
9052, 2370, 2331, 2407, 2446
9053, 2318, 6011, 2392, 2359
9054, 2391, 2353, 2358, 2400
9055, 2517, 2446, 2407, 2477
9056, 2438, 2409, 2371, 2404
9057, 2455, 2451, 2372, 6023
9058, 2531, 2451, 2493, 2574
9059, 2336, 2375, 2410, 2373
9060, 2430, 2373, 2410, 2479
9061, 6004, 2410, 2375, 2414
9062, 2339, 2296, 2376, 2418
9063, 2377, 3133, 2666, 2533
9064, 2419, 2458, 2381, 2341
9065, 2415, 2379, 2337, 2377
9066, 2454, 2417, 2379, 2415
9067, 2390, 2437, 2384, 2344
9068, 2384, 2437, 6072, 2440
9069, 2426, 2398, 2307, 2348
9070, 2390, 2344, 2357, 2425
9071, 2345, 2422, 6100, 2385
9072, 2386, 2368, 2373, 2430
9073, 2397, 2436, 2449, 2388
9074, 2408, 2397, 6064, 2365
9075, 2509, 6119, 2476, 2501
9076, 2320, 2389, 6082, 2425
9077, 2434, 2350, 2393, 2444
9078, 2390, 2425, 2510, 2467
9079, 2400, 2358, 2399, 2447
9080, 2503, 2435, 2502, 2541
9081, 6071, 2444, 2362, 6059
9082, 2363, 2403, 2441, 6052
9083, 2365, 6053, 2442, 2408
9084, 2426, 2348, 2383, 6095
9085, 6095, 2462, 2476, 6103
9086, 2329, 2400, 2447, 2369
9087, 2402, 2444, 6071, 2355
9088, 2431, 2402, 2387, 2471
9089, 2354, 2324, 2412, 2439
9090, 2478, 2403, 2439, 2520
9091, 2433, 2351, 2394, 2466
9092, 2405, 2321, 2306, 2262
9093, 2330, 2406, 2445, 2367
9094, 2432, 5978, 2447, 2399
9095, 2445, 2477, 2407, 2367
9096, 2551, 2472, 2516, 2593
9097, 2334, 2371, 2409, 6023
9098, 366, 2486, 2409, 2438
9099, 2452, 2479, 2410, 6004
9100, 2636, 2676, 2704, 6111
9101, 2413, 2451, 2531, 2492
9102, 2450, 2370, 2446, 2483
9103, 5961, 5960, 5980, 2491
9104, 2374, 2338, 5929, 2453
9105, 5980, 2526, 2572, 2491
9106, 2454, 2415, 2494, 2530
9107, 2416, 5832, 3406, 3118
9108, 2448, 2417, 2489, 2525
9109, 2448, 2485, 2411, 2366
9110, 2419, 2378, 2457, 5934
9111, 2536, 2580, 2496, 5934
9112, 2381, 2458, 2459, 2421
9113, 2499, 2421, 2459, 2537
9114, 2423, 2463, 2382, 2343
9115, 2633, 2588, 2675, 2670
9116, 2394, 2347, 2424, 2464
9117, 2429, 2462, 6095, 2383
9118, 2470, 2502, 2435, 2386
9119, 2462, 2518, 2501, 2476
9120, 2463, 2462, 2429, 2382
9121, 2387, 2388, 2449, 2471
9122, 2515, 2436, 2472, 2551
9123, 2427, 2468, 2432, 2395
9124, 2438, 2404, 2469, 2475
9125, 2473, 2511, 2464, 2424
9126, 2470, 2386, 2430, 2504
9127, 2607, 2643, 2687, 2639
9128, 2463, 2423, 2465, 6081
9129, 2514, 2511, 2473, 6121
9130, 2440, 6072, 2396, 2303
9131, 2481, 2401, 6052, 2441
9132, 2422, 2428, 6119, 2480
9133, 2472, 2408, 2442, 2516
9134, 2507, 2542, 2475, 2469
9135, 2444, 2393, 6073, 2362
9136, 2484, 2434, 2431, 2512
9137, 2432, 2468, 2482, 5978
9138, 2488, 2524, 6041, 2452
9139, 2417, 2454, 2490, 2489
9140, 2450, 5980, 5960, 2370
9141, 2575, 2492, 2578, 2624
9142, 2461, 2577, 5929, 2380
9143, 2564, 2498, 2576, 2613
9144, 2505, 2563, 2486, 366
9145, 2456, 2418, 2376, 5961
9146, 2581, 2497, 2538, 2621
9147, 3124, 2420, 3138, 3403
9148, 3473, 2665, 2461, 3124
9149, 2620, 2617, 2535, 2577
9150, 2427, 2392, 2435, 2503
9151, 6072, 2465, 2423, 2396
9152, 2465, 6072, 2437, 2513
9153, 2424, 6100, 6116, 2473
9154, 2437, 2390, 2467, 2513
9155, 2516, 2481, 2562, 2593
9156, 362, 2541, 2502, 2470
9157, 2505, 366, 2506, 2553
9158, 2543, 2508, 2544, 2628
9159, 6082, 2389, 2523, 2552
9160, 2556, 2471, 2449, 2474
9161, 2507, 2469, 2433, 2508
9162, 2430, 2479, 6042, 2504
9163, 2474, 2449, 2436, 2515
9164, 2478, 2521, 2441, 2403
9165, 2522, 2443, 2485, 2565
9166, 366, 2438, 2475, 2506
9167, 2518, 2462, 2463, 6081
9168, 2512, 2548, 2523, 2484
9169, 2539, 2519, 2482, 2468
9170, 2483, 2446, 2517, 2558
9171, 2520, 6066, 6074, 6077
9172, 2557, 2566, 2488, 2527
9173, 2501, 2546, 2561, 2509
9174, 2481, 2516, 2442, 2401
9175, 2482, 2445, 2406, 5978
9176, 2512, 2431, 2471, 2556
9177, 2485, 2443, 6044, 2411
9178, 2486, 2563, 2529, 2455
9179, 6066, 2520, 2439, 2412
9180, 2498, 2414, 2453, 2535
9181, 2641, 2594, 2625, 2583
9182, 2525, 2565, 2485, 2448
9183, 2528, 2490, 2569, 2610
9184, 2530, 2569, 2490, 2454
9185, 2456, 2534, 5969, 2495
9186, 2456, 5961, 2491, 2534
9187, 2578, 2492, 2531, 2616
9188, 2532, 2492, 2575, 388
9189, 2567, 2611, 2493, 2529
9190, 2493, 2451, 2455, 2529
9191, 2571, 2494, 2533, 2623
9192, 2530, 2494, 342, 5999
9193, 2457, 2495, 5969, 5957
9194, 2538, 2496, 2580, 2621
9195, 2582, 2537, 2497, 5933
9196, 5933, 2497, 2581, 2810
9197, 2564, 2557, 2527, 2498
9198, 2421, 2499, 5832, 2416
9199, 2598, 2645, 2562, 2521
9200, 2549, 2467, 2510, 2591
9201, 2632, 5994, 2519, 2539
9202, 2503, 2539, 2468, 2427
9203, 2470, 2504, 2540, 362
9204, 2563, 2505, 2599, 2601
9205, 2568, 2487, 2522, 2604
9206, 2543, 2584, 2507, 2508
9207, 2508, 2433, 2466, 2544
9208, 2544, 2466, 2500, 2585
9209, 2547, 6121, 2509, 2561
9210, 6119, 2509, 6121, 2480
9211, 2512, 2556, 6109, 2548
9212, 2547, 2587, 2514, 6121
9213, 2500, 2464, 2511, 2545
9214, 2474, 2515, 6107, 2550
9215, 2518, 6081, 2560, 6096
9216, 2561, 2546, 2595, 2590
9217, 2515, 2551, 2609, 6107
9218, 2478, 2520, 6077, 2559
9219, 2630, 2590, 2595, 2678
9220, 6096, 2560, 2597, 6118
9221, 2519, 2477, 2445, 2482
9222, 2522, 2487, 6065, 2443
9223, 2521, 2562, 2481, 2441
9224, 2723, 2753, 2685, 2651
9225, 2504, 2555, 2583, 2540
9226, 2555, 6041, 2524, 2634
9227, 2528, 2570, 2489, 2490
9228, 2542, 2507, 2584, 2640
9229, 2647, 2483, 2558, 2596
9230, 2647, 2606, 2526, 2483
9231, 2570, 2605, 2525, 2489
9232, 2573, 6010, 5999, 342
9233, 2623, 2533, 2666, 319
9234, 2536, 5957, 2579, 2622
9235, 2577, 2535, 2453, 5929
9236, 2535, 2617, 2576, 2498
9237, 5957, 5969, 5979, 2579
9238, 6002, 2701, 2622, 2579
9239, 340, 2499, 2537, 2582
9240, 2497, 2537, 2459, 2538
9241, 2539, 2503, 2541, 2632
9242, 2632, 2625, 2594, 5994
9243, 2506, 2475, 2542, 2586
9244, 2522, 2565, 2648, 2604
9245, 2628, 2544, 2585, 2627
9246, 2511, 2514, 2554, 2545
9247, 2546, 2501, 2518, 6096
9248, 2591, 2510, 6082, 2552
9249, 2550, 6109, 2556, 2474
9250, 2548, 2603, 2552, 2523
9251, 2560, 2513, 2589, 2597
9252, 2513, 2467, 2549, 2589
9253, 2551, 2593, 2653, 2609
9254, 2559, 2598, 2521, 2478
9255, 2600, 2642, 2559, 6077
9256, 2563, 2601, 2567, 2529
9257, 2547, 2561, 2590, 2587
9258, 2602, 2566, 2646, 2680
9259, 2566, 2602, 2524, 2488
9260, 2650, 2681, 2592, 2612
9261, 5994, 2517, 2477, 2519
9262, 2568, 6077, 6074, 2487
9263, 2465, 2513, 2560, 6081
9264, 2669, 2637, 2714, 2629
9265, 2587, 2590, 2630, 2635
9266, 2566, 2557, 2592, 2646
9267, 2450, 2483, 2526, 5980
9268, 2599, 2505, 2553, 6083
9269, 2612, 2592, 2557, 2564
9270, 2750, 2757, 2695, 2721
9271, 2574, 2493, 2611, 2638
9272, 2608, 2528, 2610, 2652
9273, 2570, 2528, 2608, 2651
9274, 2605, 2648, 2565, 2525
9275, 2770, 2654, 2807, 2839
9276, 342, 2494, 2571, 2619
9277, 2579, 5979, 2618, 6002
9278, 2491, 2572, 5990, 2534
9279, 2615, 6032, 2694, 6057
9280, 2624, 2578, 2667, 2739
9281, 2612, 2564, 2613, 2659
9282, 2665, 2620, 2577, 2461
9283, 2616, 2531, 2574, 2660
9284, 2616, 2700, 2667, 2578
9285, 6001, 5990, 2572, 2658
9286, 2580, 2536, 2622, 2662
9287, 2581, 5981, 2663, 2810
9288, 2663, 2771, 2844, 2810
9289, 3014, 2853, 3041, 2980
9290, 2625, 362, 2540, 2583
9291, 2596, 2641, 2634, 2680
9292, 2558, 2594, 2641, 2596
9293, 2632, 2541, 362, 2625
9294, 2545, 2633, 2585, 2500
9295, 2649, 2568, 2604, 2686
9296, 2588, 2633, 2545, 2554
9297, 2640, 6110, 2586, 2542
9298, 2553, 2506, 2586, 2676
9299, 2645, 2653, 2593, 2562
9300, 2554, 2514, 2587, 2635
9301, 2597, 2589, 2549, 2714
9302, 2591, 2629, 2714, 2549
9303, 2607, 2548, 6109, 2550
9304, 2650, 2695, 2757, 2767
9305, 2594, 2558, 2517, 5994
9306, 6118, 2595, 2546, 6096
9307, 2602, 2680, 2634, 2524
9308, 2603, 2629, 2591, 2552
9309, 2642, 2683, 2598, 2559
9310, 2626, 2601, 2599, 6094
9311, 2604, 2648, 2720, 2686
9312, 2567, 2644, 2631, 2611
9313, 2603, 2548, 2607, 2639
9314, 6124, 2706, 6110, 2640
9315, 2709, 2672, 6102, 6115
9316, 2572, 2526, 2606, 2658
9317, 2550, 6107, 2643, 2607
9318, 2651, 2685, 2605, 2570
9319, 2683, 2692, 2645, 2598
9320, 2675, 2710, 6127, 2708
9321, 2573, 2614, 2656, 6032
9322, 2652, 6051, 2693, 2725
9323, 2644, 2567, 2601, 2626
9324, 2638, 2611, 2631, 2682
9325, 2655, 2576, 2617, 2698
9326, 2650, 2612, 2659, 2695
9327, 2614, 2654, 2696, 2656
9328, 2727, 6075, 6057, 2694
9329, 2660, 2574, 2638, 2691
9330, 2576, 2655, 6006, 2613
9331, 2661, 2571, 2623, 2703
9332, 2662, 2697, 2621, 2580
9333, 6002, 2664, 6026, 2701
9334, 2701, 6026, 2769, 2748
9335, 2634, 2641, 2583, 2555
9336, 2631, 2644, 6102, 2672
9337, 2636, 6083, 2553, 2676
9338, 2627, 2585, 2633, 2670
9339, 2628, 2679, 2584, 2543
9340, 2668, 2630, 2678, 2713
9341, 2692, 2719, 2653, 2645
9342, 2682, 2631, 2672, 2716
9343, 6127, 2741, 2776, 2744
9344, 2683, 2642, 2717, 2726
9345, 2588, 2554, 2635, 2674
9346, 6083, 2671, 6094, 2599
9347, 2637, 2715, 6118, 2597
9348, 2691, 2638, 2682, 2724
9349, 2678, 2595, 6118, 2715
9350, 2639, 2669, 2629, 2603
9351, 2707, 2687, 2643, 2673
9352, 2740, 2627, 2670, 2791
9353, 2568, 2649, 2600, 6077
9354, 2673, 2609, 2653, 2719
9355, 2626, 2677, 6102, 2644
9356, 2763, 2798, 2789, 2732
9357, 2647, 2596, 2680, 2718
9358, 2684, 2600, 2649, 2722
9359, 2783, 6092, 2750, 6069
9360, 2688, 2608, 2652, 2725
9361, 6111, 2704, 2756, 6125
9362, 2688, 2723, 2651, 2608
9363, 2719, 2746, 2707, 2673
9364, 2656, 2696, 2768, 2729
9365, 2654, 2614, 2619, 2807
9366, 2690, 6006, 2733, 2787
9367, 2727, 2766, 2799, 2765
9368, 6032, 2656, 2729, 2694
9369, 6025, 6001, 2658, 2730
9370, 2689, 2606, 2647, 2718
9371, 2690, 2659, 2613, 6006
9372, 2721, 2695, 2659, 2690
9373, 2667, 2738, 2702, 2739
9374, 2623, 319, 5935, 2703
9375, 2807, 2661, 2847, 2839
9376, 5981, 2697, 6014, 2663
9377, 2844, 2771, 2842, 2882
9378, 2699, 2618, 6001, 6025
9379, 2664, 2732, 2736, 6026
9380, 385, 2620, 2665, 3142
9381, 2700, 2616, 2660, 2731
9382, 2674, 2635, 2630, 2668
9383, 2715, 2637, 2669, 2742
9384, 2684, 2717, 2642, 2600
9385, 2740, 2679, 2628, 2627
9386, 2671, 2712, 6108, 6094
9387, 2716, 2672, 2709, 2745
9388, 2609, 2673, 2643, 6107
9389, 2746, 2754, 2777, 2759
9390, 2713, 2678, 2715, 2742
9391, 2675, 2588, 2674, 2710
9392, 2640, 2584, 2679, 6124
9393, 2704, 6110, 2706, 2756
9394, 6129, 2756, 2706, 2711
9395, 6129, 2790, 6125, 2756
9396, 6061, 2646, 2592, 2681
9397, 6061, 2767, 2689, 2718
9398, 2724, 2682, 2716, 2751
9399, 2685, 2720, 2648, 2605
9400, 2871, 2826, 2896, 2820
9401, 2722, 2649, 2686, 2758
9402, 2760, 2792, 2723, 2688
9403, 2658, 2606, 2689, 2730
9404, 2762, 2721, 2690, 2787
9405, 6078, 6076, 2765, 6085
9406, 2688, 2725, 2795, 2760
9407, 2886, 2925, 2884, 2843
9408, 6092, 6060, 2757, 2750
9409, 2728, 2696, 2654, 2770
9410, 2729, 2768, 2803, 2766
9411, 2662, 2737, 2735, 2697
9412, 2693, 6078, 2761, 2725
9413, 2846, 2811, 2698, 385
9414, 2811, 2885, 2852, 5984
9415, 2618, 2699, 2664, 6002
9416, 2730, 2689, 2767, 2757
9417, 2660, 2691, 6039, 2731
9418, 2773, 2700, 2731, 2809
9419, 2804, 6049, 6028, 6027
9420, 2622, 2701, 2737, 2662
9421, 2739, 2702, 387, 3132
9422, 3401, 3128, 3142, 3546
9423, 3546, 3142, 2665, 3473
9424, 2890, 5935, 3135, 5905
9425, 2636, 2712, 2671, 6083
9426, 6110, 2704, 2676, 2586
9427, 2705, 2710, 2674, 2668
9428, 6126, 2705, 2668, 2713
9429, 2711, 2740, 2778, 6129
9430, 2708, 2791, 2670, 2675
9431, 2758, 2686, 2720, 2784
9432, 2746, 2713, 2742, 2707
9433, 2820, 2744, 2776, 2871
9434, 2712, 2743, 2677, 6108
9435, 2754, 2746, 2719, 2692
9436, 2792, 2828, 2753, 2723
9437, 2747, 6112, 6111, 6125
9438, 2742, 2669, 2687, 2707
9439, 2751, 2716, 2745, 2780
9440, 2684, 2722, 2793, 2749
9441, 2718, 2680, 2646, 6061
9442, 2726, 2754, 2692, 2683
9443, 363, 2817, 2783, 6069
9444, 6128, 2747, 2782, 2821
9445, 2781, 6122, 2743, 6128
9446, 2796, 6039, 2764, 2862
9447, 2823, 2788, 2751, 2780
9448, 2759, 2777, 2776, 2741
9449, 6076, 6075, 2727, 2765
9450, 2768, 2696, 2728, 2801
9451, 2694, 2729, 2766, 2727
9452, 6060, 6025, 2730, 2757
9453, 2691, 2724, 2764, 6039
9454, 2738, 2667, 2700, 2773
9455, 2732, 2664, 2699, 2763
9456, 5984, 2655, 2698, 2811
9457, 2663, 6014, 2734, 2771
9458, 2735, 2772, 6014, 2697
9459, 2748, 2794, 2804, 6027
9460, 2800, 2736, 2752, 2824
9461, 2769, 6026, 2736, 2800
9462, 2737, 2701, 2748, 6027
9463, 2850, 2813, 2775, 2812
9464, 2702, 2738, 2775, 387
9465, 2774, 2739, 3132, 2814
9466, 2679, 2740, 2711, 6124
9467, 2708, 6127, 2744, 2779
9468, 2710, 2705, 2741, 6127
9469, 6126, 2759, 2741, 2705
9470, 6115, 2743, 6122, 2709
9471, 2749, 2755, 2717, 2684
9472, 2786, 2749, 2793, 2837
9473, 6122, 2781, 2818, 2819
9474, 6112, 2747, 6128, 2743
9475, 2829, 2866, 2821, 2782
9476, 2753, 2784, 2720, 2685
9477, 2721, 2762, 6069, 2750
9478, 2788, 2764, 2724, 2751
9479, 2752, 2736, 2732, 2789
9480, 2824, 2878, 2834, 2800
9481, 2755, 2785, 2726, 2717
9482, 2863, 2896, 2826, 2786
9483, 2790, 6129, 2778, 2830
9484, 2793, 2722, 2758, 2831
9485, 2746, 2759, 6126, 2713
9486, 2795, 2725, 2761, 2833
9487, 2832, 2760, 2795, 2870
9488, 6085, 2797, 2761, 6078
9489, 2854, 2861, 2895, 2893
9490, 2763, 2699, 6025, 6060
9491, 2764, 2788, 2827, 2862
9492, 2849, 2803, 2768, 2801
9493, 2835, 2765, 2799, 2875
9494, 2808, 2728, 2770, 2891
9495, 2805, 2771, 2734, 6031
9496, 2801, 2728, 2808, 2843
9497, 2879, 2841, 2806, 6046
9498, 6014, 2772, 6036, 2734
9499, 2796, 2809, 2731, 6039
9500, 3152, 2774, 2814, 3422
9501, 388, 2575, 2774, 3152
9502, 2776, 2777, 2785, 2871
9503, 2709, 6122, 2819, 2745
9504, 2782, 2747, 6125, 2790
9505, 2785, 2777, 2754, 2726
9506, 2791, 2816, 2778, 2740
9507, 2755, 2749, 2786, 2826
9508, 2779, 2816, 2791, 2708
9509, 6128, 2821, 2818, 2781
9510, 2783, 2822, 2798, 6092
9511, 2876, 2831, 2865, 2906
9512, 2655, 5984, 2733, 6006
9513, 2836, 2762, 2787, 2825
9514, 2892, 2827, 2860, 2930
9515, 2778, 2816, 6132, 2830
9516, 2832, 2869, 2792, 2760
9517, 2831, 2758, 2784, 2865
9518, 2828, 2865, 2784, 2753
9519, 2804, 2845, 2883, 6049
9520, 2794, 2748, 2769, 2834
9521, 2833, 2761, 2797, 2872
9522, 2903, 2832, 2870, 2939
9523, 2796, 2815, 2880, 2809
9524, 2797, 2835, 2873, 2872
9525, 2870, 2795, 2833, 2904
9526, 2798, 2763, 6060, 6092
9527, 2840, 6036, 6049, 6056
9528, 2874, 2857, 2915, 2859
9529, 2841, 2881, 2805, 2806
9530, 2836, 2899, 2857, 363
9531, 2766, 2803, 2838, 2799
9532, 2806, 2805, 6031, 2840
9533, 6036, 2840, 6031, 2734
9534, 2875, 2799, 2838, 2914
9535, 2891, 2770, 2839, 2887
9536, 2843, 2808, 341, 2886
9537, 2853, 5933, 2810, 2844
9538, 2953, 2921, 2885, 2981
9539, 2850, 2888, 2926, 2889
9540, 3437, 3647, 5937, 386
9541, 3132, 3417, 3409, 2814
9542, 2848, 2809, 2880, 2924
9543, 2864, 6130, 2820, 2896
9544, 2789, 2798, 2822, 2752
9545, 2762, 2836, 363, 6069
9546, 2861, 6135, 2898, 2895
9547, 2829, 2782, 2790, 2830
9548, 2780, 2745, 2819, 2855
9549, 2779, 2744, 2820, 6130
9550, 2826, 2871, 2785, 2755
9551, 2861, 2854, 2818, 2821
9552, 2752, 2822, 2859, 2824
9553, 2802, 2852, 6005, 2867
9554, 2856, 2825, 2802, 2867
9555, 2863, 2786, 2837, 2902
9556, 2788, 2823, 2860, 2827
9557, 2897, 2862, 2827, 2892
9558, 2829, 2830, 6133, 2907
9559, 2902, 2837, 2876, 2936
9560, 2837, 2793, 2831, 2876
9561, 2973, 2927, 2962, 2999
9562, 2854, 2855, 2819, 2818
9563, 2858, 2823, 2780, 2855
9564, 2824, 2859, 2915, 6079
9565, 2835, 2797, 6085, 2765
9566, 2899, 2836, 2825, 2856
9567, 2830, 6132, 2868, 6133
9568, 2801, 2843, 2884, 2849
9569, 2839, 2847, 2890, 2887
9570, 2845, 2804, 2794, 2877
9571, 2972, 6055, 2911, 2944
9572, 2911, 6055, 2875, 2914
9573, 2842, 2771, 2805, 2881
9574, 2982, 2920, 3013, 2925
9575, 2844, 2882, 3041, 2853
9576, 2877, 2794, 2834, 2878
9577, 2883, 2918, 6056, 6049
9578, 2890, 2847, 2703, 5935
9579, 2932, 2949, 2880, 2815
9580, 2888, 2850, 2812, 2848
9581, 2920, 6007, 6008, 3013
9582, 3111, 3081, 3070, 6019
9583, 3417, 2851, 3410, 5968
9584, 2802, 2733, 5984, 2852
9585, 2980, 3041, 2951, 2922
9586, 2582, 5933, 2853, 3014
9587, 2939, 2870, 2904, 2967
9588, 6084, 2916, 2971, 2948
9589, 2822, 2817, 2874, 2859
9590, 2817, 363, 2857, 2874
9591, 2927, 2893, 2895, 2931
9592, 2858, 2855, 2894, 6117
9593, 2936, 2876, 2906, 2961
9594, 2869, 2900, 2828, 2792
9595, 2815, 2796, 2862, 2897
9596, 2905, 2864, 2896, 2863
9597, 6132, 6130, 2864, 2868
9598, 2861, 2821, 2866, 6135
9599, 2867, 6005, 2923, 2937
9600, 2845, 2912, 2910, 2883
9601, 2908, 2907, 6133, 2905
9602, 2904, 2833, 2872, 2940
9603, 2893, 2894, 2855, 2854
9604, 2902, 2936, 2959, 2908
9605, 2909, 2872, 2873, 2942
9606, 2942, 2873, 6055, 2972
9607, 2945, 2838, 2803, 2849
9608, 2977, 2950, 3007, 3006
9609, 2906, 2900, 2935, 2961
9610, 6054, 6070, 6080, 2943
9611, 2901, 2933, 2899, 2856
9612, 2913, 2945, 2849, 2884
9613, 6045, 6029, 3006, 3007
9614, 365, 2932, 2815, 2897
9615, 2888, 2848, 2924, 2955
9616, 2879, 2917, 2919, 2841
9617, 2920, 2842, 2881, 6007
9618, 2883, 2910, 2947, 2918
9619, 2885, 2811, 2846, 2981
9620, 3012, 3039, 2987, 3060
9621, 341, 2922, 2951, 2886
9622, 2922, 341, 2952, 2984
9623, 3127, 2889, 5937, 3647
9624, 2890, 5905, 3016, 2887
9625, 2808, 2891, 2952, 341
9626, 2891, 2887, 2985, 2952
9627, 2897, 2892, 2928, 365
9628, 2895, 2898, 6134, 2931
9629, 2858, 2929, 2860, 2823
9630, 2900, 2906, 2865, 2828
9631, 2915, 2857, 2899, 2933
9632, 2901, 2856, 2867, 2937
9633, 2903, 2938, 2869, 2832
9634, 2923, 6005, 2921, 2954
9635, 2912, 6084, 2948, 2934
9636, 2902, 2908, 2905, 2863
9637, 2940, 2872, 2909, 2966
9638, 2967, 2904, 2940, 2995
9639, 2868, 2864, 2905, 6133
9640, 2961, 2941, 2959, 2936
9641, 2898, 2907, 6136, 6134
9642, 2999, 3000, 3017, 2973
9643, 2845, 2877, 6084, 2912
9644, 2918, 2947, 2975, 2946
9645, 2877, 2878, 2916, 6084
9646, 6038, 2994, 2971, 6070
9647, 2944, 2911, 2914, 2974
9648, 2915, 2933, 2943, 6079
9649, 6079, 2943, 2878, 2824
9650, 2963, 2960, 2937, 2923
9651, 2879, 6046, 2946, 2917
9652, 2918, 2946, 6046, 6056
9653, 2934, 6101, 2910, 2912
9654, 2881, 2841, 2919, 6007
9655, 2882, 2842, 2920, 2982
9656, 6007, 2919, 2977, 6008
9657, 2852, 2885, 2921, 6005
9658, 2948, 2971, 2994, 2968
9659, 2924, 2880, 2949, 2983
9660, 2926, 2888, 2955, 5977
9661, 2913, 2884, 2925, 3013
9662, 2886, 2951, 2982, 2925
9663, 2978, 2954, 2921, 2953
9664, 6123, 2893, 2927, 2990
9665, 2965, 2999, 2962, 2991
9666, 2958, 3003, 2983, 2949
9667, 2988, 3019, 3018, 2957
9668, 6105, 2988, 2928, 2892
9669, 2929, 2956, 6106, 2930
9670, 2941, 6134, 6136, 2959
9671, 6040, 2932, 365, 2957
9672, 2901, 2937, 2960, 6054
9673, 2900, 2869, 2938, 2935
9674, 2963, 2923, 2954, 3002
9675, 2903, 2939, 2964, 2938
9676, 2990, 3017, 3044, 3020
9677, 2995, 3026, 2993, 2967
9678, 6131, 2931, 6134, 2941
9679, 2916, 2878, 2943, 6080
9680, 2945, 2974, 2914, 2838
9681, 2946, 2975, 3004, 2976
9682, 3013, 6008, 2979, 2913
9683, 3065, 3021, 2989, 3043
9684, 2947, 2910, 6101, 3008
9685, 6054, 2943, 2933, 2901
9686, 2957, 365, 2928, 2988
9687, 2955, 2924, 2983, 3036
9688, 2919, 2917, 2950, 2977
9689, 2917, 2946, 2976, 2950
9690, 2882, 2982, 2951, 3041
9691, 3080, 3040, 3061, 3016
9692, 386, 5937, 2987, 3039
9693, 3009, 3025, 2994, 6038
9694, 6105, 6106, 2956, 2996
9695, 6117, 2894, 6123, 2970
9696, 6105, 2892, 2930, 6106
9697, 2958, 2949, 2932, 6040
9698, 2908, 2959, 6136, 2907
9699, 2991, 2962, 6131, 2941
9700, 2968, 2992, 2934, 2948
9701, 2931, 6131, 2962, 2927
9702, 2965, 2935, 2938, 2964
9703, 2954, 2978, 3011, 3002
9704, 2995, 2940, 2966, 3023
9705, 2969, 2909, 2942, 2998
9706, 2997, 3066, 3023, 2966
9707, 2967, 2993, 2964, 2939
9708, 2942, 2972, 6068, 2998
9709, 2956, 6117, 2970, 2996
9710, 2990, 2927, 2973, 3017
9711, 3001, 2944, 2974, 6029
9712, 3000, 2999, 2965, 2964
9713, 2977, 3006, 2979, 6008
9714, 3055, 3063, 3072, 3050
9715, 2969, 2998, 3024, 6120
9716, 3005, 3007, 2950, 2976
9717, 3060, 2987, 2926, 5977
9718, 2945, 2913, 2979, 2974
9719, 2981, 2846, 3128, 386
9720, 2981, 386, 3039, 2953
9721, 2958, 2989, 3021, 3003
9722, 3010, 2986, 2955, 3036
9723, 3040, 3159, 5878, 3015
9724, 3014, 2980, 3015, 5878
9725, 2985, 2887, 3016, 3061
9726, 6009, 3075, 3060, 5977
9727, 2889, 2926, 2987, 5937
9728, 2997, 2966, 2969, 6120
9729, 3026, 3053, 3029, 2993
9730, 6123, 2990, 3020, 2970
9731, 2991, 2961, 2935, 2965
9732, 3031, 2975, 2947, 3008
9733, 3008, 6101, 2992, 3032
9734, 2963, 3009, 6038, 2960
9735, 3025, 3022, 2968, 2994
9736, 6105, 2996, 3019, 2988
9737, 3052, 3106, 3059, 3027
9738, 2998, 6068, 3028, 3024
9739, 3069, 3096, 3079, 3047
9740, 3000, 2964, 2993, 3029
9741, 2972, 2944, 3001, 6068
9742, 3042, 3048, 3025, 3009
9743, 3101, 3102, 3117, 3110
9744, 2976, 3004, 3030, 3005
9745, 3055, 3050, 3028, 6048
9746, 2979, 3006, 6029, 2974
9747, 3007, 3005, 3033, 6045
9748, 3032, 2992, 3022, 3051
9749, 3004, 3031, 3058, 3030
9750, 3027, 3003, 3021, 3052
9751, 2986, 3035, 3034, 6009
9752, 3038, 3012, 3060, 3075
9753, 3011, 3054, 3037, 3002
9754, 3012, 2978, 2953, 3039
9755, 340, 2582, 3014, 5878
9756, 340, 5878, 3159, 3145
9757, 3416, 318, 3515, 3972
9758, 2984, 3061, 3040, 3015
9759, 3045, 6090, 3019, 2996
9760, 2957, 3018, 2989, 6040
9761, 3020, 3045, 2996, 2970
9762, 3053, 3026, 3073, 6114
9763, 3084, 6086, 3090, 3103
9764, 3043, 2989, 3018, 6089
9765, 6113, 2997, 6120, 3049
9766, 3037, 3064, 3042, 3002
9767, 6090, 6091, 3077, 6089
9768, 3028, 3050, 6093, 3024
9769, 2983, 3003, 3027, 3036
9770, 3033, 3055, 6048, 6045
9771, 3017, 3000, 3029, 3044
9772, 3008, 3032, 3069, 3047
9773, 3042, 3009, 2963, 3002
9774, 3069, 3032, 3051, 6088
9775, 3033, 3056, 3063, 3055
9776, 3035, 2986, 3010, 3057
9777, 3070, 3054, 3011, 3038
9778, 3057, 3010, 3059, 3078
9779, 3064, 3087, 3048, 3042
9780, 3038, 3011, 2978, 3012
9781, 6089, 3018, 3019, 6090
9782, 3053, 3062, 3044, 3029
9783, 3054, 3070, 3081, 364
9784, 3046, 3034, 3035, 3074
9785, 3057, 3078, 3082, 3074
9786, 3031, 3008, 3047, 3058
9787, 3051, 3022, 3025, 3048
9788, 3052, 3021, 3065, 3105
9789, 3073, 3026, 2995, 3023
9790, 3112, 3107, 3092, 3098
9791, 3053, 6114, 6104, 3062
9792, 6088, 3087, 3093, 3088
9793, 6097, 3068, 3077, 6104
9794, 3054, 364, 3086, 3037
9795, 3056, 3033, 3005, 3030
9796, 3076, 3056, 3030, 3058
9797, 3056, 3076, 3083, 3063
9798, 3059, 3010, 3036, 3027
9799, 3076, 3079, 3091, 3083
9800, 3062, 3045, 3020, 3044
9801, 3083, 6099, 3072, 3063
9802, 3086, 364, 3092, 3093
9803, 3068, 3043, 6089, 3077
9804, 6113, 3049, 6098, 3067
9805, 3073, 3023, 3066, 3090
9806, 6113, 3089, 3066, 2997
9807, 3084, 3105, 3065, 6086
9808, 3099, 3071, 3085, 3095
9809, 3043, 3068, 6086, 3065
9810, 3090, 3066, 3089, 3103
9811, 3115, 3114, 3104, 3100
9812, 3070, 3038, 3075, 6019
9813, 3024, 6093, 3049, 6120
9814, 3050, 3072, 3071, 6093
9815, 6067, 3046, 3074, 3082
9816, 3075, 6009, 3034, 6019
9817, 3047, 3079, 3076, 3058
9818, 318, 3080, 3016, 5905
9819, 3416, 3156, 3080, 318
9820, 6093, 3071, 6098, 3049
9821, 3108, 3097, 3091, 3079
9822, 3098, 3081, 3111, 3046
9823, 3095, 3085, 6099, 3097
9824, 3101, 3084, 3103, 3067
9825, 3085, 3071, 3072, 6099
9826, 3086, 3093, 3087, 3064
9827, 3048, 3087, 6088, 3051
9828, 6088, 3088, 3094, 3069
9829, 3093, 3092, 3107, 3088
9830, 6097, 3090, 6086, 3068
9831, 3108, 3079, 3096, 3113
9832, 3092, 364, 3081, 3098
9833, 3100, 3104, 3082, 3078
9834, 3095, 3097, 3108, 3109
9835, 3114, 3109, 3108, 3113
9836, 3083, 3091, 3097, 6099
9837, 6067, 3112, 3098, 3046
9838, 6098, 3071, 3099, 3102
9839, 3106, 3100, 3078, 3059
9840, 3101, 3067, 6098, 3102
9841, 3110, 3105, 3084, 3101
9842, 6087, 3099, 3095, 3109
9843, 3067, 3103, 3089, 6113
9844, 3116, 3104, 3114, 3113
9845, 6067, 3082, 3104, 3112
9846, 3106, 3052, 3105, 3110
9847, 3094, 3088, 3107, 3116
9848, 3113, 3096, 3094, 3116
9849, 3100, 3106, 3110, 3115
9850, 3115, 3110, 3117, 6087
9851, 3102, 3099, 6087, 3117
9852, 3109, 3114, 3115, 6087
9853, 3116, 3107, 3112, 3104
9854, 3694, 5656, 3674, 3554
9855, 339, 2416, 3118, 3397
9856, 5928, 3119, 320, 2218
9857, 3411, 3122, 3413, 372
9858, 3123, 336, 3530, 3151
9859, 3124, 3403, 3695, 3473
9860, 3863, 5904, 3437, 3401
9861, 2851, 2813, 3127, 3410
9862, 3128, 3401, 3437, 386
9863, 3619, 3396, 3573, 392
9864, 319, 3509, 3608, 3432
9865, 319, 2666, 3133, 3509
9866, 3408, 3415, 3134, 3389
9867, 5905, 3135, 3515, 318
9868, 3131, 3136, 3165, 349
9869, 5591, 3137, 1245, 1314
9870, 389, 2091, 3139, 3421
9871, 3415, 5760, 1791, 3134
9872, 4022, 404, 3888, 3556
9873, 3619, 3776, 3567, 3143
9874, 3413, 3567, 3589, 372
9875, 3144, 3595, 3425, 336
9876, 3414, 3159, 3156, 317
9877, 3406, 3572, 5733, 3561
9878, 405, 2259, 5866, 3423
9879, 405, 3578, 3146, 2259
9880, 3593, 3147, 3429, 3617
9881, 3160, 3400, 3174, 323
9882, 3422, 2814, 3409, 3582
9883, 3431, 3152, 3422, 409
9884, 3153, 1015, 1107, 5413
9885, 3154, 391, 3418, 3574
9886, 3573, 3154, 3574, 392
9887, 3411, 3166, 3155, 3122
9888, 3040, 3080, 3156, 3159
9889, 3833, 312, 3446, 3428
9890, 321, 3393, 3424, 3158
9891, 299, 3804, 3594, 3424
9892, 5768, 5642, 1379, 3173
9893, 3163, 3440, 3448, 3170
9894, 3164, 3172, 3539, 3436
9895, 3171, 3168, 3438, 3441
9896, 3183, 3171, 3441, 109
9897, 3419, 390, 3387, 3596
9898, 3434, 3394, 323, 3174
9899, 3615, 3445, 3176, 3175
9900, 3420, 5766, 3398, 5791
9901, 3176, 3445, 3623, 3182
9902, 3177, 3688, 3442, 3169
9903, 3450, 3443, 3178, 3194
9904, 3181, 3179, 3447, 3621
9905, 679, 48, 3183, 5315
9906, 3185, 3451, 3686, 3184
9907, 3210, 3186, 3449, 245
9908, 3254, 34, 636, 3259
9909, 3430, 402, 3399, 3390
9910, 3683, 3452, 3188, 3212
9911, 3189, 3188, 3452, 578
9912, 3189, 578, 3260, 3214
9913, 3192, 3453, 3630, 3201
9914, 3193, 3204, 3454, 4285
9915, 3540, 3195, 3236, 585
9916, 3235, 3196, 3463, 582
9917, 3429, 3197, 325, 3617
9918, 3198, 3459, 3626, 3208
9919, 3623, 3460, 3199, 3182
9920, 3225, 3199, 3460, 130
9921, 3685, 3455, 3200, 3220
9922, 3634, 3490, 3286, 3203
9923, 3205, 590, 3539, 3172
9924, 3216, 3206, 3458, 3466
9925, 3227, 3207, 599, 3340
9926, 3209, 3226, 3462, 3680
9927, 3627, 3461, 3211, 3202
9928, 3224, 3211, 3461, 123
9929, 3678, 3457, 3213, 3230
9930, 3528, 3215, 3245, 177
9931, 3239, 3216, 3466, 595
9932, 373, 3244, 3218, 3444
9933, 291, 4181, 3190, 3219
9934, 3221, 3468, 5331, 3240
9935, 3247, 629, 27, 3265
9936, 3223, 3247, 3523, 3681
9937, 3224, 123, 3475, 3246
9938, 3225, 130, 3384, 3249
9939, 3682, 3462, 3226, 3301
9940, 3469, 3229, 3232, 116
9941, 3231, 3262, 3524, 3684
9942, 3233, 3248, 3471, 112
9943, 3261, 3234, 3465, 222
9944, 3322, 3237, 3464, 334
9945, 3253, 3238, 4082, 113
9946, 468, 3255, 3240, 5331
9947, 3474, 3242, 3269, 312
9948, 3643, 3310, 3244, 373
9949, 3523, 3247, 3265, 557
9950, 115, 3537, 3250, 3287
9951, 3252, 3273, 120, 3472
9952, 402, 3187, 3254, 3538
9953, 423, 3259, 3256, 3541
9954, 3256, 33, 635, 3258
9955, 446, 3258, 3257, 3476
9956, 126, 3524, 3262, 3288
9957, 3276, 3263, 3479, 118
9958, 3265, 3264, 3478, 557
9959, 3284, 3266, 3480, 4286
9960, 3275, 377, 3489, 3304
9961, 674, 44, 3272, 3268
9962, 3245, 3268, 3536, 177
9963, 3412, 3446, 3270, 3157
9964, 3272, 3271, 3477, 199
9965, 3274, 3303, 3517, 354
9966, 3277, 124, 3487, 3291
9967, 3278, 3290, 3520, 3679
9968, 3279, 3296, 3483, 4258
9969, 3356, 82, 716, 3377
9970, 6, 3298, 3294, 607
9971, 3289, 3282, 109, 3486
9972, 3293, 3283, 3485, 119
9973, 3284, 4286, 353, 3308
9974, 3338, 3286, 3490, 587
9975, 3297, 3289, 3486, 110
9976, 3520, 3290, 3297, 110
9977, 3299, 3291, 3487, 125
9978, 3534, 3292, 3299, 125
9979, 3295, 3293, 119, 3488
9980, 3521, 3294, 3298, 114
9981, 3300, 3295, 3488, 3677
9982, 3677, 3483, 3296, 3300
9983, 3298, 3281, 3484, 114
9984, 3301, 3331, 3525, 3682
9985, 3339, 58, 689, 3350
9986, 3542, 3302, 3339, 591
9987, 3517, 3303, 3313, 355
9988, 378, 3314, 3304, 3489
9989, 3305, 290, 3676, 3222
9990, 3337, 3306, 3491, 594
9991, 3307, 376, 4203, 3285
9992, 3320, 6166, 6167, 3327
9993, 3482, 3309, 3320, 351
9994, 3321, 3310, 3643, 374
9995, 3529, 3311, 3341, 586
9996, 3349, 3312, 3493, 581
9997, 3313, 3325, 3522, 355
9998, 3314, 378, 3492, 3326
9999, 3519, 3315, 3355, 176
10000, 3346, 703, 702, 3354
10001, 3318, 4085, 352, 3323
10002, 3494, 3328, 3321, 374
10003, 3323, 352, 3512, 3327
10004, 3317, 3324, 3842, 4383
10005, 3329, 6177, 6178, 3334
10006, 356, 3522, 3325, 3329
10007, 379, 3330, 3326, 3492
10008, 3328, 3494, 3842, 3324
10009, 3330, 379, 3495, 3335
10010, 3347, 51, 681, 3348
10011, 3525, 3331, 3347, 598
10012, 3334, 3332, 357, 3532
10013, 3332, 6179, 6180, 5316
10014, 3367, 3373, 380, 3533
10015, 3333, 3335, 3495, 380
10016, 3342, 3343, 3516, 593
10017, 3341, 3352, 3514, 586
10018, 3342, 593, 3497, 3344
10019, 3337, 594, 3516, 3343
10020, 3345, 3344, 3497, 592
10021, 3345, 592, 3535, 3350
10022, 3496, 3346, 3354, 4182
10023, 3348, 3340, 599, 3531
10024, 3351, 3353, 3498, 4275
10025, 3351, 4275, 4182, 3354
10026, 3352, 3338, 587, 3514
10027, 3349, 581, 3498, 3353
10028, 3378, 3357, 3499, 221
10029, 3305, 3358, 4180, 290
10030, 176, 3355, 3359, 3527
10031, 3386, 357, 3332, 5316
10032, 108, 764, 3360, 3386
10033, 3361, 533, 4721, 3377
10034, 4087, 5333, 3966, 4262
10035, 3363, 3375, 3513, 467
10036, 3368, 710, 76, 3365
10037, 3364, 3368, 3518, 445
10038, 3365, 3374, 3526, 422
10039, 3374, 3366, 401, 3526
10040, 3372, 3369, 3501, 489
10041, 5333, 4087, 3362, 3370
10042, 3371, 3376, 511, 4474
10043, 3372, 489, 5333, 3370
10044, 3376, 3362, 4087, 511
10045, 104, 759, 3385, 3379
10046, 3379, 267, 4180, 3358
10047, 3382, 3381, 3502, 244
10048, 3380, 3383, 3503, 5322
10049, 3379, 3385, 4086, 267
10050, 2058, 3388, 3426, 338
10051, 3389, 5541, 5459, 3427
10052, 3511, 3433, 3391, 5368
10053, 5366, 3391, 3433, 3395
10054, 3507, 3392, 3148, 3404
10055, 3506, 3392, 3507, 411
10056, 3393, 5798, 3402, 3424
10057, 3510, 3604, 3435, 322
10058, 3561, 3554, 3118, 3406
10059, 3398, 5788, 3544, 5791
10060, 5791, 3544, 5836, 3716
10061, 3399, 402, 3538, 3810
10062, 3602, 3878, 3699, 301
10063, 301, 3699, 3809, 3932
10064, 3401, 3546, 3806, 3863
10065, 300, 3690, 3402, 3435
10066, 299, 3424, 3402, 3690
10067, 3546, 3473, 3695, 3806
10068, 3635, 3507, 3404, 3584
10069, 3618, 3509, 320, 3405
10070, 3649, 5733, 3572, 3414
10071, 3415, 3408, 5617, 5628
10072, 3410, 3692, 3563, 5968
10073, 3446, 3412, 335, 3428
10074, 317, 3156, 3416, 3548
10075, 408, 3409, 3417, 5968
10076, 3418, 391, 5766, 3420
10077, 3419, 3596, 412, 5836
10078, 3675, 3420, 5791, 3716
10079, 3139, 3150, 3505, 3421
10080, 3545, 3336, 3421, 3505
10081, 3140, 3141, 3423, 5866
10082, 3428, 3530, 3547, 3833
10083, 315, 3586, 3426, 5656
10084, 3130, 3504, 3508, 1560
10085, 3408, 5496, 3576, 5617
10086, 3430, 3120, 3187, 402
10087, 3590, 3545, 3505, 3431
10088, 3432, 3687, 3515, 3135
10089, 3871, 3597, 3972, 296
10090, 3395, 3433, 3592, 325
10091, 301, 3604, 3434, 3602
10092, 3440, 3436, 589, 3585
10093, 3647, 3437, 5904, 3692
10094, 3441, 3438, 3822, 3653
10095, 131, 3822, 3438, 3439
10096, 3442, 3564, 131, 3439
10097, 154, 3564, 3442, 3688
10098, 3550, 3443, 3450, 127
10099, 3629, 372, 3589, 5375
10100, 3703, 3445, 3615, 128
10101, 3623, 3445, 129, 3800
10102, 3662, 3748, 3666, 584
10103, 3621, 3447, 3813, 583
10104, 3634, 3448, 588, 5351
10105, 3449, 3686, 3697, 3636
10106, 3451, 4181, 3570, 268
10107, 3686, 3451, 268, 3697
10108, 3652, 3478, 578, 3452
10109, 512, 3453, 3192, 3191
10110, 490, 3630, 3453, 3579
10111, 3454, 3681, 3568, 5350
10112, 3656, 3531, 599, 3455
10113, 3581, 337, 3407, 3162
10114, 3706, 3456, 3581, 3696
10115, 3457, 3678, 121, 3587
10116, 3466, 3458, 596, 3552
10117, 3800, 3734, 3854, 3663
10118, 3769, 3731, 4140, 3650
10119, 3588, 5349, 597, 3729
10120, 583, 3598, 3463, 3621
10121, 3714, 4130, 3751, 3580
10122, 3787, 5378, 4134, 3669
10123, 3316, 579, 3467, 3251
10124, 3640, 490, 3728, 4074
10125, 3783, 5377, 4133, 3673
10126, 3356, 556, 3470, 3280
10127, 111, 3575, 3471, 3679
10128, 5334, 3474, 312, 3833
10129, 3560, 4295, 3474, 5334
10130, 5415, 5367, 3773, 469
10131, 3792, 222, 3669, 3869
10132, 3790, 117, 3673, 3865
10133, 4286, 3480, 3559, 4067
10134, 3558, 3481, 4203, 4060
10135, 3616, 3643, 373, 3754
10136, 3830, 3565, 3483, 3677
10137, 3606, 3484, 113, 3835
10138, 3613, 3488, 119, 3746
10139, 3610, 3489, 377, 3735
10140, 3490, 3634, 5351, 3562
10141, 3603, 3491, 595, 3727
10142, 3661, 3495, 379, 3778
10143, 290, 4180, 3549, 3718
10144, 3555, 3498, 581, 3732
10145, 334, 3752, 3657, 3500
10146, 556, 4721, 3557, 3721
10147, 3508, 3566, 3427, 5459
10148, 3689, 3506, 411, 3791
10149, 3506, 3689, 3596, 3387
10150, 3604, 3510, 3394, 3434
10151, 3511, 349, 3645, 5384
10152, 3609, 3514, 587, 3738
10153, 297, 3687, 3432, 3608
10154, 3625, 110, 3816, 3772
10155, 3523, 557, 3620, 534
10156, 3637, 598, 3812, 3755
10157, 3682, 3525, 3820, 597
10158, 3632, 177, 3758, 3912
10159, 3547, 3425, 313, 3702
10160, 5379, 3784, 3775, 572
10161, 3782, 3664, 423, 3541
10162, 3659, 3539, 590, 3805
10163, 4126, 3747, 3745, 565
10164, 350, 3741, 3753, 3543
10165, 3716, 5836, 3796, 3853
10166, 3560, 5334, 3702, 3900
10167, 3547, 3702, 5334, 3833
10168, 3957, 5790, 4002, 4152
10169, 3549, 4180, 267, 4261
10170, 127, 3824, 5440, 3550
10171, 3739, 3703, 128, 3884
10172, 579, 3496, 3551, 3720
10173, 596, 3839, 3903, 3552
10174, 3727, 3552, 3903, 575
10175, 4175, 4033, 3885, 143
10176, 3889, 3722, 3553, 4037
10177, 3397, 3118, 3554, 3674
10178, 3554, 3561, 3852, 3694
10179, 4057, 580, 4071, 560
10180, 3888, 404, 5577, 4055
10181, 3556, 3888, 3723, 3793
10182, 3896, 3557, 4061, 5380
10183, 3735, 3558, 3907, 398
10184, 4067, 3559, 3908, 5383
10185, 4246, 4295, 3560, 3857
10186, 316, 3852, 3561, 5733
10187, 3738, 3562, 3926, 567
10188, 587, 3490, 3562, 3738
10189, 3996, 3874, 5395, 3821
10190, 3664, 3810, 3538, 423
10191, 3566, 3698, 5458, 3427
10192, 3691, 3589, 3567, 3776
10193, 4285, 3454, 5350, 4068
10194, 3841, 3916, 5437, 5412
10195, 3569, 3916, 3841, 375
10196, 3570, 4044, 3887, 3719
10197, 3571, 3724, 3898, 3971
10198, 3695, 3971, 3858, 3806
10199, 3572, 3406, 5832, 3145
10200, 4050, 3575, 3901, 4202
10201, 403, 3818, 3576, 5496
10202, 3576, 3818, 3709, 5577
10203, 3879, 3708, 3577, 3720
10204, 3467, 3577, 3803, 3683
10205, 405, 3556, 3793, 3578
10206, 3897, 3579, 4063, 513
10207, 289, 3881, 3700, 3718
10208, 3626, 3459, 3580, 3751
10209, 3696, 3581, 3162, 3586
10210, 3595, 3456, 3706, 5417
10211, 408, 3715, 3725, 3582
10212, 3814, 3711, 409, 5985
10213, 3721, 3557, 3896, 4132
10214, 3470, 3583, 3802, 3685
10215, 3701, 3635, 3883, 4062
10216, 3585, 589, 3704, 3954
10217, 3722, 3587, 121, 3553
10218, 122, 3892, 3731, 3769
10219, 3588, 3856, 3827, 5349
10220, 129, 3445, 3703, 3851
10221, 3734, 129, 3851, 5372
10222, 5375, 3828, 5387, 5376
10223, 410, 3545, 3590, 3819
10224, 4103, 3591, 3740, 5407
10225, 3591, 3894, 3741, 350
10226, 3743, 3617, 325, 3592
10227, 3593, 303, 3826, 302
10228, 3593, 302, 3878, 3147
10229, 3798, 3944, 299, 3690
10230, 3829, 5417, 3706, 314
10231, 313, 3425, 3595, 5417
10232, 295, 3597, 3871, 4115
10233, 3757, 3598, 3945, 562
10234, 582, 3463, 3598, 3757
10235, 244, 3502, 3599, 3837
10236, 351, 3512, 3600, 3764
10237, 489, 3501, 3601, 3838
10238, 3878, 3602, 3400, 3147
10239, 3603, 3936, 574, 3761
10240, 3732, 3605, 3935, 561
10241, 581, 3493, 3605, 3732
10242, 3765, 3606, 3934, 136
10243, 3607, 3808, 5374, 3949
10244, 221, 3499, 3607, 5348
10245, 3767, 3609, 3931, 566
10246, 3759, 3610, 3921, 399
10247, 3611, 3771, 3939, 4102
10248, 354, 3517, 3612, 3730
10249, 3986, 3830, 3613, 3906
10250, 3614, 3761, 4142, 3929
10251, 3762, 3614, 3929, 573
10252, 3616, 3915, 3737, 5343
10253, 303, 3593, 3617, 5501
10254, 5918, 3618, 3405, 3594
10255, 3681, 3523, 534, 3568
10256, 3750, 3620, 557, 3817
10257, 3911, 3622, 3765, 136
10258, 3890, 3624, 3767, 566
10259, 3745, 3624, 3890, 565
10260, 3913, 3625, 3772, 4018
10261, 3625, 3913, 4114, 3834
10262, 3628, 3749, 3891, 3845
10263, 5357, 3823, 5373, 197
10264, 373, 3444, 3629, 3754
10265, 3922, 3631, 3770, 149
10266, 3825, 3846, 3824, 127
10267, 3912, 4041, 3855, 3632
10268, 3688, 3528, 3831, 154
10269, 3633, 3777, 3946, 4104
10270, 245, 3449, 3636, 3744
10271, 3905, 3637, 3755, 5394
10272, 3992, 3820, 3637, 3905
10273, 3963, 3638, 3781, 333
10274, 3763, 3638, 3963, 4107
10275, 3943, 3639, 3759, 399
10276, 3639, 3943, 400, 3778
10277, 3928, 3773, 3640, 4074
10278, 3924, 3641, 3762, 573
10279, 3775, 3641, 3924, 572
10280, 3642, 3751, 4130, 4072
10281, 3644, 3780, 3927, 4125
10282, 5384, 3645, 326, 5411
10283, 3543, 3753, 3645, 349
10284, 3742, 3646, 3882, 138
10285, 3410, 3127, 3647, 3692
10286, 3964, 3648, 3786, 400
10287, 3777, 3648, 3964, 4105
10288, 3713, 317, 3548, 3923
10289, 3801, 316, 5733, 3649
10290, 3650, 3914, 3768, 123
10291, 3651, 3779, 3917, 4116
10292, 3708, 3850, 3803, 3577
10293, 3850, 3817, 3652, 3803
10294, 3736, 3950, 3822, 131
10295, 3653, 3822, 3950, 3816
10296, 3654, 3774, 3919, 4127
10297, 3655, 3789, 3947, 4124
10298, 3710, 3847, 3802, 3583
10299, 3847, 3812, 3656, 3802
10300, 3781, 3657, 3752, 333
10301, 4069, 3658, 3784, 5379
10302, 3658, 3925, 3785, 591
10303, 3942, 4391, 3995, 3704
10304, 3660, 5367, 5415, 3861
10305, 3667, 446, 3788, 3860
10306, 3786, 3661, 3778, 400
10307, 3747, 4126, 3875, 3662
10308, 3460, 3623, 3800, 3663
10309, 3955, 3664, 3782, 424
10310, 3665, 3790, 3870, 4108
10311, 4136, 3666, 3748, 564
10312, 3813, 3848, 3807, 583
10313, 4416, 3667, 3860, 4209
10314, 3668, 3785, 4046, 3918
10315, 3805, 3668, 3918, 570
10316, 3670, 3794, 3866, 5442
10317, 3671, 3768, 3864, 5441
10318, 3872, 3672, 3792, 5385
10319, 3774, 3672, 3872, 3919
10320, 3426, 3388, 3674, 5656
10321, 3717, 3862, 3849, 3693
10322, 3583, 3470, 556, 3721
10323, 3577, 3467, 579, 3720
10324, 3446, 312, 3269, 3270
10325, 596, 3458, 3680, 3827
10326, 3462, 3682, 597, 5349
10327, 127, 3450, 3684, 3825
10328, 3543, 3217, 3243, 350
10329, 434, 3904, 4047, 4426
10330, 3596, 3689, 4001, 412
10331, 3844, 3691, 3776, 3868
10332, 393, 3828, 3691, 3844
10333, 3873, 3692, 5904, 407
10334, 4162, 3868, 3693, 3849
10335, 392, 3574, 3693, 3868
10336, 5656, 3694, 5611, 315
10337, 3818, 403, 3955, 424
10338, 5458, 3698, 3955, 403
10339, 302, 3962, 3699, 3878
10340, 4062, 3883, 3948, 432
10341, 3560, 3900, 5345, 3857
10342, 3884, 128, 3550, 5440
10343, 3851, 3703, 3739, 151
10344, 3704, 589, 3659, 3942
10345, 3832, 3954, 3975, 4092
10346, 314, 3977, 3705, 4038
10347, 3706, 3696, 3977, 314
10348, 3548, 3597, 295, 3923
10349, 3933, 297, 3959, 4120
10350, 297, 3608, 3707, 3959
10351, 3850, 558, 3750, 3817
10352, 425, 4055, 5577, 3709
10353, 3847, 5394, 3755, 3812
10354, 4139, 3859, 3711, 3814
10355, 3712, 142, 4078, 3885
10356, 3712, 3565, 3830, 3986
10357, 3801, 5790, 3957, 3843
10358, 4048, 5948, 5936, 4006
10359, 3953, 3725, 3715, 5948
10360, 413, 3675, 3716, 3853
10361, 3675, 413, 3862, 3717
10362, 3886, 4187, 4076, 5397
10363, 3720, 3551, 3893, 559
10364, 5495, 3902, 4093, 5491
10365, 5394, 5499, 4019, 3905
10366, 3587, 4053, 3892, 122
10367, 4119, 3724, 3793, 426
10368, 3898, 3724, 4119, 427
10369, 3726, 535, 5422, 3899
10370, 3726, 534, 3620, 4129
10371, 3856, 3588, 4284, 4118
10372, 3729, 597, 3820, 3992
10373, 3914, 3650, 4140, 4015
10374, 133, 3901, 3733, 4184
10375, 3733, 111, 3834, 4114
10376, 3779, 3854, 152, 3917
10377, 3950, 132, 3772, 3816
10378, 131, 3564, 5396, 3736
10379, 3737, 395, 5437, 3916
10380, 3569, 5343, 3737, 3916
10381, 3882, 3646, 3756, 137
10382, 3865, 3673, 4133, 4031
10383, 5411, 3743, 3592, 5384
10384, 5456, 5455, 3811, 5517
10385, 3869, 3669, 4134, 223
10386, 3748, 3662, 3875, 564
10387, 3666, 4136, 3848, 3813
10388, 3815, 3749, 176, 3527
10389, 3902, 3750, 558, 4093
10390, 3756, 3622, 3911, 137
10391, 3938, 3760, 220, 4042
10392, 3599, 5348, 3760, 3938
10393, 3920, 3763, 4107, 332
10394, 3764, 3600, 3930, 328
10395, 3894, 3591, 4103, 4024
10396, 3766, 466, 3940, 3601
10397, 146, 3864, 3768, 3914
10398, 3631, 3922, 3846, 3825
10399, 4104, 3939, 3771, 3633
10400, 4018, 3772, 132, 5423
10401, 5331, 3773, 5367, 468
10402, 3861, 5415, 469, 4141
10403, 3925, 3658, 4069, 3989
10404, 3946, 3777, 4105, 421
10405, 3779, 153, 3663, 3854
10406, 3927, 3780, 140, 3999
10407, 3788, 3660, 3861, 447
10408, 3788, 447, 5416, 3860
10409, 5442, 3947, 3789, 3670
10410, 139, 3870, 3790, 3865
10411, 5385, 3792, 3869, 5398
10412, 5441, 3866, 3794, 3671
10413, 5922, 4077, 3978, 4098
10414, 296, 3687, 3795, 5922
10415, 3982, 3796, 3876, 4149
10416, 3944, 277, 4109, 3961
10417, 300, 3797, 3941, 3799
10418, 5834, 5833, 5861, 3979
10419, 3649, 3713, 5790, 3801
10420, 3804, 298, 5918, 3594
10421, 3942, 570, 4117, 4391
10422, 4137, 3863, 3806, 3858
10423, 3945, 3807, 563, 4091
10424, 3808, 198, 3823, 5357
10425, 5374, 3808, 5357, 5389
10426, 3910, 301, 3932, 279
10427, 3698, 3810, 3664, 3955
10428, 5598, 3951, 5517, 3811
10429, 303, 5517, 3951, 3952
10430, 3797, 300, 3435, 3604
10431, 4139, 3814, 3969, 5970
10432, 5369, 3651, 4116, 175
10433, 3948, 3883, 410, 3819
10434, 154, 3831, 3821, 5395
10435, 3823, 3628, 3845, 5373
10436, 5440, 4007, 4121, 3884
10437, 3970, 3962, 302, 3826
10438, 3827, 3856, 3839, 596
10439, 3828, 393, 3867, 5387
10440, 3829, 3956, 4106, 5370
10441, 5417, 3829, 5370, 313
10442, 3930, 4585, 5519, 4051
10443, 4094, 4079, 3903, 3839
10444, 3562, 5351, 3840, 3926
10445, 3967, 396, 4143, 5386
10446, 4383, 3842, 375, 5347
10447, 3980, 4153, 3983, 3843
10448, 316, 3801, 3843, 3983
10449, 3844, 5572, 4012, 393
10450, 3891, 4030, 4259, 3845
10451, 5389, 5357, 197, 5404
10452, 3922, 4020, 5586, 3846
10453, 3846, 5586, 150, 3824
10454, 5394, 3847, 3710, 5499
10455, 4111, 3848, 4136, 5444
10456, 563, 3807, 3848, 4111
10457, 558, 3850, 3708, 4093
10458, 5405, 5372, 3851, 151
10459, 4216, 5474, 5405, 151
10460, 3694, 3852, 3968, 5611
10461, 3854, 3734, 5372, 152
10462, 4246, 5335, 4044, 291
10463, 4291, 4148, 4420, 429
10464, 431, 4257, 3859, 4139
10465, 3859, 432, 3948, 3819
10466, 3991, 4209, 3860, 5416
10467, 3981, 4000, 413, 3853
10468, 3849, 3862, 4155, 5675
10469, 407, 5904, 3863, 4137
10470, 4017, 3864, 146, 4415
10471, 4200, 4031, 4133, 5399
10472, 147, 4008, 3866, 5441
10473, 3867, 393, 4012, 4243
10474, 4043, 223, 4134, 5402
10475, 4016, 3870, 139, 4192
10476, 5385, 4010, 5418, 3872
10477, 200, 3919, 3872, 5418
10478, 407, 4006, 5936, 3873
10479, 429, 4048, 4006, 4291
10480, 4026, 3874, 3996, 4163
10481, 3875, 4126, 4073, 5420
10482, 4001, 3689, 3791, 3904
10483, 5611, 3968, 4039, 5545
10484, 4038, 3877, 4189, 4775
10485, 3880, 4194, 5499, 3710
10486, 151, 3739, 3884, 4121
10487, 143, 3885, 4078, 4314
10488, 4187, 3886, 4035, 5371
10489, 3744, 3886, 5397, 246
10490, 4096, 269, 5346, 292
10491, 269, 5371, 3887, 5346
10492, 4081, 3889, 4175, 4449
10493, 175, 3891, 3749, 5369
10494, 4075, 3892, 4053, 5502
10495, 3892, 4075, 5500, 3731
10496, 3894, 327, 4070, 3741
10497, 3895, 4049, 4066, 5479
10498, 3896, 5449, 555, 4132
10499, 4080, 3897, 513, 4541
10500, 491, 3728, 3897, 4080
10501, 3987, 3898, 427, 4197
10502, 3899, 5422, 4083, 5381
10503, 4063, 4068, 5382, 513
10504, 5345, 292, 5340, 3857
10505, 3901, 133, 4054, 4202
10506, 4059, 4129, 3902, 5495
10507, 4149, 4001, 3904, 434
10508, 3905, 4019, 5473, 3992
10509, 5443, 3906, 141, 4211
10510, 3986, 3906, 5443, 4056
10511, 5383, 3908, 4034, 5410
10512, 3910, 4123, 3941, 3797
10513, 333, 4072, 4040, 3963
10514, 333, 3752, 3642, 4072
10515, 3912, 3758, 178, 4041
10516, 3915, 394, 5457, 4036
10517, 4003, 5437, 395, 4036
10518, 3993, 3917, 152, 4112
10519, 4116, 3917, 3993, 4245
10520, 4005, 3918, 4046, 571
10521, 200, 3997, 4127, 3919
10522, 4113, 3920, 332, 4327
10523, 3922, 149, 5516, 4020
10524, 3785, 3925, 571, 4046
10525, 4074, 4013, 5435, 3928
10526, 3928, 5435, 469, 3773
10527, 5693, 3809, 3962, 3970
10528, 275, 4077, 3933, 4120
10529, 4144, 3936, 575, 5452
10530, 4062, 3984, 3937, 3701
10531, 433, 4047, 3937, 3984
10532, 444, 4004, 3939, 4104
10533, 4102, 3939, 4004, 4368
10534, 3944, 3798, 3979, 277
10535, 3946, 421, 5406, 3994
10536, 4104, 3946, 3994, 444
10537, 148, 3990, 3947, 5442
10538, 4062, 432, 4276, 3984
10539, 220, 3760, 3949, 4089
10540, 3950, 3736, 4026, 132
10541, 3952, 3951, 4110, 281
10542, 5690, 3970, 3826, 4084
10543, 3954, 3704, 3995, 3975
10544, 5375, 5376, 3754, 3629
10545, 4238, 134, 4351, 3958
10546, 3959, 3707, 5918, 298
10547, 3961, 4099, 298, 3804
10548, 4067, 330, 4359, 4241
10549, 3960, 4241, 4359, 4761
10550, 276, 4099, 3961, 4109
10551, 4107, 3963, 4040, 4207
10552, 5505, 3964, 400, 3943
10553, 4145, 266, 4261, 3965
10554, 3965, 4261, 267, 4086
10555, 4262, 3966, 4146, 510
10556, 4255, 5386, 397, 4060
10557, 5958, 4097, 431, 5970
10558, 5690, 5691, 5693, 3970
10559, 428, 3971, 3898, 3987
10560, 4088, 3973, 4209, 3991
10561, 3709, 3973, 4088, 425
10562, 3976, 4135, 4095, 5503
10563, 4092, 3975, 4101, 5531
10564, 5503, 3811, 5455, 3976
10565, 5896, 3978, 4210, 4592
10566, 4153, 4393, 4301, 4039
10567, 4000, 3981, 4151, 5734
10568, 3982, 4149, 4158, 4167
10569, 3988, 415, 4012, 5572
10570, 3868, 4162, 5572, 3844
10571, 5401, 4412, 3989, 4069
10572, 4222, 5563, 148, 4008
10573, 3729, 3992, 5473, 577
10574, 4388, 3994, 5406, 5468
10575, 5423, 132, 4026, 4163
10576, 178, 4127, 3997, 4312
10577, 4215, 4343, 200, 5418
10578, 4231, 4410, 573, 3929
10579, 3998, 4410, 4511, 4321
10580, 3999, 140, 4178, 4319
10581, 4319, 4499, 4334, 3999
10582, 4000, 5734, 4300, 4155
10583, 3876, 412, 4001, 4149
10584, 4161, 295, 4115, 4310
10585, 5467, 4353, 4515, 5547
10586, 4171, 4005, 571, 5400
10587, 4005, 4171, 4313, 4170
10588, 4121, 4007, 4265, 5514
10589, 4229, 5530, 147, 4017
10590, 5530, 4222, 4008, 147
10591, 567, 3926, 4009, 4232
10592, 4010, 4521, 4215, 5418
10593, 4390, 5398, 4227, 224
10594, 4011, 4344, 4461, 5414
10595, 5414, 4071, 3909, 4011
10596, 3867, 4243, 5532, 4394
10597, 4223, 4408, 491, 4080
10598, 4406, 574, 4251, 5419
10599, 4281, 145, 4198, 168
10600, 4015, 4281, 4328, 4199
10601, 4320, 4178, 140, 4108
10602, 4415, 146, 4199, 4422
10603, 4184, 5446, 4290, 133
10604, 4290, 5423, 4160, 4491
10605, 5565, 5516, 5515, 4213
10606, 566, 3931, 4021, 4217
10607, 4022, 3423, 3141, 5628
10608, 4147, 327, 4159, 305
10609, 327, 3894, 4024, 4159
10610, 4270, 4025, 4377, 487
10611, 488, 3940, 4025, 4270
10612, 4324, 4456, 4224, 159
10613, 4027, 4456, 4324, 4183
10614, 4327, 4195, 331, 4113
10615, 4058, 3890, 566, 4217
10616, 4376, 4438, 4436, 397
10617, 4309, 4173, 4029, 4436
10618, 4288, 4492, 5403, 4259
10619, 4514, 4200, 4168, 161
10620, 5518, 5534, 5595, 554
10621, 4037, 4033, 4175, 3889
10622, 4453, 5383, 5410, 4751
10623, 4287, 5457, 4122, 416
10624, 4225, 5569, 4418, 417
10625, 3553, 3472, 120, 4037
10626, 3877, 4038, 3705, 5545
10627, 4039, 4301, 3877, 5545
10628, 4207, 4040, 4154, 310
10629, 155, 3855, 4041, 4280
10630, 4269, 4042, 4379, 242
10631, 243, 3938, 4042, 4269
10632, 246, 4188, 4409, 5402
10633, 5346, 3887, 4044, 5335
10634, 4221, 4045, 4364, 538
10635, 561, 3935, 4045, 4221
10636, 4172, 433, 3984, 4276
10637, 3985, 3953, 5948, 4048
10638, 4049, 266, 4439, 4066
10639, 134, 4238, 4050, 4202
10640, 4205, 4051, 5519, 4332
10641, 3930, 4051, 5448, 328
10642, 4052, 4460, 4340, 4224
10643, 4054, 133, 4169, 5571
10644, 4202, 4054, 4433, 134
10645, 4056, 5443, 4211, 4363
10646, 142, 4277, 4193, 4078
10647, 3555, 580, 4275, 3498
10648, 3893, 4191, 4065, 5466
10649, 3890, 4058, 4164, 565
10650, 4129, 4059, 535, 3726
10651, 376, 4383, 5347, 4255
10652, 4029, 4060, 397, 4436
10653, 4378, 4544, 4787, 4607
10654, 5380, 4032, 5449, 3896
10655, 3911, 136, 4456, 4027
10656, 4190, 4065, 4317, 5551
10657, 4176, 4307, 4534, 4566
10658, 4286, 4067, 4241, 353
10659, 3899, 5381, 5350, 3568
10660, 4228, 5382, 5381, 4083
10661, 572, 5401, 4069, 5379
10662, 3998, 3924, 573, 4410
10663, 4230, 4154, 311, 4090
10664, 4323, 4204, 4073, 4402
10665, 3921, 398, 5510, 4028
10666, 4074, 3728, 491, 4013
10667, 5502, 5506, 4273, 4315
10668, 4075, 5502, 4315, 4198
10669, 4401, 4311, 4076, 4187
10670, 3795, 3933, 4077, 5922
10671, 514, 4398, 4348, 4542
10672, 4550, 143, 4314, 4806
10673, 4081, 4449, 4174, 5506
10674, 3238, 3228, 5332, 4082
10675, 4082, 5332, 4238, 3958
10676, 4083, 5422, 4236, 4348
10677, 3952, 281, 4283, 4084
10678, 4085, 353, 4241, 3960
10679, 5534, 5518, 4201, 5472
10680, 4209, 3973, 424, 4416
10681, 5494, 4355, 4089, 4254
10682, 5557, 4335, 4266, 288
10683, 4250, 4091, 4413, 539
10684, 562, 3945, 4091, 4250
10685, 4237, 5531, 4150, 545
10686, 5531, 4237, 568, 4092
10687, 4135, 5454, 4147, 4095
10688, 4381, 4147, 305, 4578
10689, 4242, 292, 5345, 4106
10690, 430, 5962, 4392, 5958
10691, 5896, 4165, 4098, 3978
10692, 4296, 4339, 4235, 5889
10693, 569, 4218, 5583, 4101
10694, 4102, 466, 3766, 3611
10695, 5407, 328, 5448, 4103
10696, 4103, 5448, 4234, 4024
10697, 4023, 4105, 3964, 5505
10698, 5370, 4106, 5345, 3900
10699, 4108, 140, 3780, 3665
10700, 4271, 4186, 4110, 5650
10701, 4064, 3882, 137, 4279
10702, 4113, 331, 3730, 3612
10703, 175, 4116, 4245, 4157
10704, 3815, 3651, 5369, 3749
10705, 4117, 570, 4170, 4819
10706, 576, 3856, 4118, 4240
10707, 4404, 4341, 577, 5473
10708, 5664, 4119, 426, 5604
10709, 5387, 4122, 5457, 394
10710, 279, 4248, 4352, 4247
10711, 4124, 149, 3770, 3655
10712, 4125, 141, 3746, 3644
10713, 4073, 4126, 565, 4402
10714, 4127, 178, 3758, 3654
10715, 4128, 4357, 4248, 5759
10716, 4090, 3714, 3881, 289
10717, 4130, 3714, 4090, 311
10718, 3880, 3721, 4132, 555
10719, 5377, 138, 5399, 4133
10720, 5378, 246, 5402, 4134
10721, 4135, 3974, 4070, 5454
10722, 5454, 4070, 327, 4147
10723, 5444, 4136, 564, 4338
10724, 4148, 4291, 4137, 3858
10725, 304, 4264, 4381, 4249
10726, 145, 4140, 3731, 5500
10727, 4015, 4140, 145, 4281
10728, 3861, 4141, 5453, 447
10729, 4214, 4141, 469, 5435
10730, 4142, 3761, 574, 4406
10731, 4261, 266, 4049, 3549
10732, 4264, 4095, 4147, 4381
10733, 4278, 4303, 428, 3987
10734, 545, 4150, 546, 4506
10735, 5795, 4329, 5734, 4151
10736, 4300, 5734, 4329, 4770
10737, 4152, 294, 3980, 3957
10738, 294, 4393, 4153, 3980
10739, 4300, 4770, 4565, 5696
10740, 5696, 5675, 4155, 4300
10741, 4167, 4158, 4308, 435
10742, 4024, 4234, 4349, 4159
10743, 4396, 155, 4280, 4563
10744, 4424, 4571, 4310, 273
10745, 4161, 4310, 4571, 4292
10746, 414, 4162, 3849, 5675
10747, 4293, 3988, 414, 4299
10748, 4163, 3996, 4160, 5423
10749, 4497, 4165, 5896, 274
10750, 4165, 273, 4310, 4115
10751, 4373, 4392, 453, 4504
10752, 4392, 5962, 4166, 453
10753, 4151, 4167, 435, 5795
10754, 4514, 4322, 4031, 4200
10755, 4064, 4168, 4200, 5399
10756, 4574, 4446, 4549, 4758
10757, 4171, 548, 4852, 4313
10758, 4173, 4929, 4405, 5509
10759, 4174, 167, 4273, 5506
10760, 4449, 4175, 143, 4550
10761, 4266, 5479, 4176, 288
10762, 4316, 5462, 4427, 5520
10763, 4499, 4319, 4524, 5507
10764, 4360, 4531, 4563, 4280
10765, 580, 4057, 4182, 4275
10766, 5451, 4027, 4183, 5524
10767, 4018, 5423, 4290, 5446
10768, 4185, 4419, 4311, 4401
10769, 269, 4096, 4185, 4401
10770, 281, 4110, 4186, 4304
10771, 5371, 4035, 3719, 3887
10772, 269, 4401, 4187, 5371
10773, 4409, 247, 5535, 5478
10774, 4682, 4552, 4582, 271
10775, 4828, 4775, 4189, 293
10776, 536, 4236, 4190, 5551
10777, 5466, 4065, 4190, 5539
10778, 4191, 4057, 560, 4455
10779, 4455, 560, 4071, 5414
10780, 4320, 4016, 4384, 4503
10781, 4193, 4451, 4314, 4078
10782, 4019, 5499, 4194, 5588
10783, 5475, 4810, 5523, 308
10784, 4216, 151, 4121, 5514
10785, 4294, 4447, 4157, 4245
10786, 4244, 427, 4119, 5664
10787, 4278, 4367, 4528, 4476
10788, 4404, 5588, 554, 4341
10789, 555, 5449, 4201, 5518
10790, 4060, 4203, 376, 4255
10791, 5421, 5420, 5463, 5464
10792, 4051, 4205, 4234, 5448
10793, 4330, 4206, 4028, 4405
10794, 425, 4088, 4208, 5578
10795, 4208, 5544, 4267, 5578
10796, 5903, 4210, 5927, 4459
10797, 141, 4125, 4334, 4211
10798, 5587, 5029, 4282, 5586
10799, 4470, 4385, 5453, 4141
10800, 4343, 4517, 3997, 200
10801, 4397, 5514, 4265, 4855
10802, 543, 4569, 4302, 4217
10803, 4391, 4218, 569, 3995
10804, 4345, 4219, 443, 4493
10805, 4190, 4236, 4220, 5539
10806, 171, 4358, 5563, 4222
10807, 4337, 4408, 492, 4507
10808, 4224, 4456, 5445, 4052
10809, 4225, 4003, 4036, 5569
10810, 4515, 4353, 417, 4634
10811, 5468, 5406, 420, 4482
10812, 5406, 421, 4226, 420
10813, 4227, 223, 4043, 5484
10814, 5597, 4382, 5530, 4229
10815, 310, 4154, 4230, 5521
10816, 4231, 550, 4511, 4410
10817, 4232, 544, 4342, 4021
10818, 4233, 552, 5546, 4365
10819, 4144, 5452, 4233, 4365
10820, 5889, 4297, 4450, 255
10821, 5926, 4100, 5902, 4298
10822, 535, 4220, 4236, 5422
10823, 4348, 4236, 536, 4542
10824, 112, 4050, 4238, 5332
10825, 540, 4387, 4239, 4519
10826, 4435, 4546, 4430, 4306
10827, 415, 5599, 4243, 4012
10828, 5532, 4243, 5599, 4573
10829, 5664, 4395, 4472, 4244
10830, 3993, 4112, 5474, 4196
10831, 4295, 4246, 291, 3219
10832, 4247, 4352, 4450, 4297
10833, 4248, 4357, 4429, 4651
10834, 4389, 4249, 4432, 4431
10835, 466, 4102, 4368, 4252
10836, 5926, 4109, 277, 4100
10837, 5404, 5403, 4254, 4089
10838, 4355, 5494, 5553, 4505
10839, 3967, 5386, 4255, 5347
10840, 4256, 418, 4779, 4621
10841, 4438, 4376, 4256, 4621
10842, 4257, 431, 4097, 4268
10843, 4276, 432, 4374, 455
10844, 4259, 5403, 5373, 3845
10845, 4030, 4157, 4447, 4288
10846, 4260, 5483, 4443, 4370
10847, 487, 5470, 4263, 4270
10848, 4441, 4369, 4263, 5470
10849, 5603, 4395, 5664, 5604
10850, 426, 4131, 4267, 5604
10851, 4400, 4268, 454, 4463
10852, 4260, 4269, 242, 5483
10853, 4025, 4252, 5469, 4377
10854, 4289, 4271, 282, 4448
10855, 4543, 4346, 553, 4601
10856, 4346, 4079, 4094, 576
10857, 429, 4420, 4356, 4272
10858, 5901, 4588, 452, 4372
10859, 4315, 4273, 4414, 5608
10860, 4417, 4172, 4276, 455
10861, 4491, 4160, 4396, 156
10862, 4510, 4328, 4281, 168
10863, 4282, 5029, 4855, 4265
10864, 4357, 280, 4375, 4429
10865, 280, 4084, 4283, 4375
10866, 4118, 4284, 577, 4341
10867, 4287, 416, 4418, 5569
10868, 4447, 4294, 4570, 5548
10869, 4254, 5403, 4492, 196
10870, 4437, 4619, 258, 4421
10871, 4169, 133, 4290, 4491
10872, 4152, 4292, 5725, 294
10873, 4496, 4293, 4299, 4565
10874, 415, 3988, 4293, 4496
10875, 4570, 4294, 4196, 4773
10876, 4423, 4339, 4296, 5912
10877, 4296, 5889, 255, 5912
10878, 4235, 278, 4297, 5889
10879, 4298, 5902, 4487, 253
10880, 4611, 4452, 4298, 253
10881, 4299, 414, 5675, 5696
10882, 293, 4189, 4301, 4480
10883, 4164, 4058, 4302, 4444
10884, 4303, 4278, 4476, 5869
10885, 4547, 4670, 5869, 4476
10886, 4457, 4304, 4421, 4649
10887, 4433, 4305, 4560, 4834
10888, 4449, 4550, 4411, 4174
10889, 4185, 4096, 4306, 4430
10890, 4534, 4307, 4673, 4915
10891, 435, 4533, 4454, 5795
10892, 4680, 4309, 419, 4882
10893, 4631, 4564, 247, 4527
10894, 4517, 5465, 4312, 3997
10895, 4412, 4316, 5400, 3989
10896, 4526, 4638, 5520, 4427
10897, 4065, 4191, 4455, 4317
10898, 5481, 4695, 4317, 4455
10899, 5466, 4318, 559, 3893
10900, 4211, 4334, 4499, 5450
10901, 4384, 4016, 4192, 4481
10902, 4178, 4320, 4503, 163
10903, 4657, 4557, 4509, 4323
10904, 5593, 4324, 159, 4625
10905, 4325, 4208, 4088, 3991
10906, 5493, 5409, 4751, 308
10907, 4326, 4034, 4195, 5077
10908, 4327, 332, 4333, 5010
10909, 4199, 4328, 169, 4422
10910, 4770, 4329, 436, 4565
10911, 4032, 532, 4676, 5472
10912, 4331, 531, 4618, 4545
10913, 4623, 5554, 4679, 307
10914, 4523, 5010, 4333, 5477
10915, 514, 4537, 4336, 4398
10916, 4459, 252, 4668, 5903
10917, 4408, 4337, 4013, 491
10918, 5464, 4519, 4338, 5421
10919, 4460, 4052, 4594, 135
10920, 158, 4513, 4340, 4460
10921, 4341, 554, 5595, 4403
10922, 4517, 4343, 4500, 5529
10923, 4556, 5481, 4461, 4911
10924, 4252, 4368, 465, 5469
10925, 4233, 4346, 4543, 552
10926, 4079, 4346, 4233, 5452
10927, 5535, 5536, 4347, 5478
10928, 5498, 5484, 4347, 4540
10929, 4422, 4484, 4350, 4415
10930, 4350, 170, 5597, 4229
10931, 4834, 4351, 134, 4433
10932, 4467, 4762, 4351, 4834
10933, 4450, 4352, 256, 4602
10934, 4256, 4371, 5547, 418
10935, 4354, 4014, 4406, 5419
10936, 551, 4498, 4354, 5419
10937, 219, 4253, 4355, 4505
10938, 4670, 4588, 4356, 5869
10939, 4486, 4358, 171, 4637
10940, 5629, 5622, 172, 4362
10941, 4464, 4359, 330, 5409
10942, 4359, 4464, 5408, 4761
10943, 5465, 4360, 4179, 4312
10944, 179, 4531, 4360, 5465
10945, 4361, 544, 4232, 4009
10946, 5629, 4362, 5565, 4213
10947, 4362, 172, 4501, 5029
10948, 164, 4554, 4363, 5450
10949, 4577, 4366, 4434, 4901
10950, 450, 4367, 4197, 4380
10951, 4528, 4367, 450, 4757
10952, 4442, 4369, 4441, 509
10953, 4488, 4372, 452, 5892
10954, 4372, 453, 4166, 5901
10955, 4392, 4373, 4097, 5958
10956, 4400, 4374, 4257, 4268
10957, 4429, 4375, 4667, 257
10958, 419, 4309, 4436, 4438
10959, 4143, 4376, 397, 5386
10960, 532, 4787, 4544, 4675
10961, 4378, 4607, 4474, 511
10962, 4379, 4253, 219, 4494
10963, 4472, 4445, 4380, 4244
10964, 4432, 4249, 4578, 4644
10965, 4382, 5597, 5657, 4473
10966, 4481, 4192, 162, 4595
10967, 4471, 448, 4483, 5627
10968, 448, 4471, 4386, 5543
10969, 4386, 449, 4395, 5603
10970, 539, 4413, 4485, 4583
10971, 4091, 563, 4387, 4413
10972, 4388, 5468, 4482, 4666
10973, 443, 4219, 4388, 4666
10974, 282, 4138, 4389, 4431
10975, 4469, 4390, 224, 5567
10976, 5725, 4440, 5665, 4425
10977, 4506, 546, 4465, 4774
10978, 4801, 5651, 5614, 4573
10979, 416, 4122, 4394, 4490
10980, 4472, 4395, 449, 4788
10981, 156, 4446, 4169, 4491
10982, 4798, 4880, 5653, 4782
10983, 4773, 4397, 174, 4570
10984, 4398, 4336, 4541, 4228
10985, 4819, 4551, 4399, 4117
10986, 4419, 4185, 4430, 270
10987, 4428, 4164, 4444, 542
10988, 4479, 5595, 4545, 4618
10989, 553, 4240, 4403, 5555
10990, 5518, 554, 5588, 4194
10991, 5419, 4251, 5482, 551
10992, 4532, 4407, 160, 4771
10993, 4408, 4223, 5550, 492
10994, 4409, 4188, 4527, 247
10995, 4411, 166, 5552, 4475
10996, 4566, 4590, 288, 4176
10997, 4177, 549, 4427, 5462
10998, 167, 4475, 4587, 4477
10999, 5640, 5608, 4414, 4713
11000, 4416, 424, 3782, 3667
11001, 4437, 4421, 4304, 4186
11002, 4484, 4422, 169, 4662
11003, 4715, 4423, 5887, 4854
11004, 254, 4339, 4423, 4715
11005, 4579, 4424, 273, 5835
11006, 4292, 4571, 4440, 5725
11007, 4548, 4480, 4425, 5665
11008, 5907, 4620, 4308, 4426
11009, 4427, 549, 5590, 4526
11010, 5462, 4316, 4412, 5401
11011, 4323, 4402, 4428, 4657
11012, 4429, 257, 4639, 4651
11013, 4352, 4248, 4651, 256
11014, 4431, 4432, 283, 4567
11015, 4901, 4434, 4702, 4921
11016, 4552, 4546, 4435, 4828
11017, 4307, 4066, 4439, 4673
11018, 4440, 272, 4765, 5665
11019, 4610, 4441, 5470, 4789
11020, 509, 4672, 5434, 4442
11021, 4675, 4544, 4442, 5434
11022, 4612, 4443, 5483, 4783
11023, 265, 4673, 4443, 4612
11024, 5705, 4659, 4788, 449
11025, 4730, 4589, 4445, 5793
11026, 5573, 4549, 4446, 156
11027, 4447, 5548, 4492, 4288
11028, 4562, 4492, 5548, 5549
11029, 4797, 4555, 4289, 4448
11030, 4451, 165, 4568, 5476
11031, 4806, 4314, 4451, 5476
11032, 308, 4863, 4671, 5493
11033, 5383, 4453, 330, 4067
11034, 4533, 435, 4308, 4620
11035, 5445, 4456, 136, 3934
11036, 4457, 4667, 4375, 4283
11037, 4592, 4210, 5903, 251
11038, 4455, 5414, 4461, 5481
11039, 4463, 454, 4599, 4749
11040, 5409, 330, 4453, 4751
11041, 4464, 5409, 5493, 4671
11042, 4551, 4580, 4508, 4399
11043, 415, 4496, 4573, 5599
11044, 4844, 4803, 4688, 157
11045, 4468, 4584, 4684, 4763
11046, 5528, 4521, 4469, 4746
11047, 5567, 224, 5498, 4586
11048, 4483, 448, 4385, 4470
11049, 5627, 4659, 5705, 4471
11050, 170, 4791, 5657, 5597
11051, 5552, 4677, 5607, 4703
11052, 5921, 4686, 4670, 4547
11053, 4698, 4477, 4587, 189
11054, 4897, 4835, 4713, 4698
11055, 4893, 4712, 5581, 4839
11056, 4478, 4712, 4893, 5522
11057, 4480, 4548, 4582, 293
11058, 5574, 5511, 4481, 4595
11059, 4507, 4598, 4704, 470
11060, 4662, 169, 4593, 5062
11061, 4596, 4484, 4662, 4918
11062, 4485, 540, 4575, 4665
11063, 172, 4732, 4616, 4501
11064, 5892, 452, 4686, 4674
11065, 4644, 4578, 305, 4489
11066, 4640, 5533, 4705, 464
11067, 465, 4345, 4493, 5533
11068, 242, 4379, 4494, 4654
11069, 4653, 4495, 4748, 486
11070, 487, 4377, 4495, 4653
11071, 4664, 4708, 4497, 274
11072, 4497, 5835, 273, 4165
11073, 4498, 551, 4632, 4722
11074, 5556, 4498, 4722, 528
11075, 164, 5450, 4499, 5507
11076, 4500, 201, 4603, 4729
11077, 4731, 173, 4501, 4616
11078, 4643, 4614, 538, 4502
11079, 4502, 538, 4364, 4764
11080, 4504, 453, 5890, 4609
11081, 5583, 4508, 546, 4150
11082, 169, 4328, 4510, 4593
11083, 4511, 550, 5556, 4529
11084, 4511, 4529, 5589, 4321
11085, 4522, 4514, 161, 4727
11086, 417, 4418, 439, 4634
11087, 4634, 4785, 5585, 4515
11088, 5465, 4517, 5529, 179
11089, 4518, 4554, 164, 5568
11090, 4701, 4913, 4719, 541
11091, 4215, 4521, 5528, 201
11092, 4650, 4727, 161, 4532
11093, 4617, 4595, 162, 4522
11094, 5010, 4523, 309, 5077
11095, 4523, 5477, 4660, 5522
11096, 4622, 4524, 163, 5512
11097, 4929, 4525, 4330, 4405
11098, 442, 4666, 4711, 4792
11099, 4526, 5590, 5643, 4638
11100, 4631, 4311, 4419, 5508
11101, 4757, 450, 4589, 4812
11102, 4757, 4814, 451, 4528
11103, 4529, 5556, 528, 4794
11104, 552, 4627, 4767, 5546
11105, 5573, 4563, 4531, 5610
11106, 179, 4605, 5610, 4531
11107, 160, 4629, 5645, 4771
11108, 4745, 4650, 4532, 4771
11109, 4533, 4717, 4896, 4454
11110, 4623, 4600, 306, 5554
11111, 4535, 4709, 5008, 4911
11112, 544, 4361, 4536, 4641
11113, 514, 4624, 4626, 4537
11114, 543, 4342, 4538, 4628
11115, 4613, 4625, 159, 5525
11116, 4625, 4629, 4539, 5593
11117, 4586, 5498, 4540, 4795
11118, 4228, 4541, 513, 5382
11119, 4692, 4682, 271, 4965
11120, 270, 4430, 4546, 4692
11121, 4547, 451, 4691, 5921
11122, 5921, 4691, 4892, 4686
11123, 5665, 4765, 4815, 4548
11124, 4582, 4548, 4815, 271
11125, 4560, 4574, 157, 4688
11126, 166, 4411, 4550, 4806
11127, 4580, 4551, 4706, 4777
11128, 546, 4508, 4580, 4465
11129, 4604, 4775, 4828, 4435
11130, 4657, 4689, 4683, 4557
11131, 542, 4444, 4553, 5594
11132, 4826, 4690, 4829, 5612
11133, 4695, 5481, 4556, 5527
11134, 541, 4509, 4557, 4701
11135, 4558, 4710, 4679, 5461
11136, 329, 4458, 4585, 3836
11137, 4700, 4568, 165, 4559
11138, 4559, 165, 4518, 5568
11139, 4574, 4560, 4305, 4446
11140, 4467, 4688, 4803, 4572
11141, 4822, 4561, 471, 5711
11142, 4659, 5627, 4561, 4822
11143, 196, 4492, 4562, 4630
11144, 4563, 5573, 156, 4396
11145, 5508, 4681, 4564, 4631
11146, 4565, 436, 4696, 4801
11147, 166, 4760, 4677, 5552
11148, 5548, 4570, 174, 5549
11149, 4424, 4579, 5761, 272
11150, 272, 4440, 4571, 4424
11151, 4572, 4803, 5480, 158
11152, 4460, 135, 4572, 158
11153, 5532, 4573, 5614, 4466
11154, 4575, 4719, 4913, 5613
11155, 4991, 4665, 4575, 5613
11156, 4576, 456, 4468, 4763
11157, 4576, 4842, 4702, 4434
11158, 5907, 4577, 4901, 457
11159, 4156, 4577, 5907, 4426
11160, 4579, 4768, 4912, 5761
11161, 4777, 4706, 4886, 4850
11162, 4696, 436, 4753, 4849
11163, 4809, 4764, 4583, 5115
11164, 4663, 4584, 455, 4512
11165, 4684, 4584, 4663, 477
11166, 4458, 329, 4761, 5408
11167, 4475, 5552, 4703, 4587
11168, 4711, 4666, 4482, 4525
11169, 4272, 4356, 4588, 5901
11170, 5624, 287, 4712, 4478
11171, 4478, 5566, 4590, 5624
11172, 4450, 4602, 5891, 255
11173, 135, 4594, 3835, 4762
11174, 4784, 5621, 5574, 4595
11175, 4791, 4596, 192, 4808
11176, 4768, 4597, 250, 5812
11177, 4597, 5835, 4497, 4708
11178, 4493, 4838, 4705, 5533
11179, 4697, 4598, 4507, 492
11180, 4601, 553, 5555, 4728
11181, 5660, 4627, 4743, 4908
11182, 4830, 4602, 4733, 5839
11183, 5023, 4716, 4830, 5839
11184, 4920, 4656, 4729, 5701
11185, 230, 4661, 4755, 4902
11186, 4607, 4061, 533, 4474
11187, 4790, 4638, 5643, 527
11188, 5590, 5589, 4608, 5643
11189, 4781, 4609, 475, 4878
11190, 4945, 4789, 4653, 486
11191, 509, 4441, 4610, 4750
11192, 4465, 524, 4813, 4774
11193, 4625, 4613, 5671, 4629
11194, 4614, 4836, 4709, 4535
11195, 4732, 172, 4486, 4747
11196, 4958, 4616, 4845, 5714
11197, 4595, 4617, 184, 4784
11198, 4672, 4724, 531, 5471
11199, 5596, 4905, 5609, 4728
11200, 457, 4769, 4620, 5907
11201, 4642, 4779, 418, 5585
11202, 4779, 4861, 4742, 4621
11203, 5512, 5511, 5574, 4658
11204, 284, 4600, 4623, 4780
11205, 514, 4542, 5606, 4624
11206, 4922, 5237, 4817, 5758
11207, 4726, 4767, 530, 4906
11208, 4824, 4862, 5661, 4925
11209, 4745, 4771, 5645, 182
11210, 4645, 4739, 4825, 4891
11211, 4682, 4692, 4546, 4552
11212, 4722, 4632, 529, 4909
11213, 4633, 186, 4829, 4690
11214, 4317, 4695, 4516, 5551
11215, 537, 4635, 5527, 4556
11216, 4710, 4738, 307, 4679
11217, 256, 4651, 4639, 5823
11218, 522, 4737, 4538, 4641
11219, 4944, 4642, 5638, 440
11220, 4836, 4643, 4837, 516
11221, 283, 4432, 4644, 4740
11222, 4752, 5579, 218, 4890
11223, 4759, 5670, 5614, 5651
11224, 4647, 4506, 4774, 523
11225, 4564, 4772, 5537, 5536
11226, 4648, 4867, 5018, 4795
11227, 4649, 4685, 4667, 4457
11228, 4727, 4650, 183, 4786
11229, 4844, 4735, 5480, 4803
11230, 4783, 4654, 241, 5580
11231, 4776, 4655, 4835, 4916
11232, 4656, 4920, 4997, 4605
11233, 4659, 4822, 5793, 4788
11234, 5521, 4660, 5477, 310
11235, 4523, 5522, 4893, 309
11236, 4661, 4864, 4756, 5906
11237, 4487, 4661, 5906, 253
11238, 4708, 4664, 4831, 5036
11239, 4665, 4991, 5063, 4699
11240, 5903, 4668, 4766, 251
11241, 4746, 4469, 5567, 4586
11242, 4603, 4669, 202, 4816
11243, 4738, 4710, 4863, 4924
11244, 4750, 4724, 4672, 509
11245, 5471, 4675, 5434, 4672
11246, 5881, 4914, 5818, 5880
11247, 531, 4331, 4676, 5471
11248, 5472, 4676, 4331, 5534
11249, 4754, 5713, 4868, 4978
11250, 5461, 4679, 5554, 4332
11251, 4929, 4680, 4711, 4525
11252, 4681, 4965, 4772, 4564
11253, 4847, 4683, 4955, 4973
11254, 4763, 4684, 4827, 478
11255, 4827, 4684, 477, 4980
11256, 4841, 234, 4741, 4685
11257, 257, 4667, 4685, 4741
11258, 4687, 258, 4694, 4881
11259, 4687, 4881, 235, 4841
11260, 4873, 4844, 157, 4802
11261, 4683, 4689, 5130, 4955
11262, 4928, 5655, 5612, 4829
11263, 5568, 4690, 4826, 4559
11264, 4692, 4965, 4681, 270
11265, 4915, 265, 4736, 5261
11266, 5261, 4888, 287, 4693
11267, 4799, 537, 5008, 5042
11268, 4628, 4862, 4569, 543
11269, 437, 4696, 4849, 5164
11270, 4801, 4696, 437, 5651
11271, 5711, 4697, 4953, 5016
11272, 189, 4848, 4897, 4698
11273, 4700, 4559, 4826, 187
11274, 519, 4913, 4701, 4847
11275, 4921, 4865, 457, 4901
11276, 4587, 4703, 5662, 189
11277, 4483, 4704, 4561, 5627
11278, 4852, 4843, 547, 4313
11279, 4970, 5001, 458, 5874
11280, 5001, 4840, 4707, 458
11281, 250, 4597, 4708, 5036
11282, 5042, 5008, 4709, 4952
11283, 4710, 4558, 4671, 4863
11284, 4792, 4711, 4680, 4882
11285, 5581, 4712, 287, 5625
11286, 4655, 5640, 4713, 4835
11287, 4714, 4502, 4764, 4809
11288, 4950, 4917, 4837, 4714
11289, 5843, 4591, 4716, 232
11290, 5874, 4896, 4717, 4769
11291, 4718, 4898, 4613, 5525
11292, 5020, 4720, 4851, 5600
11293, 4720, 5020, 4843, 4852
11294, 4723, 4750, 4610, 4846
11295, 5237, 5068, 4725, 4817
11296, 4537, 4626, 4725, 5550
11297, 4767, 4726, 4530, 5546
11298, 4729, 4603, 4816, 5701
11299, 4822, 4904, 4730, 5793
11300, 4858, 5860, 5823, 4639
11301, 5839, 4733, 5823, 5860
11302, 4734, 475, 4609, 5890
11303, 4873, 4802, 4997, 180
11304, 4873, 5006, 4735, 4844
11305, 4736, 265, 4612, 4856
11306, 5523, 4956, 4924, 4863
11307, 4899, 4738, 4924, 4935
11308, 4630, 195, 4825, 4739
11309, 4877, 284, 4876, 4976
11310, 4601, 4728, 4743, 4543
11311, 4908, 4743, 4728, 5609
11312, 5868, 4744, 5139, 229
11313, 4756, 4744, 252, 5923
11314, 4907, 4745, 182, 5009
11315, 225, 4746, 4586, 4795
11316, 4746, 225, 4926, 4900
11317, 4910, 4747, 193, 4983
11318, 4747, 4910, 5027, 4732
11319, 476, 4749, 4599, 4781
11320, 4807, 4723, 508, 4986
11321, 4326, 5077, 309, 5169
11322, 5579, 4752, 4494, 219
11323, 4840, 4753, 4581, 4707
11324, 4887, 4754, 4978, 4933
11325, 4755, 4606, 231, 5830
11326, 5610, 4758, 4549, 5573
11327, 4982, 5738, 4889, 5125
11328, 4759, 4982, 4868, 5713
11329, 4568, 4700, 4823, 5540
11330, 4677, 4760, 5540, 5302
11331, 4765, 5712, 4821, 4815
11332, 4767, 4627, 5660, 530
11333, 4768, 5812, 4879, 4912
11334, 5031, 4865, 4921, 479
11335, 4773, 4196, 5474, 4216
11336, 4776, 5047, 5062, 4593
11337, 5630, 4951, 4853, 185
11338, 186, 4633, 4778, 5032
11339, 4959, 4880, 4798, 5605
11340, 5658, 5580, 241, 5037
11341, 4784, 4954, 4857, 5621
11342, 5621, 4857, 4658, 5574
11343, 4887, 4872, 439, 4678
11344, 5380, 4787, 532, 4032
11345, 4061, 4607, 4787, 5380
11346, 4472, 4788, 5793, 4445
11347, 4885, 4790, 527, 5022
11348, 4210, 3978, 4077, 5927
11349, 4866, 4792, 4882, 4938
11350, 4820, 4974, 4871, 523
11351, 522, 4641, 4793, 5017
11352, 5822, 259, 4833, 5035
11353, 4796, 4870, 4948, 4811
11354, 4797, 5108, 260, 4833
11355, 259, 4555, 4797, 4833
11356, 174, 5605, 4798, 5549
11357, 173, 4959, 5605, 4855
11358, 5648, 4799, 5042, 515
11359, 4624, 5606, 4799, 5648
11360, 4931, 4966, 4874, 181
11361, 182, 5645, 4800, 5019
11362, 5006, 4873, 180, 5040
11363, 4740, 4644, 4489, 4600
11364, 193, 4637, 4473, 4805
11365, 4986, 4908, 5609, 4807
11366, 4808, 192, 4960, 5026
11367, 4983, 193, 4808, 5026
11368, 4810, 5136, 4956, 5523
11369, 5475, 308, 4751, 5410
11370, 4811, 4948, 5003, 5864
11371, 4811, 235, 4881, 4694
11372, 5879, 5101, 5815, 473
11373, 4813, 524, 5697, 4936
11374, 5168, 5058, 4974, 4820
11375, 451, 4814, 5089, 4691
11376, 4757, 4812, 5101, 4814
11377, 5040, 5701, 4930, 5672
11378, 4816, 202, 4930, 5701
11379, 4818, 5634, 4898, 4718
11380, 4947, 5712, 5761, 4912
11381, 4941, 248, 4964, 5123
11382, 4823, 4700, 187, 5636
11383, 5005, 4823, 5636, 5172
11384, 4925, 5687, 5631, 4824
11385, 4824, 5631, 5594, 4553
11386, 5714, 4932, 5043, 5654
11387, 4919, 4932, 5714, 4845
11388, 4928, 4829, 186, 5061
11389, 5893, 4859, 4831, 4766
11390, 259, 5822, 4870, 4796
11391, 190, 4916, 4835, 4897
11392, 4836, 4927, 4952, 4709
11393, 4939, 4838, 5644, 4866
11394, 5034, 4705, 4838, 4939
11395, 4893, 4839, 5169, 309
11396, 5581, 4963, 5136, 4839
11397, 5056, 4961, 5001, 5114
11398, 4841, 235, 5033, 234
11399, 4946, 4842, 478, 5806
11400, 4921, 4702, 5073, 479
11401, 4706, 547, 4843, 4886
11402, 4919, 194, 5015, 5097
11403, 4723, 4846, 5118, 508
11404, 4848, 189, 5662, 4967
11405, 437, 5164, 4889, 5738
11406, 5024, 5639, 525, 5098
11407, 5697, 4962, 5792, 4936
11408, 4937, 4851, 526, 5021
11409, 525, 5020, 5600, 5098
11410, 5041, 4853, 4951, 5272
11411, 4957, 5843, 232, 5086
11412, 231, 4715, 4854, 5819
11413, 4954, 5050, 5630, 4857
11414, 5630, 5050, 5264, 4951
11415, 5860, 4858, 4972, 233
11416, 5827, 5038, 5893, 4766
11417, 4975, 5036, 5066, 227
11418, 5868, 5080, 5827, 4860
11419, 4742, 4861, 441, 4938
11420, 4628, 521, 5661, 4862
11421, 4864, 230, 4934, 5139
11422, 4884, 4865, 5031, 5076
11423, 4939, 5100, 5078, 5034
11424, 442, 4792, 4866, 5644
11425, 4964, 248, 4832, 5666
11426, 5713, 4754, 438, 4646
11427, 4309, 4680, 4929, 4173
11428, 4869, 4968, 5046, 5178
11429, 236, 4948, 4870, 5865
11430, 4871, 4974, 5216, 5051
11431, 5051, 5756, 5731, 5017
11432, 4872, 5049, 5148, 5014
11433, 5716, 5019, 5044, 205
11434, 5093, 4875, 4979, 505
11435, 5053, 5013, 4875, 5093
11436, 4876, 4977, 5048, 5083
11437, 4976, 261, 5186, 4949
11438, 4877, 4976, 4949, 4804
11439, 4878, 475, 5818, 4992
11440, 5099, 4990, 4895, 476
11441, 4879, 5087, 5739, 249
11442, 173, 4731, 4880, 4959
11443, 4731, 4958, 5653, 4880
11444, 4883, 5190, 5128, 5782
11445, 5782, 5128, 212, 5085
11446, 5013, 5022, 527, 5673
11447, 5710, 5676, 5106, 5213
11448, 4850, 4886, 525, 5639
11449, 5134, 5252, 5765, 5120
11450, 5012, 4890, 5102, 240
11451, 241, 4752, 4890, 5012
11452, 4891, 218, 5579, 4645
11453, 4892, 474, 4674, 4686
11454, 192, 4596, 4918, 4923
11455, 5002, 4894, 4985, 5140
11456, 521, 4737, 4894, 5131
11457, 4980, 477, 4895, 5004
11458, 458, 4707, 4896, 5874
11459, 4613, 4898, 181, 5671
11460, 285, 4636, 4899, 4935
11461, 4669, 4900, 5674, 202
11462, 5830, 5088, 4902, 4755
11463, 5007, 4903, 5105, 485
11464, 486, 4748, 4903, 5007
11465, 5016, 5070, 5724, 4904
11466, 4724, 4807, 5609, 4905
11467, 529, 4726, 4906, 4993
11468, 4988, 4906, 530, 4994
11469, 4907, 5009, 5084, 4998
11470, 4909, 4984, 5121, 4979
11471, 4983, 5081, 5799, 4910
11472, 537, 4556, 4911, 5008
11473, 249, 4947, 4912, 4879
11474, 4987, 4913, 519, 5668
11475, 5613, 518, 5667, 4991
11476, 5096, 5873, 5011, 5784
11477, 5873, 5096, 4914, 474
11478, 4915, 4693, 4566, 4534
11479, 5039, 190, 5028, 5270
11480, 5047, 4776, 4916, 5663
11481, 516, 4837, 4917, 5065
11482, 4919, 4845, 5027, 194
11483, 5073, 4702, 4842, 4946
11484, 5237, 4922, 5146, 5075
11485, 5079, 4952, 4927, 5144
11486, 5737, 5112, 5813, 215
11487, 286, 4935, 4924, 4956
11488, 5631, 520, 5130, 5594
11489, 5018, 5054, 225, 4795
11490, 5231, 5157, 5692, 5054
11491, 5068, 5237, 5075, 4953
11492, 5122, 5082, 187, 5635
11493, 202, 5674, 5072, 4930
11494, 4818, 5149, 5124, 5634
11495, 5196, 5124, 5149, 5158
11496, 4966, 4931, 5059, 204
11497, 4891, 4825, 5043, 4932
11498, 4934, 5151, 229, 5139
11499, 4962, 5697, 4850, 5639
11500, 5100, 4938, 441, 5092
11501, 5078, 4996, 5646, 5034
11502, 5732, 4940, 5157, 203
11503, 5200, 5018, 4867, 4941
11504, 4971, 4942, 472, 5724
11505, 4944, 5025, 441, 4861
11506, 486, 5007, 5064, 4945
11507, 5118, 4846, 4945, 5064
11508, 5141, 5073, 4946, 5187
11509, 5712, 4947, 5666, 4821
11510, 5111, 5736, 5186, 5307
11511, 517, 4950, 4809, 5115
11512, 5272, 4951, 5264, 208
11513, 5068, 4953, 4697, 492
11514, 4969, 184, 4869, 5178
11515, 5050, 4954, 4969, 207
11516, 4989, 5091, 5152, 208
11517, 5654, 5653, 4958, 5714
11518, 192, 4923, 5737, 4960
11519, 5127, 5026, 4960, 5797
11520, 5164, 4849, 4961, 5056
11521, 5639, 5024, 5745, 4962
11522, 5745, 5310, 5792, 4962
11523, 4888, 5679, 5625, 287
11524, 5052, 4821, 5666, 4832
11525, 5123, 4964, 249, 5739
11526, 4832, 4965, 271, 5052
11527, 5080, 5828, 5159, 5796
11528, 5893, 5038, 228, 5226
11529, 5085, 5220, 5270, 5028
11530, 4998, 4968, 183, 4907
11531, 5046, 4968, 4998, 206
11532, 493, 5126, 4971, 5150
11533, 5110, 5837, 5033, 5184
11534, 5090, 4973, 5119, 5183
11535, 519, 4847, 4973, 5090
11536, 4975, 5812, 250, 5036
11537, 4977, 285, 5055, 5048
11538, 4978, 4868, 460, 5060
11539, 498, 5116, 4980, 5004
11540, 460, 4868, 4982, 5125
11541, 5214, 5015, 5081, 5227
11542, 4985, 522, 5017, 5731
11543, 5140, 5116, 498, 5002
11544, 5145, 5095, 4986, 508
11545, 518, 4987, 5133, 5667
11546, 4913, 4987, 518, 5613
11547, 4989, 5212, 5088, 5830
11548, 5004, 5104, 5771, 498
11549, 4991, 5667, 5669, 5063
11550, 5137, 4992, 5780, 496
11551, 4908, 4986, 5095, 4994
11552, 4995, 207, 5721, 5074
11553, 478, 4827, 5000, 5844
11554, 5002, 498, 5771, 5195
11555, 5131, 4894, 5002, 5195
11556, 5182, 5003, 5117, 5220
11557, 5082, 5722, 5636, 187
11558, 188, 5005, 5172, 5698
11559, 5006, 5201, 5030, 4735
11560, 5238, 507, 5171, 5189
11561, 5009, 182, 5019, 5716
11562, 205, 5287, 5166, 5716
11563, 5103, 5011, 5873, 4981
11564, 495, 5133, 5193, 5784
11565, 5037, 5154, 5218, 5107
11566, 5022, 5013, 5053, 5106
11567, 4608, 5673, 527, 5643
11568, 5148, 5789, 5717, 5014
11569, 440, 5638, 5014, 5717
11570, 217, 5097, 5015, 5214
11571, 5711, 5016, 4904, 4822
11572, 5021, 526, 4885, 5676
11573, 5109, 5199, 5838, 5023
11574, 232, 4716, 5023, 5838
11575, 5025, 5057, 5240, 5177
11576, 5254, 5039, 5270, 213
11577, 5149, 4818, 5030, 5201
11578, 5076, 5031, 480, 5174
11579, 5695, 5032, 5041, 209
11580, 5069, 5837, 5110, 5194
11581, 4887, 4933, 5049, 4872
11582, 464, 4705, 5034, 5646
11583, 260, 4949, 5186, 5736
11584, 5821, 4943, 5794, 237
11585, 5037, 5107, 264, 5658
11586, 5224, 5241, 5796, 5159
11587, 5038, 5796, 5241, 228
11588, 5254, 5278, 5702, 5206
11589, 190, 5039, 5663, 4916
11590, 5149, 5201, 5672, 5158
11591, 5152, 5767, 5272, 208
11592, 5032, 5695, 5061, 186
11593, 204, 5179, 5044, 4966
11594, 5076, 5045, 4970, 4884
11595, 206, 5151, 5207, 5046
11596, 5178, 5046, 5207, 5721
11597, 5062, 5047, 5637, 191
11598, 5143, 5083, 5048, 5774
11599, 262, 5774, 5048, 5055
11600, 5225, 5852, 461, 5060
11601, 5717, 462, 5057, 440
11602, 5088, 5212, 207, 4995
11603, 5212, 5264, 5050, 207
11604, 5756, 5129, 499, 5731
11605, 4985, 5731, 499, 5140
11606, 5106, 5053, 504, 5213
11607, 5246, 5157, 5231, 5763
11608, 285, 4935, 5707, 5055
11609, 5245, 5164, 5056, 5211
11610, 5211, 5255, 459, 5245
11611, 5092, 5177, 5279, 5203
11612, 5058, 500, 5216, 4974
11613, 5196, 5197, 5059, 5124
11614, 5060, 460, 5175, 5266
11615, 5122, 5655, 5229, 210
11616, 5239, 5669, 5163, 5729
11617, 5171, 5118, 5064, 5189
11618, 5226, 228, 5165, 5242
11619, 5067, 517, 5142, 5275
11620, 5162, 5244, 5192, 5772
11621, 5194, 5230, 5746, 5271
11622, 5188, 5271, 5109, 233
11623, 5150, 4971, 5724, 5070
11624, 5210, 5112, 5071, 5234
11625, 5196, 5158, 203, 5773
11626, 5150, 5146, 5144, 493
11627, 5075, 5146, 5150, 5070
11628, 5092, 5203, 5078, 5100
11629, 5146, 4922, 5079, 5144
11630, 515, 5079, 4922, 5758
11631, 5151, 5159, 5828, 229
11632, 5081, 4983, 216, 5227
11633, 211, 5230, 5194, 5110
11634, 5083, 261, 4976, 4876
11635, 206, 4998, 5084, 5704
11636, 212, 5182, 5220, 5085
11637, 4957, 5767, 5152, 5819
11638, 5123, 5739, 5167, 5744
11639, 5212, 4989, 208, 5264
11640, 5856, 5089, 5879, 473
11641, 5735, 5703, 496, 5780
11642, 5767, 4957, 5086, 209
11643, 5153, 5093, 505, 5248
11644, 212, 5184, 5094, 5182
11645, 5864, 5094, 235, 4811
11646, 507, 5095, 5145, 5171
11647, 5780, 4914, 5096, 5735
11648, 5097, 217, 5102, 4999
11649, 5138, 4937, 5021, 503
11650, 5024, 5098, 5299, 502
11651, 5099, 4878, 4992, 5137
11652, 5102, 217, 5215, 240
11653, 5856, 5160, 4981, 4892
11654, 497, 5104, 4990, 5221
11655, 463, 5217, 485, 5105
11656, 5021, 5676, 5710, 503
11657, 5181, 5107, 5252, 5679
11658, 5198, 5111, 5307, 5233
11659, 5737, 215, 5797, 4960
11660, 5071, 5112, 5737, 4923
11661, 5154, 5012, 240, 5699
11662, 5205, 5113, 5256, 5312
11663, 5031, 479, 5886, 5863
11664, 5114, 5045, 5841, 481
11665, 5135, 5185, 236, 5865
11666, 5730, 5161, 4925, 5661
11667, 5134, 5120, 286, 4963
11668, 5765, 5208, 5707, 5120
11669, 4979, 5121, 5281, 505
11670, 5167, 5739, 5087, 5781
11671, 5258, 5175, 460, 5125
11672, 5772, 5192, 5126, 493
11673, 494, 5228, 5160, 5219
11674, 5191, 5127, 5797, 5301
11675, 5129, 5756, 5155, 5806
11676, 500, 5187, 5155, 5216
11677, 4955, 5130, 520, 5689
11678, 5594, 5130, 4689, 542
11679, 5730, 5661, 521, 5131
11680, 5209, 5727, 5277, 5243
11681, 5132, 501, 5310, 5745
11682, 5228, 494, 5239, 5729
11683, 5202, 5135, 5821, 237
11684, 4326, 5169, 4810, 5475
11685, 5183, 496, 5703, 5090
11686, 5223, 5138, 503, 5262
11687, 5170, 5256, 5141, 5187
11688, 5113, 5886, 5141, 5256
11689, 5163, 5669, 5667, 5133
11690, 261, 5083, 5143, 5775
11691, 493, 5144, 5065, 5772
11692, 506, 5147, 5232, 5289
11693, 5789, 5804, 5280, 5718
11694, 5672, 4930, 5072, 5158
11695, 5151, 206, 5704, 5159
11696, 5041, 5272, 5767, 209
11697, 5274, 5699, 5303, 5304
11698, 5154, 5699, 5274, 5218
11699, 5051, 5216, 5155, 5756
11700, 5692, 5157, 4940, 4926
11701, 5158, 5072, 5732, 203
11702, 5084, 5166, 5224, 5704
11703, 473, 5219, 5160, 5856
11704, 5688, 5265, 5689, 520
11705, 5161, 5688, 5687, 4925
11706, 5065, 4917, 5162, 5772
11707, 5163, 5133, 495, 5729
11708, 459, 4889, 5164, 5245
11709, 5242, 5179, 204, 5247
11710, 5241, 5224, 5166, 5287
11711, 5231, 5200, 5744, 5763
11712, 5168, 4936, 5792, 5313
11713, 5313, 5811, 5850, 5058
11714, 5170, 500, 5058, 5850
11715, 211, 5747, 5288, 5698
11716, 5851, 5853, 5852, 5276
11717, 5276, 5282, 5817, 5851
11718, 5858, 5243, 5174, 480
11719, 5277, 5841, 5174, 5243
11720, 5273, 214, 5202, 237
11721, 5240, 5057, 462, 5718
11722, 4969, 5178, 5721, 207
11723, 205, 5044, 5179, 5807
11724, 4975, 5180, 5781, 5087
11725, 5659, 5181, 5679, 4888
11726, 5252, 5107, 5218, 263
11727, 5182, 5094, 5864, 5003
11728, 496, 5183, 5221, 5137
11729, 5199, 5229, 209, 5086
11730, 5185, 213, 5117, 236
11731, 5307, 5186, 261, 5775
11732, 5187, 4946, 5806, 5155
11733, 5069, 5194, 5271, 5188
11734, 5232, 507, 5238, 5300
11735, 5747, 5128, 5251, 5288
11736, 215, 5250, 5301, 5797
11737, 5820, 5295, 5824, 5263
11738, 5192, 494, 5219, 5126
11739, 4987, 5668, 5193, 5133
11740, 5131, 5195, 5161, 5730
11741, 5110, 5184, 5747, 211
11742, 5197, 5196, 5773, 5249
11743, 5059, 5197, 5247, 204
11744, 5249, 5773, 5246, 5306
11745, 5235, 5198, 5233, 238
11746, 5838, 5199, 5086, 232
11747, 5054, 5018, 5200, 5231
11748, 5273, 237, 5198, 5235
11749, 214, 5702, 5278, 5202
11750, 463, 4996, 5203, 5279
11751, 5293, 5296, 5842, 482
11752, 5132, 5209, 5285, 501
11753, 5113, 5205, 5863, 5886
11754, 5039, 5254, 5206, 5663
11755, 214, 5210, 5234, 5702
11756, 5831, 5207, 5151, 4934
11757, 5132, 502, 5727, 5209
11758, 5257, 5277, 5727, 5726
11759, 5176, 5210, 214, 5273
11760, 5291, 5211, 481, 5257
11761, 5293, 5262, 503, 5710
11762, 217, 5214, 5290, 5215
11763, 5215, 5263, 5267, 240
11764, 5284, 484, 5298, 5719
11765, 5222, 5104, 497, 5265
11766, 5276, 5852, 5225, 483
11767, 227, 5066, 5226, 5242
11768, 5893, 5226, 5066, 4859
11769, 5244, 5275, 494, 5192
11770, 495, 5103, 5228, 5729
11771, 5722, 5230, 5172, 5636
11772, 5289, 5232, 5300, 5309
11773, 5849, 5233, 5307, 5775
11774, 5206, 5702, 5234, 5637
11775, 5250, 5235, 238, 5301
11776, 5248, 5286, 5283, 483
11777, 5189, 485, 5268, 5238
11778, 5669, 5239, 5142, 5063
11779, 5240, 5269, 5279, 5177
11780, 5165, 228, 5241, 5287
11781, 5285, 5205, 5312, 501
11782, 5157, 5246, 5773, 203
11783, 227, 5242, 5247, 5810
11784, 5281, 5286, 5248, 505
11785, 5294, 483, 5225, 5308
11786, 5250, 215, 5813, 5176
11787, 188, 5251, 5190, 5260
11788, 5765, 5252, 263, 5292
11789, 5679, 5252, 5134, 5625
11790, 262, 5208, 5259, 5808
11791, 5305, 5849, 5816, 5253
11792, 482, 5204, 5255, 5814
11793, 5312, 5256, 5170, 5850
11794, 5175, 5258, 5840, 5266
11795, 5258, 5125, 5204, 5842
11796, 5274, 5292, 263, 5218
11797, 5259, 5292, 5274, 5304
11798, 5807, 5165, 5287, 205
11799, 5261, 4736, 5659, 4888
11800, 5267, 5263, 5824, 5303
11801, 5265, 497, 5119, 5689
11802, 5268, 485, 5217, 5298
11803, 5284, 5719, 5718, 5280
11804, 210, 5109, 5271, 5746
11805, 5297, 504, 5153, 5294
11806, 5267, 5303, 5699, 240
11807, 5275, 5142, 5239, 494
11808, 5276, 483, 5283, 5282
11809, 5851, 5817, 5173, 5853
11810, 5817, 5284, 5280, 5173
11811, 5286, 5156, 5236, 5283
11812, 5282, 484, 5284, 5817
11813, 484, 5282, 5283, 5236
11814, 5309, 484, 5236, 5289
11815, 5288, 5251, 188, 5698
11816, 5255, 5211, 5291, 5814
11817, 5223, 5291, 5257, 5726
11818, 5297, 5296, 5213, 504
11819, 5293, 482, 5814, 5262
11820, 5840, 5296, 5297, 5308
11821, 239, 5824, 5295, 5311
11822, 5258, 5842, 5296, 5840
11823, 5304, 5303, 5824, 239
11824, 238, 5233, 5849, 5305
11825, 5306, 5246, 5763, 226
11826, 5306, 226, 5781, 5180
11827, 5811, 5313, 5792, 5310
11828, 238, 5311, 5191, 5301
11829, 5318, 787, 778, 852
11830, 5319, 777, 775, 850
11831, 5320, 889, 5324, 954
11832, 997, 5344, 1042, 5325
11833, 1011, 5326, 1005, 5338
11834, 5327, 1027, 5339, 1088
11835, 5346, 5335, 5340, 292
11836, 1021, 5342, 968, 5355
11837, 921, 854, 859, 862
11838, 5393, 5355, 1020, 1079
11839, 5358, 1124, 1160, 1223
11840, 1053, 5360, 1050, 5392
11841, 5361, 1002, 5388, 1006
11842, 995, 5363, 938, 5436
11843, 5368, 3131, 349, 3511
11844, 5377, 3783, 3742, 138
11845, 5378, 3787, 3744, 246
11846, 4068, 5350, 5381, 5382
11847, 1258, 1292, 1224, 1194
11848, 3564, 154, 5395, 5396
11849, 5398, 3869, 223, 4227
11850, 5401, 572, 4177, 5462
11851, 197, 5373, 5403, 5404
11852, 5374, 5389, 4089, 3949
11853, 5407, 3740, 3764, 328
11854, 5410, 4034, 4326, 5475
11855, 5416, 447, 5453, 4212
11856, 564, 3875, 5420, 5421
11857, 4073, 4204, 5463, 5420
11858, 5428, 1323, 1351, 1410
11859, 1261, 1301, 5431, 5430
11860, 5432, 1358, 1335, 1270
11861, 5446, 4114, 3913, 4018
11862, 5524, 4407, 4279, 5451
11863, 3743, 5411, 5455, 5456
11864, 3617, 3743, 5456, 5501
11865, 4093, 3708, 3879, 5491
11866, 5458, 403, 5496, 3427
11867, 5492, 5460, 1207, 1242
11868, 5464, 5463, 4204, 541
11869, 5467, 396, 5412, 4353
11870, 5469, 465, 5533, 4640
11871, 5476, 4568, 5540, 4760
11872, 5482, 4365, 5546, 4530
11873, 5484, 5498, 224, 4227
11874, 555, 5518, 4194, 3880
11875, 5491, 4318, 5466, 5539
11876, 160, 4407, 5524, 5592
11877, 5494, 4254, 196, 5553
11878, 5506, 5502, 144, 4081
11879, 3811, 5503, 304, 5598
11880, 5508, 4419, 270, 4681
11881, 398, 3907, 5509, 5510
11882, 163, 4503, 5511, 5512
11883, 5515, 3990, 5564, 4213
11884, 149, 4124, 5515, 5516
11885, 5557, 5521, 4230, 4335
11886, 5522, 4660, 5566, 4478
11887, 537, 4799, 5606, 4635
11888, 5531, 4101, 5583, 4150
11889, 5595, 5534, 4331, 4545
11890, 5536, 5535, 247, 4564
11891, 4347, 5536, 5537, 4540
11892, 1528, 5459, 5541, 5542
11893, 1614, 5616, 5542, 5602
11894, 4208, 4325, 5543, 5544
11895, 5510, 5509, 4405, 4028
11896, 3990, 148, 5563, 5564
11897, 4020, 5516, 5565, 5587
11898, 1228, 1188, 1200, 5576
11899, 549, 4321, 5589, 5590
11900, 4183, 4324, 5593, 4539
11901, 5596, 4479, 4618, 4905
11902, 5600, 4851, 4937, 5138
11903, 1854, 5601, 1760, 5652
11904, 4267, 5544, 5603, 5604
11905, 5605, 174, 4397, 4855
11906, 5607, 4883, 5662, 4703
11907, 5608, 168, 4198, 4315
11908, 5614, 5670, 4646, 4466
11909, 5628, 5617, 404, 4022
11910, 5618, 1451, 5728, 1478
11911, 5619, 1033, 1034, 5678
11912, 4213, 5564, 5622, 5629
11913, 5678, 5623, 1083, 5619
11914, 5655, 5122, 5635, 5612
11915, 3161, 1283, 5642, 5768
11916, 5647, 1473, 1482, 5677
11917, 5648, 515, 5758, 4817
11918, 5650, 4110, 3951, 5598
11919, 4759, 5651, 437, 5738
11920, 195, 4782, 5653, 5654
11921, 5658, 264, 4856, 5580
11922, 5674, 4940, 5732, 5072
11923, 5677, 1482, 5681, 1453
11924, 5708, 5677, 1453, 5749
11925, 4418, 416, 4490, 4462
11926, 5682, 1623, 1646, 1706
11927, 5685, 1497, 5686, 1465
11928, 520, 5631, 5687, 5688
11929, 5693, 5759, 3932, 3809
11930, 209, 5229, 5061, 5695
11931, 5698, 5172, 5230, 211
11932, 5783, 5700, 1314, 3161
11933, 5193, 5668, 5703, 5735
11934, 5706, 1449, 1416, 1450
11935, 4765, 272, 5761, 5712
11936, 5715, 1598, 5787, 1640
11937, 5240, 5718, 5719, 5269
11938, 5789, 5718, 462, 5717
11939, 5722, 5082, 5746, 5230
11940, 502, 5299, 5726, 5727
11941, 5736, 5111, 5794, 5035
11942, 226, 5763, 5744, 5167
11943, 5751, 1133, 1099, 5683
11944, 5757, 1539, 5802, 1545
11945, 391, 5700, 5783, 5766
11946, 5768, 3398, 5783, 3161
11947, 5770, 1886, 1921, 1989
11948, 5774, 262, 5808, 5253
11949, 5775, 5143, 5816, 5849
11950, 5804, 5789, 5148, 5809
11951, 4431, 4567, 4448, 282
11952, 5805, 1426, 1435, 1489
11953, 5809, 5148, 5049, 461
11954, 5811, 5310, 501, 5850
11955, 475, 4734, 5880, 5818
11956, 5820, 5227, 216, 5295
11957, 5822, 4943, 5865, 4870
11958, 229, 5828, 5080, 5868
11959, 3799, 3941, 5833, 5834
11960, 5861, 5833, 278, 4235
11961, 233, 4972, 5069, 5188
11962, 5843, 4854, 5887, 4591
11963, 5298, 5309, 5300, 5268
11964, 5863, 5858, 480, 5031
11965, 5205, 5285, 5858, 5863
11966, 5885, 5872, 1755, 1819
11967, 5876, 345, 1654, 5897
11968, 1552, 1609, 5877, 5862
11969, 4814, 5101, 5879, 5089
11970, 5892, 4674, 5881, 5880
11971, 1815, 1775, 5884, 5900
11972, 5886, 479, 5073, 5141
11973, 5890, 453, 4372, 4488
11974, 5892, 5880, 4734, 4488
11975, 5944, 5894, 1689, 5917
11976, 5908, 5909, 1826, 1792
11977, 1858, 5909, 1828, 1835
11978, 1748, 5898, 5911, 5924
11979, 2030, 2000, 5919, 5920
11980, 4611, 4520, 5947, 4274
11981, 5947, 4459, 5927, 5932
11982, 5953, 5931, 2321, 2405
11983, 5954, 5932, 275, 5955
11984, 2536, 5934, 2457, 5957
11985, 3715, 3563, 5936, 5948
11986, 1827, 5952, 5965, 1865
11987, 430, 5958, 5970, 3969
11988, 5959, 4172, 456, 4366
11989, 5962, 430, 3969, 3953
11990, 3985, 4166, 5962, 3953
11991, 1894, 5949, 5963, 5964
11992, 2062, 2065, 5945, 2156
11993, 5986, 5966, 1865, 5965
11994, 5967, 1942, 344, 1980
11995, 5979, 5969, 2534, 5990
11996, 5971, 2028, 2026, 2117
11997, 2166, 5951, 5975, 5976
11998, 2194, 6017, 5976, 5975
11999, 5977, 2955, 2986, 6009
12000, 5981, 2581, 2621, 2697
12001, 3725, 3814, 5985, 3582
12002, 2618, 5979, 5990, 6001
12003, 2203, 2134, 2172, 2214
12004, 2260, 5992, 361, 2263
12005, 2228, 5996, 2181, 6020
12006, 6003, 2334, 6023, 2372
12007, 6004, 2527, 2488, 2452
12008, 6010, 2573, 6032, 2615
12009, 2569, 5999, 6010, 6024
12010, 6011, 2318, 2368, 2386
12011, 2203, 6012, 6013, 2194
12012, 6016, 6015, 6037, 2326
12013, 6019, 3034, 3046, 3111
12014, 2735, 2737, 6027, 6028
12015, 6033, 2615, 6057, 2657
12016, 2610, 6024, 6033, 6051
12017, 6036, 2772, 6028, 6049
12018, 6038, 6070, 6054, 2960
12019, 2479, 2452, 6041, 6042
12020, 3001, 6029, 6045, 6048
12021, 6046, 2806, 2840, 6056
12022, 6048, 3028, 6068, 3001
12023, 6053, 6052, 2401, 2442
12024, 2324, 2354, 2287, 2244
12025, 6055, 2873, 2835, 2875
12026, 2412, 2360, 6065, 6066
12027, 6042, 6041, 2555, 2504
12028, 6080, 6070, 2971, 2916
12029, 6075, 6076, 2657, 6057
12030, 2693, 2657, 6076, 6078
12031, 6091, 6090, 3045, 3062
12032, 3090, 6097, 6114, 3073
12033, 6116, 6100, 2422, 2480
12034, 6115, 6102, 2677, 2743
12035, 6103, 2428, 2426, 6095
12036, 6104, 3077, 6091, 3062
12037, 6108, 2677, 2626, 6094
12038, 2636, 6111, 6112, 2712
12039, 6117, 2956, 2929, 2858
12040, 6130, 6132, 2816, 2779
12041, 6135, 2866, 2907, 2898
*ELEMENT, TYPE=U4, ELSET=MECH_TRIS
12042, 4288, 4259, 4030
12043, 3699, 3962, 3809
12044, 1382, 1332, 1354
12045, 4217, 4302, 4058
12046, 5421, 4338, 564
12047, 3397, 3149, 339
12048, 5539, 5495, 5491
12049, 5696, 4565, 4299
12050, 5738, 4982, 4759
12051, 5587, 5586, 4020
12052, 4089, 5389, 5404
12053, 2451, 2413, 2372
12054, 5766, 5783, 3398
12055, 5970, 431, 4139
12056, 5842, 5204, 482
12057, 4836, 4614, 4643
12058, 794, 868, 790
12059, 854, 921, 856
12060, 5429, 1040, 973
12061, 980, 1123, 1030
12062, 1115, 1078, 1082
12063, 1041, 1119, 1038
12064, 1162, 1098, 1132
12065, 1244, 1208, 1241
12066, 1281, 5526, 1246
12067, 1235, 1203, 1171
12068, 1261, 1192, 1257
12069, 1243, 1208, 1174
12070, 1301, 1261, 1294
12071, 1268, 1329, 1362
12072, 1388, 1322, 1356
12073, 5847, 1523, 1584
12074, 5829, 1563, 5846
12075, 1583, 1580, 1547
12076, 1578, 359, 1561
12077, 1605, 1573, 1564
12078, 5626, 1600, 1568
12079, 1691, 1629, 1648
12080, 5866, 383, 3140
12081, 1865, 5966, 1799
12082, 1816, 1880, 1851
12083, 1870, 1832, 1804
12084, 1828, 5909, 5908
12085, 1946, 1966, 1877
12086, 1903, 1959, 1928
12087, 2012, 1948, 1975
12088, 2026, 1979, 2003
12089, 2065, 2062, 2027
12090, 2156, 5945, 2099
12091, 2135, 2098, 2059
12092, 5998, 2162, 2084
12093, 2259, 2215, 2131
12094, 2172, 2134, 2098
12095, 5992, 2222, 361
12096, 2236, 2200, 2163
12097, 2286, 2207, 2255
12098, 6016, 6035, 2284
12099, 2495, 2418, 2456
12100, 6082, 2510, 2425
12101, 2398, 2426, 2428
12102, 5999, 2569, 2530
12103, 6024, 2610, 2569
12104, 2714, 2637, 2597
12105, 2687, 2669, 2639
12106, 2650, 2767, 2681
12107, 2711, 2706, 6124
12108, 2834, 2769, 2800
12109, 2847, 2661, 2703
12110, 2822, 2783, 2817
12111, 6123, 2894, 2893
12112, 2969, 2966, 2909
12113, 2860, 2929, 2930
12114, 2829, 2907, 2866
12115, 6040, 2989, 2958
12116, 2991, 2941, 2961
12117, 3022, 2992, 2968
12118, 3086, 3064, 3037
12119, 3031, 3004, 2975
12120, 3074, 3035, 3057
12121, 3096, 3069, 3094
12122, 3724, 3571, 406
12123, 3582, 3409, 408
12124, 3584, 3545, 410
12125, 3800, 129, 3734
12126, 3895, 289, 3718
12127, 3977, 3696, 3586
12128, 3980, 3843, 3957
12129, 5396, 4026, 3736
12130, 4301, 4189, 3877
12131, 5578, 4055, 425
12132, 5451, 4279, 137
12133, 5405, 5474, 4112
12134, 4130, 311, 4072
12135, 4371, 5467, 5547
12136, 4158, 4149, 434
12137, 5397, 4188, 246
12138, 5444, 4239, 4111
12139, 4554, 4277, 4363
12140, 4298, 4452, 5926
12141, 4578, 4249, 4381
12142, 5586, 4282, 150
12143, 5947, 5954, 4274
12144, 5491, 3879, 4318
12145, 4585, 4458, 5519
12146, 4335, 4230, 4090
12147, 5954, 5947, 5932
12148, 5450, 4363, 4211
12149, 4406, 4014, 4142
12150, 4439, 266, 4370
12151, 5923, 4611, 253
12152, 4718, 4513, 4652
12153, 5624, 4693, 287
12154, 5896, 4592, 274
12155, 4915, 4673, 265
12156, 4811, 4694, 4796
12157, 5887, 5891, 4591
12158, 4864, 4661, 230
12159, 5673, 4608, 4794
12160, 4802, 157, 4574
12161, 5067, 4950, 517
12162, 5648, 4626, 4624
12163, 4591, 4830, 4716
12164, 4927, 4836, 516
12165, 4958, 4731, 4616
12166, 4997, 4920, 180
12167, 5049, 4933, 461
12168, 5313, 5058, 5168
12169, 4950, 4714, 4809
12170, 4966, 5044, 4874
12171, 5203, 4996, 5078
12172, 5782, 5085, 4967
12173, 5105, 4996, 463
12174, 230, 5831, 4934
12175, 5308, 5297, 5294
12176, 5170, 5187, 500
12177, 5266, 5225, 5060
12178, 5771, 5104, 5222
12179, 5251, 5128, 5190
12180, 5255, 5204, 459
12181, 5704, 5224, 5159
12182, 5261, 4693, 4915
12183, 5309, 5298, 484
12184, 5191, 5311, 5295
12185, 5300, 5238, 5268
12186, 1324, 1301, 1294
12187, 5502, 4053, 144
12188, 5513, 1228, 5576
12189, 5523, 4863, 308
12190, 4059, 4220, 535
12191, 1307, 1242, 5558
12192, 5640, 168, 5608
12193, 4791, 170, 4596
12194, 5762, 1434, 5686
12195, 5781, 226, 5167
12196, 5809, 5853, 5804
12197, 5312, 5850, 501
12198, 5815, 5101, 4942
12199, 3419, 5836, 3544
12200, 5860, 233, 5839
12201, 5855, 5862, 1583
12202, 5867, 1662, 1634
12203, 5868, 4860, 4744
12204, 5069, 4972, 5837
12205, 5001, 4961, 4840
12206, 5912, 5887, 4423
12207, 5890, 4488, 4734
12208, 5876, 5897, 1681
12209, 1924, 5914, 1891
12210, 3618, 5918, 3707
12211, 5920, 2067, 2030
12212, 5955, 275, 4120
12213, 5955, 4274, 5954
12214, 5955, 4120, 4274
12215, 5987, 2166, 5976
12216, 2311, 2265, 2306
12217, 6020, 2226, 2313
12218, 6028, 2772, 2735
12219, 2308, 6047, 2273
12220, 6051, 2652, 2610
12221, 6061, 2681, 2767
12222, 6101, 2934, 2992
12223, 6112, 2743, 2712
12224, 6114, 6097, 6104
*ELEMENT, TYPE=CPE4, ELSET=UMAT_QUADS
12225, 626, 3249, 753, 25
12226, 753, 3249, 3384, 98
12227, 99, 754, 3383, 3380
12228, 3359, 3355, 100, 755
12229, 101, 756, 3315, 3319
12230, 3319, 3357, 757, 101
12231, 3378, 3381, 758, 102
12232, 3382, 3385, 759, 103
12233, 3305, 3222, 105, 761
12234, 762, 105, 3222, 3198
12235, 3208, 3237, 763, 106
12236, 3322, 3360, 764, 107
12237, 6181, 765, 5316, 6180
12238, 765, 108, 3386, 5316
12239, 625, 3199, 3225, 23
12240, 3199, 625, 22, 3182
12241, 3503, 3663, 153, 5322
12242, 153, 3815, 3527, 5322
12243, 3519, 3628, 3823, 198
12244, 3607, 3949, 3760, 5348
12245, 3837, 3599, 3938, 243
12246, 3965, 3837, 243, 4145
12247, 290, 3718, 3700, 3676
12248, 3881, 3714, 3580, 3700
12249, 334, 3464, 3642, 3752
12250, 3532, 357, 3500, 3657
12251, 6179, 3332, 3334, 6178
12252, 3329, 3334, 3532, 356
12253, 624, 3176, 3182, 22
12254, 3443, 3615, 3175, 3178
12255, 4294, 4245, 3993, 4196
12256, 4089, 4355, 4253, 220
12257, 243, 4269, 4260, 4145
12258, 4145, 4260, 4370, 266
12259, 4307, 4176, 5479, 4066
12260, 4335, 4090, 289, 4266
12261, 355, 3522, 3638, 3763
12262, 6176, 3325, 3313, 6175
12263, 3325, 6176, 6177, 3329
12264, 3175, 21, 623, 3178
12265, 3824, 150, 4007, 5440
12266, 5514, 4397, 4773, 4216
12267, 4630, 4562, 4782, 195
12268, 4505, 5553, 4739, 4645
12269, 4654, 4494, 4752, 241
12270, 4856, 4612, 4783, 5580
12271, 4566, 4693, 5624, 4590
12272, 4660, 5521, 5557, 5566
12273, 332, 4107, 4207, 4333
12274, 355, 3763, 3612, 3517
12275, 6174, 3303, 3274, 6173
12276, 3274, 354, 3480, 3266
12277, 20, 3231, 3194, 622
12278, 3194, 3231, 3684, 3450
12279, 3631, 3524, 126, 3770
12280, 4362, 5029, 5587, 5565
12281, 4845, 4616, 4732, 5027
12282, 4932, 4919, 5097, 4999
12283, 4999, 5102, 4890, 218
12284, 5012, 5154, 5037, 241
12285, 5625, 5134, 4963, 5581
12286, 5136, 4810, 5169, 4839
12287, 331, 4195, 4034, 3908
12288, 354, 3730, 3559, 3480
12289, 3266, 6172, 6173, 3274
12290, 19, 3288, 3262, 621
12291, 3288, 3292, 3534, 126
12292, 3655, 3534, 125, 3789
12293, 5564, 5563, 4358, 5622
12294, 4637, 193, 4747, 4486
12295, 5799, 5081, 5015, 194
12296, 5263, 5215, 5290, 5820
12297, 5208, 5765, 5292, 5259
12298, 286, 5120, 5707, 4935
12299, 4636, 307, 4738, 4899
12300, 4458, 5408, 4558, 5461
12301, 3960, 3836, 352, 4085
12302, 3317, 3307, 747, 746
12303, 3308, 353, 4085, 3318
12304, 619, 3291, 3299, 18
12305, 18, 3299, 3292, 620
12306, 3670, 3487, 124, 3794
12307, 4222, 5530, 4382, 171
12308, 4473, 5657, 4791, 4805
12309, 216, 4983, 5026, 5127
12310, 5305, 239, 5311, 238
12311, 5774, 5253, 5816, 5143
12312, 4876, 284, 4780, 4977
12313, 4623, 307, 4636, 4780
12314, 4332, 5519, 4458, 5461
12315, 352, 3836, 3600, 3512
12316, 6168, 3323, 3327, 6167
12317, 3320, 3327, 3512, 351
12318, 618, 3246, 3277, 17
12319, 3277, 3246, 3475, 124
12320, 3671, 3475, 123, 3768
12321, 4017, 4415, 4350, 4229
12322, 4662, 5062, 191, 4918
12323, 5112, 5210, 5176, 5813
12324, 5235, 5250, 5176, 5273
12325, 260, 5736, 5035, 4833
12326, 4877, 4804, 283, 4740
12327, 4600, 4489, 4349, 306
12328, 4205, 306, 4349, 4234
12329, 3591, 350, 3482, 3740
12330, 6165, 3309, 3243, 6164
12331, 3243, 3309, 3482, 350
12332, 617, 3211, 3224, 16
12333, 3211, 617, 15, 3202
12334, 3769, 3461, 3627, 122
12335, 4655, 4776, 4593, 4510
12336, 191, 5637, 5234, 5071
12337, 5278, 5254, 213, 5185
12338, 4943, 5822, 5035, 5794
12339, 283, 4804, 5108, 4567
12340, 4138, 304, 4249, 4389
12341, 4135, 3976, 326, 3974
12342, 3974, 3753, 3741, 4070
12343, 6163, 3217, 3165, 6162
12344, 3165, 3217, 3543, 349
12345, 3202, 15, 616, 3213
12346, 3202, 3213, 3457, 3627
12347, 4053, 3587, 3722, 144
12348, 4414, 4273, 167, 4477
12349, 5028, 4848, 4967, 5085
12350, 236, 5117, 5003, 4948
12351, 4694, 258, 4619, 4796
12352, 4186, 4271, 4289, 4437
12353, 4138, 5650, 5598, 304
12354, 5455, 5411, 326, 3976
12355, 5366, 3395, 5447, 348
12356, 841, 1288, 741, 87
12357, 6160, 1255, 840, 6159
12358, 14, 3230, 3213, 616
12359, 3230, 3252, 3472, 3678
12360, 4037, 120, 4258, 4033
12361, 5260, 5607, 4677, 5302
12362, 5260, 5190, 4883, 5607
12363, 5033, 235, 5094, 5184
12364, 258, 4687, 4649, 4421
12365, 4283, 281, 4304, 4457
12366, 3826, 303, 3952, 4084
12367, 1110, 1109, 1016, 5439
12368, 737, 86, 824, 827
12369, 6154, 823, 821, 6153
12370, 13, 3279, 3273, 614
12371, 3273, 3279, 4258, 120
12372, 3565, 3712, 3885, 4033
12373, 165, 4451, 4193, 4518
12374, 4823, 5005, 5302, 5540
12375, 210, 5746, 5082, 5122
12376, 4639, 257, 4741, 4858
12377, 279, 3932, 5759, 4248
12378, 324, 3400, 3160, 1251
12379, 1141, 347, 1146, 1174
12380, 788, 785, 724, 723
12381, 791, 6139, 6140, 789
12382, 612, 3295, 3300, 12
12383, 12, 3300, 3296, 613
12384, 3906, 3613, 3746, 141
12385, 4056, 4363, 4277, 142
12386, 4690, 5568, 164, 5507
12387, 5229, 5655, 4928, 5061
12388, 5023, 5839, 233, 5109
12389, 4830, 4591, 5891, 4602
12390, 278, 4123, 4247, 4297
12391, 301, 3910, 3797, 3604
12392, 3394, 3510, 1588, 1437
12393, 1365, 1340, 1308, 1342
12394, 1030, 935, 873, 980
12395, 1104, 1138, 370, 1061
12396, 3675, 3717, 3418, 3420
12397, 4496, 4565, 4801, 4573
12398, 5713, 4646, 5670, 4759
12399, 5060, 461, 4933, 4978
12400, 5236, 5156, 506, 5289
12401, 5147, 4993, 4906, 4988
12402, 4543, 4743, 4627, 552
12403, 4341, 4403, 4240, 4118
12404, 3525, 598, 3637, 3820
12405, 3347, 3348, 3531, 598
12406, 680, 3227, 3340, 50
12407, 719, 3227, 680, 73
12408, 718, 3200, 3207, 84
12409, 3880, 3710, 3583, 3721
12410, 5472, 4201, 5449, 4032
12411, 4905, 4618, 531, 4724
12412, 5171, 5145, 508, 5118
12413, 5217, 5269, 5719, 5298
12414, 439, 4872, 4785, 4634
12415, 438, 4678, 4462, 4646
12416, 3867, 4394, 4122, 5387
12417, 371, 3143, 1062, 1017
12418, 827, 894, 899, 830
12419, 815, 817, 735, 734
12420, 779, 854, 856, 783
12421, 611, 3283, 3293, 11
12422, 118, 3485, 3283, 3276
12423, 3644, 3485, 118, 3780
12424, 4319, 4178, 163, 4524
12425, 4622, 4778, 4633, 4524
12426, 185, 4853, 4778, 4622
12427, 5091, 231, 5819, 5152
12428, 5891, 5887, 5912, 255
12429, 4100, 277, 3979, 5861
12430, 3690, 300, 3799, 3798
12431, 1790, 3393, 321, 1923
12432, 1598, 5715, 1581, 368
12433, 5899, 3336, 3404, 3148
12434, 3883, 3635, 3584, 410
12435, 4417, 455, 4584, 4468
12436, 4980, 5116, 5000, 4827
12437, 522, 4985, 4894, 4737
12438, 544, 4641, 4538, 4342
12439, 567, 4232, 4021, 3931
12440, 586, 3514, 3609, 3767
12441, 63, 3341, 3311, 696
12442, 695, 3352, 3341, 63
12443, 694, 3286, 3338, 62
12444, 3448, 3634, 3203, 3170
12445, 3926, 3840, 568, 4009
12446, 4361, 4237, 545, 4536
12447, 4647, 4793, 4641, 4536
12448, 523, 4871, 4793, 4647
12449, 5129, 5844, 5000, 499
12450, 456, 4576, 4434, 4366
12451, 4366, 4577, 4156, 5959
12452, 3791, 411, 3701, 3937
12453, 1558, 3392, 1559, 1497
12454, 1372, 1347, 1346, 1376
12455, 870, 937, 990, 932
12456, 610, 3263, 3276, 10
12457, 3479, 3263, 3241, 117
12458, 3479, 117, 3790, 3665
12459, 4384, 4481, 5511, 4503
12460, 4622, 5512, 4658, 185
12461, 4954, 4784, 184, 4969
12462, 5830, 231, 5091, 4989
12463, 254, 4606, 4487, 5902
12464, 5902, 4100, 4339, 254
12465, 3804, 299, 3944, 3961
12466, 3405, 320, 3119, 3158
12467, 1890, 1790, 1923, 1952
12468, 1999, 1965, 2031, 5993
12469, 2091, 1912, 1984, 2052
12470, 3431, 3505, 3150, 3152
12471, 409, 3711, 3590, 3431
12472, 4400, 4512, 455, 4374
12473, 4663, 4463, 4749, 477
12474, 5004, 4895, 4990, 5104
12475, 5161, 5195, 5771, 5222
12476, 4862, 4824, 4553, 4569
12477, 585, 3529, 3624, 3745
12478, 64, 3236, 3195, 697
12479, 3236, 3311, 3529, 585
12480, 609, 3229, 3241, 9
12481, 3241, 3229, 3469, 117
12482, 3783, 3469, 116, 3742
12483, 4322, 162, 4192, 139
12484, 4727, 4786, 4617, 4522
12485, 4786, 183, 4968, 4869
12486, 5074, 5831, 230, 4995
12487, 4756, 5923, 253, 5906
12488, 276, 4452, 4611, 4274
12489, 3959, 298, 4099, 4120
12490, 320, 3509, 3133, 2218
12491, 5928, 2218, 2256, 2172
12492, 2244, 343, 2292, 2324
12493, 2413, 2294, 6003, 2372
12494, 3132, 387, 2851, 3417
12495, 3725, 3953, 3969, 3814
12496, 4373, 454, 4268, 4097
12497, 4504, 4609, 4781, 4599
12498, 5099, 5137, 5221, 4990
12499, 5689, 5119, 4973, 4955
12500, 542, 4689, 4657, 4428
12501, 4402, 565, 4164, 4428
12502, 3662, 584, 3540, 3747
12503, 65, 3180, 3179, 698
12504, 3180, 3195, 3540, 584
12505, 8, 3232, 3229, 609
12506, 3232, 3250, 3537, 116
12507, 3646, 3537, 115, 3756
12508, 4279, 4407, 4168, 4064
12509, 183, 4650, 4745, 4907
12510, 5009, 5716, 5166, 5084
12511, 252, 4744, 4860, 4668
12512, 275, 5932, 5927, 4077
12513, 297, 3933, 3795, 3687
12514, 3432, 3135, 5935, 319
12515, 342, 2619, 2614, 2573
12516, 6024, 6010, 2615, 6033
12517, 2738, 2773, 2812, 2775
12518, 2889, 3127, 2813, 2850
12519, 3563, 3692, 3873, 5936
12520, 4166, 3985, 4272, 5901
12521, 5881, 4674, 474, 4914
12522, 5784, 5011, 5103, 495
12523, 5090, 5703, 5668, 519
12524, 4575, 540, 4519, 4719
12525, 3666, 3813, 3447, 584
12526, 698, 3179, 3181, 66
12527, 3447, 3179, 3180, 584
12528, 7, 3287, 3250, 608
12529, 3287, 3294, 3521, 115
12530, 3622, 3521, 114, 3765
12531, 4183, 4539, 5592, 5524
12532, 5671, 4800, 5645, 4629
12533, 181, 4874, 4800, 5671
12534, 251, 4766, 4831, 4664
12535, 4664, 274, 4592, 251
12536, 4115, 3871, 4098, 4165
12537, 2980, 2922, 2984, 3015
12538, 2458, 2496, 2538, 2459
12539, 2825, 2787, 2733, 2802
12540, 4148, 428, 4303, 4420
12541, 5089, 5856, 4892, 4691
12542, 5160, 5228, 5103, 4981
12543, 5142, 517, 5115, 5063
12544, 4665, 4699, 4583, 4485
12545, 4239, 4387, 563, 4111
12546, 3598, 583, 3807, 3945
12547, 699, 3196, 3235, 67
12548, 3621, 3463, 3196, 3181
12549, 606, 3281, 3298, 6
12550, 3281, 3253, 113, 3484
12551, 3835, 4594, 3934, 3606
12552, 159, 4224, 4340, 5525
12553, 4652, 5030, 4818, 4718
12554, 5124, 5059, 4931, 5634
12555, 5810, 5249, 5306, 5180
12556, 5812, 4975, 5087, 4879
12557, 5835, 4597, 4768, 4579
12558, 4292, 4152, 4002, 4161
12559, 317, 3713, 3649, 3414
12560, 3145, 5832, 2499, 340
12561, 2096, 2173, 2136, 2057
12562, 2414, 2375, 2374, 2453
12563, 3138, 2420, 2460, 3146
12564, 406, 3571, 3403, 3138
12565, 4367, 4278, 3987, 4197
12566, 4942, 5101, 4812, 472
12567, 4971, 5126, 5815, 4942
12568, 4917, 4950, 5067, 5162
12569, 539, 4583, 4764, 4364
12570, 562, 4250, 4045, 3935
12571, 582, 3757, 3605, 3493
12572, 700, 3312, 3349, 68
12573, 582, 3493, 3312, 3235
12574, 605, 3238, 3253, 5
12575, 112, 5332, 3228, 3233
12576, 4762, 3835, 3958, 4351
12577, 4688, 4467, 4834, 4560
12578, 4735, 5030, 4652, 5480
12579, 5201, 5006, 5040, 5672
12580, 4926, 225, 5054, 5692
12581, 248, 4941, 4867, 4648
12582, 4815, 4821, 5052, 271
12583, 4480, 4301, 4393, 4425
12584, 3852, 316, 3983, 3968
12585, 1887, 1822, 5785, 5786
12586, 1957, 5882, 5883, 1992
12587, 3146, 2460, 2215, 2259
12588, 426, 3793, 3723, 4131
12589, 4244, 4380, 4197, 427
12590, 4589, 4730, 472, 4812
12591, 5016, 4953, 5075, 5070
12592, 4952, 5079, 515, 5042
12593, 4614, 4535, 4344, 538
12594, 561, 4221, 4011, 3909
12595, 580, 3555, 3909, 4071
12596, 69, 701, 3353, 3351
12597, 3353, 701, 68, 3349
12598, 4, 3233, 3228, 604
12599, 3733, 3901, 3575, 111
12600, 4446, 4305, 5571, 4169
12601, 4758, 4997, 4802, 4574
12602, 4500, 4729, 4656, 5529
12603, 4669, 5528, 4746, 4900
12604, 4772, 4965, 4832, 248
12605, 293, 4582, 4552, 4828
12606, 5545, 3705, 315, 5611
12607, 3705, 3977, 3586, 315
12608, 1644, 1587, 1615, 1669
12609, 1788, 1733, 1761, 1823
12610, 1791, 1761, 1733, 382
12611, 3888, 4055, 4131, 3723
12612, 5543, 4386, 5603, 5544
12613, 470, 4704, 4483, 4470
12614, 4598, 4697, 5711, 471
12615, 4817, 4725, 4626, 5648
12616, 5527, 4635, 4516, 4695
12617, 4911, 4461, 4344, 4535
12618, 3551, 4057, 4191, 3893
12619, 70, 3316, 3251, 704
12620, 3316, 3346, 3496, 579
12621, 3, 3278, 3248, 603
12622, 3248, 3278, 3679, 3471
12623, 3520, 110, 3625, 3834
12624, 5446, 4184, 3733, 4114
12625, 4280, 4041, 4179, 4360
12626, 4343, 4215, 201, 4500
12627, 5398, 4390, 4010, 5385
12628, 5478, 4043, 5402, 4409
12629, 4076, 4527, 4188, 5397
12630, 4604, 4435, 4306, 4242
12631, 3956, 3829, 314, 4038
12632, 1496, 1557, 3144, 336
12633, 1436, 1253, 1320, 1404
12634, 1491, 1524, 5616, 1551
12635, 3134, 1791, 382, 1703
12636, 3973, 3709, 3818, 424
12637, 4212, 4325, 3991, 5416
12638, 4470, 4141, 4214, 470
12639, 470, 4214, 4337, 4507
12640, 4223, 4336, 4537, 5550
12641, 71, 3212, 3188, 705
12642, 3212, 3251, 3467, 3683
12643, 601, 3289, 3297, 2
12644, 2, 3297, 3290, 602
12645, 3653, 3486, 109, 3441
12646, 155, 3996, 3821, 3855
12647, 3528, 177, 3632, 3831
12648, 3654, 3536, 199, 3774
12649, 3672, 3477, 222, 3792
12650, 3787, 3465, 245, 3744
12651, 4035, 3636, 3697, 3719
12652, 4044, 3570, 4181, 291
12653, 3900, 3702, 313, 5370
12654, 3428, 335, 3151, 3530
12655, 1105, 1059, 1103, 1144
12656, 1184, 1248, 1213, 1139
12657, 3566, 3508, 3504, 3399
12658, 3566, 3399, 3810, 3698
12659, 3541, 446, 3667, 3782
12660, 3660, 3476, 468, 5367
12661, 490, 3640, 3468, 3630
12662, 3579, 3453, 512, 4063
12663, 3726, 3899, 3568, 534
12664, 3620, 3750, 3902, 4129
12665, 3452, 3683, 3803, 3652
12666, 705, 3188, 3189, 72
12667, 600, 5315, 3282, 1
12668, 3282, 5315, 3183, 109
12669, 3167, 3439, 3438, 3168
12670, 3439, 3167, 3169, 3442
12671, 3688, 3177, 3215, 3528
12672, 3536, 3268, 3272, 199
12673, 3261, 222, 3477, 3271
12674, 3465, 3234, 3210, 245
12675, 3184, 3686, 3449, 3186
12676, 3451, 3185, 3190, 4181
12677, 4295, 3219, 3242, 3474
12678, 3270, 3269, 39, 667
12679, 836, 1108, 666, 665
12680, 852, 5319, 850, 945
12681, 787, 796, 661, 660
12682, 645, 809, 801, 646
12683, 822, 892, 890, 819
12684, 638, 3120, 908, 35
12685, 3538, 3254, 3259, 423
12686, 3541, 3256, 3258, 446
12687, 3476, 3257, 3255, 468
12688, 3630, 3468, 3221, 3201
12689, 3191, 3193, 4285, 512
12690, 3204, 3223, 3681, 3454
12691, 578, 3478, 3264, 3260
12692, 706, 3214, 627, 49
12693, 627, 3214, 3260, 26
12694, 693, 3170, 3203, 61
12695, 3436, 3440, 3163, 3164
12696, 3585, 3954, 3832, 588
12697, 569, 4101, 3975, 3995
12698, 4820, 4813, 4936, 5168
12699, 5874, 4769, 4884, 4970
12700, 434, 4426, 4308, 4158
12701, 412, 3876, 3796, 5836
12702, 3419, 3544, 5788, 390
12703, 1246, 5526, 1210, 1318
12704, 60, 3164, 3163, 692
12705, 3436, 3539, 3659, 589
12706, 3805, 570, 3942, 3659
12707, 4218, 4399, 4508, 5583
12708, 4465, 4580, 4777, 524
12709, 5745, 5024, 502, 5132
12710, 5257, 481, 5841, 5277
12711, 5001, 4970, 5045, 5114
12712, 4581, 4329, 5795, 4454
12713, 4000, 4155, 3862, 413
12714, 3717, 3693, 3574, 3418
12715, 59, 3205, 3172, 691
12716, 3205, 3302, 3542, 590
12717, 3668, 3542, 591, 3785
12718, 4313, 547, 4819, 4170
12719, 4615, 526, 4851, 4720
12720, 5098, 5600, 5138, 5299
12721, 5814, 5291, 5223, 5262
12722, 4581, 4753, 436, 4329
12723, 58, 3339, 3302, 690
12724, 3339, 3350, 3535, 591
12725, 3784, 3535, 592, 3775
12726, 4316, 548, 4171, 5400
12727, 4790, 4615, 5520, 4638
12728, 5022, 5106, 5676, 4885
12729, 5213, 5296, 5293, 5710
12730, 5125, 4889, 459, 5204
12731, 688, 3344, 3345, 57
12732, 3344, 688, 56, 3342
12733, 3641, 3497, 593, 3762
12734, 4321, 549, 4177, 3998
12735, 4529, 4794, 4608, 5589
12736, 4875, 4794, 528, 4979
12737, 5248, 483, 5294, 5153
12738, 5308, 5225, 5266, 5840
12739, 3342, 56, 687, 3343
12740, 3614, 3516, 594, 3761
12741, 550, 4231, 4014, 4354
12742, 4984, 506, 5156, 5121
12743, 5156, 5286, 5281, 5121
12744, 686, 3306, 3337, 55
12745, 3306, 3239, 595, 3491
12746, 3936, 3603, 3727, 575
12747, 4365, 5482, 4251, 4144
12748, 4726, 529, 4632, 4530
12749, 529, 4993, 4984, 4909
12750, 685, 3216, 3239, 54
12751, 3680, 3458, 3206, 3209
12752, 576, 4094, 3839, 3856
12753, 553, 4346, 576, 4240
12754, 53, 3209, 3206, 684
12755, 4284, 3588, 3729, 577
12756, 52, 3301, 3226, 683
12757, 3331, 682, 51, 3347
12758, 3207, 3200, 3455, 599
12759, 83, 3220, 3200, 718
12760, 4675, 5471, 4676, 532
12761, 4846, 4610, 4789, 4945
12762, 4996, 5105, 4903, 5646
12763, 5025, 5177, 5092, 441
12764, 4642, 5585, 4785, 5638
12765, 5457, 4287, 5569, 4036
12766, 3589, 3691, 3828, 5375
12767, 966, 1288, 841, 909
12768, 834, 838, 740, 739
12769, 3220, 3280, 3470, 3685
12770, 82, 3356, 3280, 717
12771, 4378, 4262, 510, 4544
12772, 4146, 4263, 4369, 510
12773, 4748, 4495, 4640, 464
12774, 4866, 4938, 5100, 4939
12775, 4779, 4642, 4944, 4861
12776, 4225, 417, 4353, 4003
12777, 3915, 3616, 3754, 394
12778, 3411, 3444, 3218, 3166
12779, 3122, 3155, 1288, 966
12780, 3356, 3377, 4721, 556
12781, 3371, 715, 714, 3376
12782, 3966, 3838, 488, 4146
12783, 488, 4270, 4263, 4146
12784, 5644, 4838, 4493, 443
12785, 4742, 4938, 4882, 419
12786, 396, 5467, 4371, 4143
12787, 3494, 374, 5343, 3569
12788, 3166, 3218, 743, 88
12789, 3371, 4474, 533, 3361
12790, 3362, 80, 713, 3370
12791, 3838, 3601, 3940, 488
12792, 4345, 465, 4368, 4004
12793, 5644, 443, 4666, 442
12794, 396, 3967, 3841, 5412
12795, 3328, 3324, 91, 745
12796, 3244, 3310, 744, 89
12797, 712, 3369, 3372, 79
12798, 467, 3513, 3611, 3766
12799, 3994, 4388, 4219, 444
12800, 4206, 4330, 420, 4226
12801, 3907, 3558, 4060, 4029
12802, 376, 3307, 3317, 4383
12803, 3321, 3328, 745, 90
12804, 79, 3372, 3370, 713
12805, 3363, 78, 711, 3375
12806, 445, 3518, 3633, 3771
12807, 4023, 5505, 4206, 4226
12808, 3921, 3610, 3735, 398
12809, 3481, 3267, 3285, 4203
12810, 3307, 3285, 92, 747
12811, 3363, 467, 3501, 3369
12812, 3364, 77, 710, 3368
12813, 422, 3526, 3648, 3777
12814, 3639, 3492, 378, 3759
12815, 377, 3275, 3267, 3481
12816, 748, 92, 3285, 3267
12817, 3364, 445, 3513, 3375
12818, 3365, 76, 709, 3374
12819, 401, 3533, 3661, 3786
12820, 750, 94, 3314, 3326
12821, 3275, 3304, 749, 93
12822, 3518, 3368, 3365, 422
12823, 3367, 708, 74, 3373
12824, 3335, 3333, 96, 751
12825, 3366, 3367, 3533, 401
12826, 707, 5314, 3373, 74
12827, 3330, 3335, 751, 95
12828, 3373, 5314, 3333, 380
12829, 3500, 3360, 3322, 334
12830, 3464, 3237, 3208, 3626
12831, 3459, 3198, 3222, 3676
12832, 244, 4086, 3385, 3382
12833, 3378, 221, 3502, 3381
12834, 3319, 198, 3499, 3357
12835, 3319, 3315, 3519, 198
12836, 3359, 3380, 5322, 3527
12837, 130, 3503, 3383, 3384
12838, 3168, 3171, 678, 47
12839, 3486, 3653, 3816, 110
12840, 3679, 3520, 3834, 111
12841, 112, 3471, 3575, 4050
12842, 3958, 3835, 113, 4082
12843, 114, 3484, 3606, 3765
12844, 115, 3521, 3622, 3756
12845, 116, 3537, 3646, 3742
12846, 3673, 117, 3469, 3783
12847, 118, 3479, 3665, 3780
12848, 3485, 3644, 3746, 119
12849, 3830, 3677, 3488, 3613
12850, 3565, 4033, 4258, 3483
12851, 3553, 121, 3678, 3472
12852, 3457, 3587, 122, 3627
12853, 3650, 123, 3461, 3769
12854, 124, 3475, 3671, 3794
12855, 125, 3487, 3670, 3789
12856, 126, 3534, 3655, 3770
12857, 3524, 3631, 3825, 3684
12858, 3443, 3550, 128, 3615
12859, 3663, 3503, 130, 3460
12860, 677, 676, 3169, 3167
12861, 5395, 3874, 4026, 5396
12862, 4160, 3996, 155, 4396
12863, 4433, 4054, 5571, 4305
12864, 4467, 4572, 135, 4762
12865, 4052, 5445, 3934, 4594
12866, 137, 3911, 4027, 5451
12867, 138, 3882, 4064, 5399
12868, 139, 3865, 4031, 4322
12869, 4016, 4320, 4108, 3870
12870, 3999, 4334, 4125, 3927
12871, 3986, 4056, 142, 3712
12872, 4081, 144, 3722, 3889
12873, 145, 5500, 4075, 4198
12874, 146, 3914, 4015, 4199
12875, 4017, 147, 5441, 3864
12876, 4008, 148, 5442, 3866
12877, 5515, 4124, 3947, 3990
12878, 4265, 4007, 150, 4282
12879, 4112, 152, 5372, 5405
12880, 3651, 3815, 153, 3779
12881, 3215, 3177, 46, 675
12882, 3855, 3821, 3831, 3632
12883, 4758, 5610, 4605, 4997
12884, 5480, 4652, 4513, 158
12885, 5525, 4340, 4513, 4718
12886, 160, 5592, 4539, 4629
12887, 4407, 4532, 161, 4168
12888, 4522, 162, 4322, 4514
12889, 5507, 4524, 4633, 4690
12890, 4277, 4554, 4518, 4193
12891, 5476, 4760, 166, 4806
12892, 4411, 4475, 167, 4174
12893, 4713, 4414, 4477, 4698
12894, 4655, 4510, 168, 5640
12895, 170, 4350, 4484, 4596
12896, 171, 4382, 4473, 4637
12897, 4486, 172, 5622, 4358
12898, 5029, 4501, 173, 4855
12899, 4798, 4782, 4562, 5549
12900, 175, 4157, 4030, 3891
12901, 3628, 3519, 176, 3749
12902, 3268, 3245, 45, 674
12903, 177, 3536, 3654, 3758
12904, 4312, 4179, 4041, 178
12905, 4605, 179, 5529, 4656
12906, 4920, 5701, 5040, 180
12907, 4931, 181, 4898, 5634
12908, 5019, 4800, 4874, 5044
12909, 4786, 4869, 184, 4617
12910, 185, 4658, 4857, 5630
12911, 5032, 4778, 4853, 5041
12912, 4826, 5612, 5635, 187
12913, 5302, 5005, 188, 5260
12914, 5662, 4883, 5782, 4967
12915, 5028, 190, 4897, 4848
12916, 5663, 5206, 5637, 5047
12917, 4918, 191, 5071, 4923
12918, 4808, 193, 4805, 4791
12919, 194, 5027, 4910, 5799
12920, 4825, 195, 5654, 5043
12921, 4630, 4739, 5553, 196
12922, 198, 3808, 3607, 3499
12923, 3261, 3271, 673, 43
12924, 199, 3477, 3672, 3774
12925, 4521, 4010, 4390, 4469
12926, 4669, 4603, 201, 5528
12927, 4900, 4926, 4940, 5674
12928, 5247, 5197, 5249, 5810
12929, 5242, 5165, 5807, 5179
12930, 5038, 5827, 5080, 5796
12931, 5074, 5721, 5207, 5831
12932, 4902, 5088, 4995, 230
12933, 5843, 4957, 5819, 4854
12934, 5199, 5109, 210, 5229
12935, 5837, 4972, 234, 5033
12936, 5128, 5747, 5184, 212
12937, 5220, 5117, 213, 5270
12938, 5135, 5202, 5278, 5185
12939, 216, 5127, 5191, 5295
12940, 5290, 5214, 5227, 5820
12941, 4932, 4999, 218, 4891
12942, 4645, 5579, 219, 4505
12943, 4042, 220, 4253, 4379
12944, 221, 5348, 3599, 3502
12945, 3210, 3234, 672, 42
12946, 3669, 222, 3465, 3787
12947, 4347, 5484, 4043, 5478
12948, 4648, 4795, 4540, 5537
12949, 5200, 4941, 5123, 5744
12950, 5180, 4975, 227, 5810
12951, 5036, 4831, 4859, 5066
12952, 5827, 4766, 4668, 4860
12953, 4756, 4864, 5139, 4744
12954, 4755, 4661, 4487, 4606
12955, 4606, 254, 4715, 231
12956, 5823, 4733, 4602, 256
12957, 234, 4972, 4858, 4741
12958, 4687, 4841, 4685, 4649
12959, 4619, 4555, 259, 4796
12960, 5135, 5865, 4943, 5821
12961, 5794, 5111, 5198, 237
12962, 239, 5305, 5253, 5304
12963, 5304, 5253, 5808, 5259
12964, 242, 4654, 4783, 5483
12965, 244, 3837, 3965, 4086
12966, 3184, 3186, 671, 41
12967, 3886, 3744, 3636, 4035
12968, 4527, 4076, 4311, 4631
12969, 4648, 5537, 4772, 248
12970, 4964, 5666, 4947, 249
12971, 5947, 4520, 252, 4459
12972, 4520, 4611, 5923, 252
12973, 4109, 5926, 4452, 276
12974, 4100, 5861, 4235, 4339
12975, 279, 4247, 4123, 3910
12976, 4357, 4128, 5691, 280
12977, 4555, 4619, 4437, 4289
12978, 4797, 4448, 4567, 5108
12979, 4804, 4949, 260, 5108
12980, 285, 4977, 4780, 4636
12981, 5055, 5707, 5208, 262
12982, 264, 5107, 5181, 5659
12983, 4736, 4856, 264, 5659
12984, 4439, 4370, 4443, 4673
12985, 3549, 4049, 3895, 3718
12986, 3185, 3184, 41, 670
12987, 3719, 3697, 268, 3570
12988, 4242, 4306, 4096, 292
12989, 4425, 4393, 294, 5725
12990, 295, 4161, 4002, 3923
12991, 4098, 3871, 296, 5922
12992, 4099, 276, 4274, 4120
12993, 3798, 3799, 5834, 3979
12994, 5833, 3941, 4123, 278
12995, 5691, 4128, 5759, 5693
12996, 280, 5691, 5690, 4084
12997, 5650, 4138, 282, 4271
12998, 4740, 4600, 284, 4877
12999, 4956, 5136, 4963, 286
13000, 288, 4590, 5566, 5557
13001, 5479, 4266, 289, 3895
13002, 3700, 3580, 3459, 3676
13003, 3242, 3219, 40, 668
13004, 5335, 4246, 3857, 5340
13005, 4106, 3956, 4604, 4242
13006, 3956, 4038, 4775, 4604
13007, 3968, 3983, 4153, 4039
13008, 3923, 4002, 5790, 3713
13009, 3597, 3548, 3416, 3972
13010, 3972, 3515, 3687, 296
13011, 3509, 3618, 3707, 3608
13012, 3158, 3424, 3594, 3405
13013, 3435, 3402, 5798, 322
13014, 3602, 3434, 3174, 3400
13015, 1287, 3197, 3429, 324
13016, 5501, 5456, 5517, 303
13017, 5503, 4095, 4264, 304
13018, 4349, 4489, 305, 4159
13019, 4205, 4332, 5554, 306
13020, 4464, 4671, 4558, 5408
13021, 5077, 4195, 4327, 5010
13022, 4207, 310, 5477, 4333
13023, 4072, 311, 4154, 4040
13024, 3464, 3626, 3751, 3642
13025, 3157, 3270, 667, 38
13026, 3425, 3547, 3530, 336
13027, 3456, 3121, 337, 3581
13028, 1993, 338, 3162, 3407
13029, 3397, 3674, 3388, 3149
13030, 3414, 3572, 3145, 3159
13031, 2952, 2985, 3061, 2984
13032, 2661, 2807, 2619, 2571
13033, 2256, 2288, 2214, 2172
13034, 1951, 1913, 1983, 1981
13035, 1643, 5800, 1672, 1701
13036, 1365, 1396, 5776, 1340
13037, 1219, 1183, 1109, 1110
13038, 3433, 3511, 5384, 3592
13039, 3974, 326, 3645, 3753
13040, 3740, 3482, 351, 3764
13041, 3836, 4585, 3930, 3600
13042, 3836, 3960, 4761, 329
13043, 3908, 3559, 3730, 331
13044, 3612, 3763, 3920, 4113
13045, 3638, 3522, 356, 3781
13046, 356, 3532, 3657, 3781
13047, 1064, 1185, 1014, 958
13048, 1286, 1320, 1253, 1218
13049, 1525, 1587, 1556, 1495
13050, 1821, 1853, 1789, 1759
13051, 2132, 2173, 2096, 2092
13052, 2458, 2419, 5934, 2496
13053, 6051, 6033, 2657, 2693
13054, 2287, 2354, 2328, 2230
13055, 1963, 1972, 2002, 2038
13056, 871, 934, 799, 798
13057, 1180, 1139, 1213, 1233
13058, 1457, 1432, 1491, 1515
13059, 1756, 1700, 1733, 1788
13060, 2021, 5883, 1958, 2131
13061, 2297, 2374, 2375, 2336
13062, 2698, 2617, 2620, 385
13063, 2773, 2809, 2848, 2812
13064, 1954, 1982, 2025, 1984
13065, 1379, 1347, 1409, 3173
13066, 1640, 5787, 1699, 1589
13067, 1147, 1065, 1061, 370
13068, 1065, 1107, 1015, 1012
13069, 3143, 3567, 3413, 1062
13070, 372, 3629, 3444, 3411
13071, 374, 3643, 3616, 5343
13072, 3494, 3569, 375, 3842
13073, 375, 3841, 3967, 5347
13074, 377, 3481, 3558, 3735
13075, 378, 3489, 3610, 3759
13076, 379, 3492, 3639, 3778
13077, 3533, 380, 3495, 3661
13078, 35, 908, 837, 639
13079, 3399, 3504, 3125, 3390
13080, 3389, 3134, 1703, 5541
13081, 1823, 1761, 1855, 1920
13082, 2259, 2131, 383, 5866
13083, 2461, 2380, 2420, 3124
13084, 2846, 385, 3142, 3128
13085, 2813, 2851, 387, 2775
13086, 2575, 2624, 2739, 2774
13087, 2213, 3150, 3139, 2133
13088, 3392, 3506, 3387, 1559
13089, 389, 1917, 1953, 2091
13090, 392, 3868, 3776, 3619
13091, 3988, 5572, 4162, 414
13092, 5376, 5387, 394, 3754
13093, 3915, 4036, 395, 3737
13094, 4003, 4353, 5412, 5437
13095, 4256, 4376, 4143, 4371
13096, 3907, 4029, 4173, 5509
13097, 399, 3921, 4028, 4206
13098, 399, 4206, 5505, 3943
13099, 3648, 3526, 401, 3786
13100, 34, 3254, 3187, 637
13101, 404, 5617, 3576, 5577
13102, 3556, 405, 3423, 4022
13103, 3578, 3793, 3724, 406
13104, 3571, 3971, 3695, 3403
13105, 407, 4137, 4291, 4006
13106, 3715, 408, 5968, 3563
13107, 3422, 3582, 5985, 409
13108, 3819, 3590, 3711, 3859
13109, 3791, 3937, 4047, 3904
13110, 3635, 3701, 411, 3507
13111, 4646, 4462, 4490, 4466
13112, 4394, 5532, 4466, 4490
13113, 439, 4418, 4462, 4678
13114, 5547, 4515, 5585, 418
13115, 419, 4438, 4621, 4742
13116, 420, 4330, 4525, 4482
13117, 4023, 4226, 421, 4105
13118, 3633, 3518, 422, 3777
13119, 3258, 635, 32, 3257
13120, 4212, 448, 5543, 4325
13121, 4131, 4055, 5578, 4267
13122, 3858, 3971, 428, 4148
13123, 4356, 4420, 4303, 5869
13124, 4272, 3985, 4048, 429
13125, 432, 3859, 4257, 4374
13126, 4047, 433, 4156, 4426
13127, 4156, 433, 4172, 5959
13128, 3982, 3981, 3853, 3796
13129, 4167, 4151, 3981, 3982
13130, 438, 4754, 4887, 4678
13131, 4785, 4872, 5014, 5638
13132, 5025, 4944, 440, 5057
13133, 4004, 444, 4219, 4345
13134, 3611, 3513, 445, 3771
13135, 634, 3255, 3257, 32
13136, 446, 3476, 3660, 3788
13137, 4212, 5453, 4385, 448
13138, 4386, 4471, 5705, 449
13139, 450, 4380, 4445, 4589
13140, 4476, 4528, 451, 4547
13141, 452, 4588, 4670, 4686
13142, 454, 4373, 4504, 4599
13143, 4463, 4663, 4512, 4400
13144, 4842, 4576, 4763, 478
13145, 4417, 4468, 456, 4172
13146, 4620, 4769, 4717, 4533
13147, 4454, 4896, 4707, 4581
13148, 4753, 4840, 4961, 4849
13149, 5853, 5809, 461, 5852
13150, 5173, 5280, 5804, 5853
13151, 463, 5279, 5269, 5217
13152, 5646, 4903, 4748, 464
13153, 5469, 4640, 4495, 4377
13154, 466, 4252, 4025, 3940
13155, 467, 3766, 3601, 3501
13156, 633, 3221, 3240, 31
13157, 3640, 3773, 5331, 3468
13158, 4337, 4214, 5435, 4013
13159, 4561, 4704, 4598, 471
13160, 4730, 4904, 5724, 472
13161, 5219, 473, 5815, 5126
13162, 474, 4892, 4981, 5873
13163, 5818, 4914, 5780, 4992
13164, 476, 4781, 4878, 5099
13165, 4895, 477, 4749, 476
13166, 5844, 5129, 5806, 478
13167, 4865, 4884, 4769, 457
13168, 5045, 5076, 5174, 5841
13169, 5211, 5056, 5114, 481
13170, 5147, 506, 4984, 4993
13171, 507, 5232, 5147, 4988
13172, 5007, 485, 5189, 5064
13173, 487, 4653, 4789, 5470
13174, 3838, 3966, 5333, 489
13175, 632, 3192, 3201, 30
13176, 3579, 3897, 3728, 490
13177, 4336, 4223, 4080, 4541
13178, 5550, 4725, 5068, 492
13179, 5065, 5144, 4927, 516
13180, 5244, 5162, 5067, 5275
13181, 5784, 5193, 5735, 5096
13182, 5119, 497, 5221, 5183
13183, 5161, 5222, 5265, 5688
13184, 5017, 4793, 4871, 5051
13185, 5116, 5140, 499, 5000
13186, 5243, 5858, 5285, 5209
13187, 5726, 5299, 5138, 5223
13188, 5153, 504, 5053, 5093
13189, 5660, 4908, 4994, 530
13190, 4988, 4994, 5095, 507
13191, 4750, 4723, 4807, 4724
13192, 510, 4369, 4442, 4544
13193, 4262, 4378, 511, 4087
13194, 3193, 631, 630, 3204
13195, 4063, 512, 4285, 4068
13196, 4083, 4348, 4398, 4228
13197, 4635, 5606, 4542, 4516
13198, 4714, 4837, 4643, 4502
13199, 4699, 5063, 5115, 4583
13200, 4719, 4519, 5464, 541
13201, 4847, 4701, 4557, 4683
13202, 4647, 4536, 545, 4506
13203, 4737, 521, 4628, 4538
13204, 4813, 4820, 523, 4774
13205, 524, 4777, 4850, 5697
13206, 4843, 5020, 525, 4886
13207, 4790, 4885, 526, 4615
13208, 4794, 4875, 5013, 5673
13209, 528, 4722, 4909, 4979
13210, 4728, 5555, 4479, 5596
13211, 4403, 5595, 4479, 5555
13212, 3557, 4721, 533, 4061
13213, 28, 3223, 3204, 630
13214, 4220, 4059, 5495, 5539
13215, 536, 5551, 4516, 4542
13216, 4221, 538, 4344, 4011
13217, 4250, 539, 4364, 4045
13218, 4387, 540, 4485, 4413
13219, 4338, 4519, 4239, 5444
13220, 4204, 4323, 4509, 541
13221, 4569, 4553, 4444, 4302
13222, 4009, 568, 4237, 4361
13223, 4342, 543, 4217, 4021
13224, 547, 4706, 4551, 4819
13225, 548, 4615, 4720, 4852
13226, 548, 4316, 5520, 4615
13227, 550, 4354, 4498, 5556
13228, 551, 5482, 4530, 4632
13229, 4404, 5473, 4019, 5588
13230, 628, 3264, 3265, 27
13231, 3478, 3652, 3817, 557
13232, 3879, 3720, 559, 4318
13233, 4182, 4057, 3551, 3496
13234, 3909, 3555, 3732, 561
13235, 3935, 3605, 3757, 562
13236, 3747, 3540, 585, 3745
13237, 3624, 3529, 586, 3767
13238, 588, 3832, 3840, 5351
13239, 3931, 3609, 3738, 567
13240, 3832, 4092, 568, 3840
13241, 4391, 4117, 4399, 4218
13242, 570, 3918, 4005, 4170
13243, 571, 3925, 3989, 5400
13244, 572, 3924, 3998, 4177
13245, 4014, 4231, 3929, 4142
13246, 574, 3936, 4144, 4251
13247, 3903, 4079, 5452, 575
13248, 3455, 3685, 3802, 3656
13249, 3531, 3656, 3812, 598
13250, 3585, 588, 3448, 3440
13251, 590, 3542, 3668, 3805
13252, 3658, 591, 3535, 3784
13253, 592, 3497, 3641, 3775
13254, 593, 3516, 3614, 3762
13255, 594, 3491, 3603, 3761
13256, 595, 3466, 3552, 3727
13257, 3680, 3462, 5349, 3827
13258, 24, 679, 5315, 600
13259, 1, 3282, 3289, 601
13260, 602, 3290, 3278, 3
13261, 603, 3248, 3233, 4
13262, 604, 3228, 3238, 605
13263, 5, 3253, 3281, 606
13264, 607, 3294, 3287, 7
13265, 608, 3250, 3232, 8
13266, 9, 3241, 3263, 610
13267, 10, 3276, 3283, 611
13268, 11, 3293, 3295, 612
13269, 613, 3296, 3279, 13
13270, 614, 3273, 3252, 615
13271, 615, 3252, 3230, 14
13272, 16, 3224, 3246, 618
13273, 17, 3277, 3291, 619
13274, 620, 3292, 3288, 19
13275, 621, 3262, 3231, 20
13276, 622, 3194, 3178, 623
13277, 21, 3175, 3176, 624
13278, 23, 3225, 3249, 626
13279, 26, 3260, 3264, 628
13280, 629, 3247, 3223, 28
13281, 631, 3193, 3191, 29
13282, 29, 3191, 3192, 632
13283, 30, 3201, 3221, 633
13284, 31, 3240, 3255, 634
13285, 33, 3256, 3259, 636
13286, 637, 3187, 3120, 638
13287, 3430, 3390, 1066, 1018
13288, 639, 837, 833, 640
13289, 641, 829, 825, 642
13290, 642, 825, 822, 643
13291, 643, 822, 819, 36
13292, 644, 814, 809, 645
13293, 646, 801, 776, 647
13294, 647, 776, 774, 648
13295, 649, 772, 770, 650
13296, 650, 770, 769, 651
13297, 651, 769, 768, 652
13298, 652, 768, 767, 653
13299, 653, 767, 766, 654
13300, 654, 766, 771, 655
13301, 655, 771, 773, 656
13302, 656, 773, 775, 657
13303, 657, 775, 777, 658
13304, 658, 777, 778, 659
13305, 659, 778, 787, 660
13306, 662, 661, 796, 806
13307, 663, 37, 897, 826
13308, 826, 832, 664, 663
13309, 832, 836, 665, 664
13310, 3412, 3157, 1108, 959
13311, 3269, 3242, 668, 39
13312, 3219, 3190, 669, 40
13313, 3190, 3185, 670, 669
13314, 3186, 3210, 42, 671
13315, 3234, 3261, 43, 672
13316, 3271, 3272, 44, 673
13317, 3245, 3215, 675, 45
13318, 3177, 3169, 676, 46
13319, 3167, 3168, 47, 677
13320, 3171, 3183, 48, 678
13321, 50, 3340, 3348, 681
13322, 682, 3331, 3301, 52
13323, 683, 3226, 3209, 53
13324, 684, 3206, 3216, 685
13325, 54, 3239, 3306, 686
13326, 55, 3337, 3343, 687
13327, 57, 3345, 3350, 689
13328, 690, 3302, 3205, 59
13329, 691, 3172, 3164, 60
13330, 692, 3163, 3170, 693
13331, 61, 3203, 3286, 694
13332, 62, 3338, 3352, 695
13333, 696, 3311, 3236, 64
13334, 697, 3195, 3180, 65
13335, 66, 3181, 3196, 699
13336, 67, 3235, 3312, 700
13337, 69, 3351, 3354, 702
13338, 703, 3346, 3316, 70
13339, 704, 3251, 3212, 71
13340, 72, 3189, 3214, 706
13341, 85, 752, 5314, 707
13342, 708, 3367, 3366, 75
13343, 75, 3366, 3374, 709
13344, 77, 3364, 3375, 711
13345, 78, 3363, 3369, 712
13346, 80, 3362, 3376, 714
13347, 715, 3371, 3361, 81
13348, 81, 3361, 3377, 716
13349, 717, 3280, 3220, 83
13350, 84, 3207, 3227, 719
13351, 6138, 795, 798, 6137
13352, 794, 790, 722, 721
13353, 785, 781, 725, 724
13354, 789, 6140, 6141, 786
13355, 781, 779, 726, 725
13356, 786, 6141, 6142, 782
13357, 723, 722, 790, 788
13358, 782, 6142, 6143, 780
13359, 727, 726, 779, 783
13360, 784, 6144, 6145, 793
13361, 793, 6145, 6146, 803
13362, 728, 727, 783, 792
13363, 803, 6146, 6147, 805
13364, 784, 793, 863, 857
13365, 728, 792, 802, 729
13366, 805, 6147, 6148, 808
13367, 730, 729, 802, 804
13368, 6144, 784, 780, 6143
13369, 804, 807, 731, 730
13370, 807, 810, 732, 731
13371, 810, 812, 733, 732
13372, 812, 815, 734, 733
13373, 6149, 811, 808, 6148
13374, 6151, 816, 813, 6150
13375, 6150, 813, 811, 6149
13376, 6153, 821, 818, 6152
13377, 86, 736, 820, 824
13378, 738, 737, 827, 830
13379, 6155, 828, 823, 6154
13380, 830, 834, 739, 738
13381, 823, 895, 891, 821
13382, 6158, 839, 835, 6157
13383, 6157, 835, 831, 6156
13384, 6159, 840, 839, 6158
13385, 838, 841, 87, 740
13386, 3136, 3131, 5329, 1255
13387, 3391, 5329, 3131, 5368
13388, 6162, 3165, 3136, 6161
13389, 3155, 3166, 88, 742
13390, 6164, 3243, 3217, 6163
13391, 3218, 3244, 89, 743
13392, 6166, 3320, 3309, 6165
13393, 3310, 3321, 90, 744
13394, 6169, 3318, 3323, 6168
13395, 3324, 3317, 746, 91
13396, 6171, 3284, 3308, 6170
13397, 6170, 3308, 3318, 6169
13398, 6172, 3266, 3284, 6171
13399, 3267, 3275, 93, 748
13400, 6175, 3313, 3303, 6174
13401, 3304, 3314, 94, 749
13402, 3326, 3330, 95, 750
13403, 752, 96, 3333, 5314
13404, 3383, 754, 98, 3384
13405, 3380, 3359, 755, 99
13406, 3355, 3315, 756, 100
13407, 3357, 3378, 102, 757
13408, 3381, 3382, 103, 758
13409, 3379, 3358, 760, 104
13410, 3358, 3305, 761, 760
13411, 3198, 3208, 106, 762
13412, 3237, 3322, 107, 763
13413, 3386, 3360, 3500, 357
13414, 766, 842, 844, 771
13415, 772, 649, 648, 774
13416, 843, 767, 768, 845
13417, 845, 768, 769, 846
13418, 846, 769, 770, 847
13419, 847, 770, 772, 849
13420, 767, 843, 842, 766
13421, 771, 844, 848, 773
13422, 814, 644, 36, 819
13423, 773, 848, 850, 775
13424, 832, 826, 5317, 900
13425, 782, 780, 855, 858
13426, 859, 781, 785, 862
13427, 793, 803, 875, 863
13428, 721, 720, 797, 794
13429, 862, 785, 788, 866
13430, 786, 782, 858, 861
13431, 848, 844, 915, 920
13432, 788, 790, 868, 866
13433, 6139, 791, 795, 6138
13434, 720, 97, 800, 797
13435, 5323, 868, 794, 797
13436, 789, 786, 861, 865
13437, 783, 856, 864, 792
13438, 803, 805, 877, 875
13439, 781, 859, 854, 779
13440, 791, 789, 865, 867
13441, 853, 5318, 852, 945
13442, 37, 662, 806, 897
13443, 795, 791, 867, 869
13444, 6137, 798, 799, 97
13445, 979, 1029, 871, 869
13446, 872, 800, 97, 935
13447, 922, 857, 863, 927
13448, 874, 802, 792, 864
13449, 857, 855, 780, 784
13450, 796, 787, 5318, 853
13451, 876, 804, 802, 874
13452, 816, 6151, 6152, 818
13453, 880, 807, 804, 876
13454, 812, 810, 881, 940
13455, 774, 851, 849, 772
13456, 736, 735, 817, 820
13457, 882, 879, 808, 811
13458, 817, 815, 886, 889
13459, 882, 811, 813, 883
13460, 801, 878, 860, 776
13461, 817, 889, 5320, 820
13462, 828, 6155, 6156, 831
13463, 885, 883, 813, 816
13464, 829, 641, 640, 833
13465, 809, 884, 878, 801
13466, 885, 816, 818, 887
13467, 894, 827, 5320, 954
13468, 814, 888, 884, 809
13469, 826, 897, 961, 5317
13470, 951, 955, 899, 894
13471, 821, 891, 887, 818
13472, 825, 896, 892, 822
13473, 830, 899, 903, 834
13474, 831, 902, 898, 828
13475, 832, 900, 904, 836
13476, 944, 892, 896, 946
13477, 834, 903, 906, 838
13478, 898, 956, 952, 895
13479, 1108, 836, 904, 959
13480, 833, 905, 901, 829
13481, 838, 906, 909, 841
13482, 835, 907, 902, 831
13483, 1255, 6160, 6161, 3136
13484, 839, 910, 907, 835
13485, 842, 843, 914, 913
13486, 843, 845, 916, 914
13487, 913, 915, 844, 842
13488, 851, 774, 776, 860
13489, 918, 917, 846, 847
13490, 912, 919, 849, 851
13491, 850, 848, 920, 945
13492, 5319, 852, 778, 777
13493, 911, 912, 851, 860
13494, 948, 796, 853, 994
13495, 893, 806, 796, 948
13496, 922, 923, 855, 857
13497, 856, 921, 5330, 864
13498, 808, 879, 877, 805
13499, 927, 863, 875, 5362
13500, 858, 855, 923, 924
13501, 921, 862, 866, 989
13502, 888, 814, 819, 890
13503, 878, 931, 911, 860
13504, 797, 800, 870, 5323
13505, 877, 933, 5362, 875
13506, 858, 924, 926, 861
13507, 929, 866, 868, 5323
13508, 865, 861, 926, 928
13509, 798, 795, 869, 871
13510, 867, 865, 928, 930
13511, 5323, 870, 932, 929
13512, 800, 872, 937, 870
13513, 866, 929, 991, 989
13514, 873, 935, 97, 799
13515, 5327, 5321, 982, 1027
13516, 925, 874, 864, 5330
13517, 933, 877, 879, 5363
13518, 876, 874, 925, 936
13519, 807, 880, 881, 810
13520, 973, 922, 927, 5429
13521, 878, 884, 939, 931
13522, 880, 876, 936, 5337
13523, 886, 815, 812, 940
13524, 976, 5362, 933, 5433
13525, 884, 888, 942, 939
13526, 5363, 879, 882, 938
13527, 895, 823, 828, 898
13528, 891, 947, 950, 887
13529, 889, 886, 949, 5324
13530, 896, 825, 829, 901
13531, 998, 5364, 941, 1004
13532, 970, 913, 914, 5341
13533, 961, 893, 948, 5326
13534, 5320, 827, 824, 820
13535, 1035, 5559, 1046, 1090
13536, 943, 942, 888, 890
13537, 897, 806, 893, 961
13538, 895, 952, 947, 891
13539, 1007, 1012, 955, 951
13540, 904, 900, 958, 1014
13541, 900, 5317, 1011, 958
13542, 905, 833, 837, 960
13543, 953, 901, 905, 957
13544, 902, 963, 956, 898
13545, 955, 962, 903, 899
13546, 960, 837, 908, 1018
13547, 1010, 1066, 381, 1106
13548, 962, 964, 906, 903
13549, 910, 839, 840, 1290
13550, 956, 1013, 1008, 952
13551, 1018, 908, 3120, 3430
13552, 966, 909, 1017, 1062
13553, 1290, 840, 1255, 5329
13554, 907, 965, 963, 902
13555, 911, 1019, 967, 912
13556, 5355, 968, 969, 1020
13557, 1048, 5344, 970, 5341
13558, 845, 846, 917, 916
13559, 917, 918, 968, 5342
13560, 915, 913, 970, 920
13561, 969, 968, 918, 919
13562, 967, 969, 919, 912
13563, 918, 847, 849, 919
13564, 922, 973, 5424, 923
13565, 5362, 976, 5429, 927
13566, 974, 924, 923, 5424
13567, 1039, 925, 5330, 1038
13568, 924, 974, 975, 926
13569, 938, 882, 883, 5364
13570, 5363, 995, 5433, 933
13571, 926, 975, 977, 928
13572, 869, 867, 930, 979
13573, 5330, 921, 989, 1038
13574, 983, 931, 939, 985
13575, 932, 990, 1036, 992
13576, 885, 941, 5364, 883
13577, 5429, 976, 1035, 1040
13578, 981, 934, 1028, 1073
13579, 799, 934, 981, 873
13580, 1030, 1076, 982, 935
13581, 993, 936, 925, 1039
13582, 5337, 996, 881, 880
13583, 872, 5321, 984, 937
13584, 990, 937, 984, 1080
13585, 941, 885, 887, 950
13586, 976, 5433, 5559, 1035
13587, 892, 944, 943, 890
13588, 985, 939, 942, 986
13589, 940, 881, 996, 1003
13590, 949, 886, 940, 1003
13591, 1004, 941, 950, 999
13592, 986, 942, 943, 987
13593, 931, 983, 1019, 911
13594, 901, 953, 946, 896
13595, 988, 944, 946, 1000
13596, 853, 945, 5325, 994
13597, 5559, 5433, 995, 1046
13598, 1074, 5438, 1031, 1032
13599, 5361, 1006, 954, 5324
13600, 951, 894, 954, 1006
13601, 951, 1006, 1060, 1007
13602, 947, 1001, 999, 950
13603, 964, 962, 1015, 3153
13604, 952, 1008, 1001, 947
13605, 960, 1010, 957, 905
13606, 953, 1009, 1000, 946
13607, 1103, 1058, 1101, 1140
13608, 959, 904, 1014, 1068
13609, 1108, 3157, 38, 666
13610, 1066, 1010, 960, 1018
13611, 948, 994, 1005, 5326
13612, 1012, 1015, 962, 955
13613, 965, 907, 910, 348
13614, 5439, 965, 348, 1110
13615, 1017, 964, 3153, 371
13616, 909, 906, 964, 1017
13617, 963, 1016, 1013, 956
13618, 3122, 966, 1062, 3413
13619, 1020, 969, 967, 1019
13620, 5342, 971, 916, 917
13621, 5325, 1042, 1054, 994
13622, 916, 971, 972, 914
13623, 945, 920, 997, 5325
13624, 5341, 914, 972, 1048
13625, 1022, 975, 974, 5425
13626, 975, 1022, 1023, 977
13627, 928, 977, 978, 930
13628, 5364, 998, 5436, 938
13629, 977, 1023, 1024, 978
13630, 979, 930, 978, 1026
13631, 980, 873, 981, 1025
13632, 1075, 1029, 979, 1026
13633, 1112, 1025, 1113, 1148
13634, 935, 982, 5321, 872
13635, 987, 943, 944, 988
13636, 983, 985, 1031, 1079
13637, 1072, 934, 871, 1029
13638, 5327, 1044, 984, 5321
13639, 985, 986, 1032, 1031
13640, 987, 1033, 1032, 986
13641, 988, 1034, 1033, 987
13642, 1039, 1084, 1045, 993
13643, 929, 932, 992, 991
13644, 989, 991, 1041, 1038
13645, 991, 992, 1043, 1041
13646, 992, 1036, 1086, 1043
13647, 936, 993, 996, 5337
13648, 5561, 5436, 998, 1049
13649, 1049, 998, 1004, 1051
13650, 1084, 1039, 1038, 1119
13651, 949, 1003, 5360, 1002
13652, 997, 920, 970, 5344
13653, 1021, 1094, 971, 5342
13654, 1051, 1004, 999, 1052
13655, 1022, 1078, 1069, 1023
13656, 1009, 953, 957, 1055
13657, 5684, 5561, 1049, 1121
13658, 1002, 5360, 1053, 5388
13659, 5361, 5324, 949, 1002
13660, 1005, 994, 1054, 5352
13661, 5326, 1011, 5317, 961
13662, 1060, 1006, 5388, 1102
13663, 1012, 1007, 1061, 1065
13664, 1001, 1056, 1052, 999
13665, 1055, 957, 1010, 1106
13666, 1047, 1000, 1009, 1057
13667, 1059, 5338, 1058, 1103
13668, 1016, 963, 965, 5439
13669, 1013, 1067, 1063, 1008
13670, 1059, 958, 1011, 5338
13671, 1185, 1064, 1145, 1220
13672, 3197, 5447, 3395, 325
13673, 1067, 1013, 1016, 1109
13674, 3390, 3125, 381, 1066
13675, 1155, 1166, 1129, 1157
13676, 1019, 983, 1079, 1020
13677, 5344, 1048, 1096, 1042
13678, 1094, 5356, 972, 971
13679, 5424, 1037, 5425, 974
13680, 1069, 1070, 1024, 1023
13681, 1026, 978, 1024, 1071
13682, 1124, 1028, 5336, 1160
13683, 1080, 5328, 1154, 1120
13684, 1029, 1075, 1126, 1072
13685, 1025, 1112, 1123, 980
13686, 1000, 1047, 1034, 988
13687, 1074, 1032, 1033, 5619
13688, 1047, 5623, 5678, 1034
13689, 1116, 1129, 1077, 1083
13690, 5561, 1046, 995, 5436
13691, 1081, 1037, 1040, 1035
13692, 984, 1044, 5328, 1080
13693, 1082, 5425, 1037, 1081
13694, 973, 1040, 1037, 5424
13695, 1137, 5490, 1161, 1169
13696, 1050, 996, 993, 1045
13697, 1041, 1043, 1172, 1119
13698, 1080, 1120, 1036, 990
13699, 1043, 1086, 1135, 1172
13700, 1044, 5327, 1088, 1122
13701, 1089, 1045, 1084, 5490
13702, 1003, 996, 1050, 5360
13703, 1074, 1077, 1127, 5438
13704, 1118, 1082, 1081, 1087
13705, 1045, 1089, 5392, 1050
13706, 1087, 1081, 1035, 1090
13707, 1056, 1001, 1008, 1063
13708, 1091, 1121, 1049, 1051
13709, 5392, 1089, 5490, 1137
13710, 1102, 5388, 1053, 1095
13711, 1092, 1101, 1054, 1042
13712, 5352, 1058, 5338, 1005
13713, 1057, 1009, 1055, 1139
13714, 1093, 1091, 1051, 1052
13715, 5619, 1083, 1077, 1074
13716, 1144, 1103, 1140, 1179
13717, 1181, 1105, 1144, 1217
13718, 1064, 958, 1059, 1105
13719, 1060, 1104, 1061, 1007
13720, 3143, 371, 3396, 3619
13721, 1067, 1100, 5683, 1063
13722, 1220, 1145, 1218, 1253
13723, 1107, 1065, 1147, 3137
13724, 1107, 3137, 3129, 5413
13725, 347, 1100, 1067, 1109
13726, 1078, 1022, 5425, 1082
13727, 1111, 1070, 1069, 5488
13728, 1070, 1111, 1150, 1114
13729, 1071, 1024, 1070, 1114
13730, 1075, 1114, 1163, 1126
13731, 1152, 1076, 1030, 1123
13732, 1028, 934, 1072, 5336
13733, 1113, 1073, 1149, 1195
13734, 1025, 981, 1073, 1113
13735, 5356, 1096, 1048, 972
13736, 1114, 1075, 1026, 1071
13737, 1027, 982, 1076, 1117
13738, 1047, 1057, 1098, 5623
13739, 1046, 5561, 5684, 1090
13740, 5438, 5393, 1079, 1031
13741, 1086, 1036, 1120, 1135
13742, 5623, 1098, 1162, 1131
13743, 1173, 1202, 5427, 1130
13744, 5490, 1084, 1119, 1161
13745, 1085, 1158, 1094, 1021
13746, 1021, 5355, 5393, 1085
13747, 1164, 5488, 1115, 1151
13748, 1154, 5328, 1196, 1205
13749, 1102, 1143, 1104, 1060
13750, 1095, 1053, 5392, 1137
13751, 1052, 1056, 1099, 1093
13752, 1115, 1082, 1118, 1151
13753, 5683, 1100, 1142, 5751
13754, 5427, 1128, 1096, 5356
13755, 1118, 5620, 1168, 1151
13756, 1092, 1042, 1096, 1128
13757, 1139, 1055, 1106, 1184
13758, 1098, 1057, 1097, 1132
13759, 1127, 1166, 1158, 1085
13760, 5683, 1099, 1056, 1063
13761, 1091, 1125, 5620, 1121
13762, 1100, 347, 1141, 1142
13763, 5752, 1093, 1099, 1133
13764, 1134, 1140, 1101, 1092
13765, 1101, 1058, 5352, 1054
13766, 1138, 1104, 1143, 1175
13767, 1218, 1145, 1181, 1250
13768, 1216, 1184, 1106, 381
13769, 3396, 5413, 3129, 3573
13770, 5413, 3396, 371, 3153
13771, 3412, 959, 1068, 335
13772, 1146, 1183, 5615, 1214
13773, 3197, 1287, 1219, 5447
13774, 5488, 1069, 1078, 1115
13775, 1123, 1112, 1159, 1152
13776, 1073, 1028, 1124, 1149
13777, 1126, 1160, 5336, 1072
13778, 1121, 1087, 1090, 5684
13779, 5623, 1131, 1116, 1083
13780, 1152, 1189, 1117, 1076
13781, 1117, 1153, 5339, 1027
13782, 1091, 1093, 5752, 1125
13783, 1087, 1121, 5620, 1118
13784, 1122, 1196, 5328, 1044
13785, 1120, 1154, 1170, 1135
13786, 1168, 5620, 1125, 5641
13787, 5353, 1088, 5339, 1153
13788, 1156, 1122, 1088, 5353
13789, 1112, 1148, 1194, 1159
13790, 1152, 1159, 1186, 1189
13791, 1191, 1221, 1262, 5365
13792, 1125, 5752, 1165, 5641
13793, 1114, 1150, 1193, 1163
13794, 1124, 5358, 1187, 1149
13795, 1130, 1094, 1158, 1173
13796, 1085, 5393, 5438, 1127
13797, 1134, 1092, 1128, 1167
13798, 1127, 1077, 1129, 1166
13799, 1157, 1129, 1116, 1131
13800, 5427, 5356, 1094, 1130
13801, 358, 1300, 1267, 1259
13802, 1097, 1171, 1203, 1132
13803, 1131, 1162, 5632, 1198
13804, 1199, 5641, 1165, 1206
13805, 1190, 1155, 1157, 5497
13806, 1172, 1135, 1204, 5391
13807, 1178, 1175, 1143, 1136
13808, 1102, 1095, 1136, 1143
13809, 1136, 1095, 1137, 1169
13810, 1138, 1281, 1245, 370
13811, 1171, 1097, 1180, 1201
13812, 1097, 1057, 1139, 1180
13813, 1177, 1179, 1140, 1134
13814, 1182, 1141, 1174, 1208
13815, 1146, 347, 1109, 1183
13816, 1182, 1176, 1142, 1141
13817, 5751, 1142, 1176, 1133
13818, 1178, 1136, 1169, 1209
13819, 1105, 1181, 1145, 1064
13820, 1252, 1185, 1220, 1289
13821, 1214, 1243, 1174, 1146
13822, 1281, 1138, 1175, 5526
13823, 3154, 1350, 5700, 391
13824, 1159, 1194, 1224, 1186
13825, 5488, 1164, 5489, 1111
13826, 1126, 1163, 1191, 1160
13827, 1151, 1168, 1188, 1164
13828, 1196, 1122, 1156, 5354
13829, 1156, 5353, 1230, 5390
13830, 1192, 1230, 5353, 1153
13831, 1237, 1196, 5354, 1270
13832, 1202, 1207, 5460, 1167
13833, 1298, 1225, 1256, 1323
13834, 5359, 1256, 1225, 1195
13835, 1209, 1169, 1211, 1239
13836, 1171, 1201, 1259, 1235
13837, 1238, 1190, 5497, 1333
13838, 1221, 1193, 1222, 1269
13839, 1163, 1193, 1221, 1191
13840, 1164, 1188, 1228, 5489
13841, 5641, 1200, 1188, 1168
13842, 1190, 1202, 1173, 1155
13843, 1167, 1128, 5427, 1202
13844, 1177, 1134, 1167, 5460
13845, 1264, 5576, 1200, 1229
13846, 1210, 1178, 1209, 1316
13847, 1161, 5391, 1211, 1169
13848, 1119, 1172, 5391, 1161
13849, 1204, 1135, 1170, 1240
13850, 1173, 1158, 1166, 1155
13851, 1175, 1178, 1210, 5526
13852, 1133, 1176, 1165, 5752
13853, 1177, 5460, 5492, 1215
13854, 1217, 1284, 1250, 1181
13855, 1217, 1144, 1179, 1247
13856, 1214, 5615, 1251, 1313
13857, 1249, 1248, 1184, 1216
13858, 1185, 1252, 1068, 1014
13859, 1231, 1189, 1186, 1260
13860, 1225, 1148, 1113, 1195
13861, 1195, 1149, 1187, 5359
13862, 1222, 1193, 1150, 1197
13863, 1260, 1186, 1224, 1292
13864, 1117, 1189, 1226, 1153
13865, 1207, 1202, 1190, 1238
13866, 1157, 1131, 1198, 5497
13867, 1160, 1191, 5365, 1223
13868, 1306, 1237, 1270, 1335
13869, 5358, 1223, 1265, 1187
13870, 1227, 5359, 1187, 1265
13871, 5430, 1230, 1192, 1261
13872, 1197, 1150, 1111, 5489
13873, 1222, 1197, 5513, 1272
13874, 5633, 5632, 1203, 1235
13875, 1206, 1165, 1176, 1182
13876, 1229, 1200, 5641, 1199
13877, 1235, 1259, 1267, 5633
13878, 1162, 1132, 1203, 5632
13879, 1205, 1236, 1170, 1154
13880, 1212, 1285, 1239, 1211
13881, 1237, 1271, 1205, 1196
13882, 1199, 1234, 1263, 1229
13883, 1244, 1241, 1277, 1274
13884, 1316, 1209, 1239, 369
13885, 1282, 1318, 1210, 1316
13886, 1212, 1211, 5391, 1204
13887, 1240, 1285, 1212, 1204
13888, 1275, 1303, 1233, 1213
13889, 1275, 1213, 1248, 1311
13890, 1314, 1245, 1281, 3161
13891, 1183, 1219, 1287, 5615
13892, 1179, 1177, 1215, 1247
13893, 1254, 1216, 381, 3125
13894, 1280, 1249, 1312, 1345
13895, 1206, 1182, 1208, 1244
13896, 1251, 5615, 1287, 324
13897, 1289, 1220, 1253, 1436
13898, 1296, 5365, 1262, 1331
13899, 5489, 1228, 5513, 1197
13900, 1322, 1265, 1296, 1356
13901, 1226, 1189, 1231, 1266
13902, 1225, 1258, 1194, 1148
13903, 1226, 1257, 1192, 1153
13904, 1223, 5365, 1296, 1265
13905, 1272, 1264, 1304, 1302
13906, 1234, 1199, 1206, 1244
13907, 1332, 1260, 1292, 1354
13908, 1238, 1333, 1268, 5558
13909, 1232, 1198, 5632, 5633
13910, 1201, 1180, 1233, 1273
13911, 1234, 1244, 1274, 1263
13912, 1259, 1201, 1273, 358
13913, 1240, 5426, 1317, 1285
13914, 1240, 1170, 1236, 5426
13915, 5431, 5432, 1270, 5390
13916, 1242, 1207, 1238, 5558
13917, 1271, 1278, 1236, 1205
13918, 1208, 1243, 1276, 1241
13919, 1242, 1307, 5584, 5492
13920, 1313, 1276, 1243, 1214
13921, 1147, 370, 1245, 3137
13922, 1283, 3161, 1281, 1246
13923, 1215, 5492, 5584, 1279
13924, 1303, 1275, 1337, 1328
13925, 1311, 1248, 1249, 1280
13926, 1249, 1216, 1254, 1312
13927, 1280, 1345, 5649, 1341
13928, 1284, 1217, 1247, 1315
13929, 1349, 1286, 1319, 1408
13930, 1251, 3160, 1406, 1313
13931, 1313, 1406, 1378, 1276
13932, 3151, 1252, 1289, 3123
13933, 335, 1068, 1252, 3151
13934, 1218, 1250, 1319, 1286
13935, 1461, 1312, 1254, 3130
13936, 5329, 3391, 5366, 1290
13937, 1294, 1261, 1257, 1299
13938, 1297, 1325, 1266, 1231
13939, 358, 1321, 1330, 1300
13940, 1297, 1231, 1260, 1332
13941, 5390, 1230, 5430, 5431
13942, 1269, 1302, 1326, 1295
13943, 1295, 1262, 1221, 1269
13944, 1272, 1302, 1269, 1222
13945, 5576, 1264, 1272, 5513
13946, 1264, 1229, 1263, 1304
13947, 1265, 1322, 1293, 1227
13948, 1257, 1226, 1266, 1299
13949, 1232, 1329, 1268, 1333
13950, 1232, 5633, 1267, 1329
13951, 1339, 1317, 1278, 1310
13952, 1270, 5354, 1156, 5390
13953, 1306, 1338, 1271, 1237
13954, 5575, 1336, 1302, 1304
13955, 1328, 1321, 1291, 1303
13956, 1233, 1303, 1291, 1273
13957, 1342, 1241, 1276, 1378
13958, 1277, 5723, 1309, 1274
13959, 5426, 1236, 1278, 1317
13960, 1367, 1343, 1307, 1362
13961, 1247, 1215, 1279, 1315
13962, 1311, 1280, 1341, 1370
13963, 5642, 1283, 1246, 1318
13964, 1350, 5591, 1314, 5700
13965, 1282, 1346, 1347, 1379
13966, 369, 1239, 1285, 1317
13967, 1319, 1250, 1284, 1348
13968, 1405, 1349, 1408, 1420
13969, 5447, 1219, 1110, 348
13970, 1288, 3155, 742, 741
13971, 348, 910, 1290, 5366
13972, 358, 1273, 1291, 1321
13973, 1298, 1327, 1258, 1225
13974, 1325, 1297, 1352, 1389
13975, 1351, 1293, 1322, 1388
13976, 1323, 1227, 1293, 1351
13977, 1294, 1299, 1359, 1324
13978, 1331, 1262, 1295, 1363
13979, 1363, 1295, 1326, 1385
13980, 1325, 1359, 1299, 1266
13981, 1357, 1298, 1323, 5428
13982, 1361, 1330, 1321, 1328
13983, 5431, 1301, 1358, 5432
13984, 1329, 1267, 1300, 1362
13985, 1337, 1275, 1311, 1370
13986, 1369, 1361, 1328, 1337
13987, 1305, 5575, 1274, 1309
13988, 1383, 1331, 1363, 1411
13989, 1338, 1306, 1355, 1360
13990, 5584, 1307, 1343, 1279
13991, 1277, 1308, 1340, 5723
13992, 1309, 346, 1334, 1305
13993, 1317, 1339, 1344, 369
13994, 1310, 1278, 1271, 1338
13995, 1375, 5649, 1399, 1428
13996, 5768, 3173, 5788, 3398
13997, 1367, 1362, 1300, 1330
13998, 1316, 369, 1346, 1282
13999, 5642, 1318, 1282, 1379
14000, 1348, 1284, 1315, 1377
14001, 1320, 1286, 1349, 1381
14002, 1433, 1381, 1431, 1460
14003, 1404, 1320, 1381, 1433
14004, 324, 3429, 3147, 3400
14005, 1331, 1383, 1356, 1296
14006, 1357, 5428, 1386, 1413
14007, 1323, 1256, 5359, 1227
14008, 1335, 1358, 1414, 1390
14009, 1327, 1354, 1292, 1258
14010, 1447, 1467, 1446, 1414
14011, 1302, 1336, 1353, 1326
14012, 1387, 1371, 1343, 1367
14013, 1387, 1367, 1330, 1361
14014, 1441, 1423, 1392, 1422
14015, 1468, 1352, 1382, 1438
14016, 1352, 1297, 1332, 1382
14017, 1198, 1232, 1333, 5497
14018, 1368, 1305, 1334, 1392
14019, 1398, 346, 1364, 5769
14020, 5575, 1304, 1263, 1274
14021, 1305, 1368, 1336, 5575
14022, 1355, 1306, 1335, 1390
14023, 1310, 1338, 1360, 1400
14024, 1339, 1310, 1400, 1374
14025, 1364, 5776, 1396, 5769
14026, 1364, 5723, 1340, 5776
14027, 1377, 1393, 1427, 1407
14028, 1365, 1342, 1378, 1401
14029, 1308, 1277, 1241, 1342
14030, 1279, 1343, 1371, 1315
14031, 1372, 1376, 1402, 1434
14032, 1373, 1345, 1312, 1461
14033, 1373, 1399, 5649, 1345
14034, 1376, 1346, 369, 1344
14035, 1409, 1347, 1372, 1527
14036, 1380, 1408, 1319, 1348
14037, 1459, 1405, 1420, 1492
14038, 3129, 1350, 3154, 3573
14039, 1350, 3129, 3137, 5591
14040, 1388, 1356, 1383, 1419
14041, 1352, 1468, 1443, 1389
14042, 1385, 1326, 1353, 5570
14043, 1357, 1384, 1327, 1298
14044, 1354, 1327, 1384, 1412
14045, 1394, 1355, 1390, 1424
14046, 1391, 1324, 1359, 1418
14047, 1414, 1358, 1391, 1447
14048, 1389, 1418, 1359, 1325
14049, 1400, 1360, 1415, 1421
14050, 1395, 1387, 1361, 1369
14051, 1268, 1362, 1307, 5558
14052, 5570, 1353, 1336, 1368
14053, 1363, 1385, 5560, 1411
14054, 5723, 1364, 346, 1309
14055, 1396, 1435, 1426, 5769
14056, 1410, 1351, 1388, 1442
14057, 1366, 1334, 346, 1398
14058, 1334, 1366, 1422, 1392
14059, 1393, 1371, 1387, 1395
14060, 1375, 1397, 1341, 5649
14061, 1483, 1500, 1541, 5748
14062, 1377, 1315, 1371, 1393
14063, 1403, 1402, 1376, 1344
14064, 1372, 1434, 5762, 1527
14065, 1399, 1373, 1432, 1457
14066, 1344, 1339, 1374, 1403
14067, 5720, 1416, 1449, 1369
14068, 1396, 1365, 1401, 1435
14069, 1348, 1377, 1407, 1380
14070, 1381, 1349, 1405, 1431
14071, 1459, 1490, 1431, 1405
14072, 1498, 1531, 1468, 1438
14073, 1413, 1439, 1384, 1357
14074, 1368, 1392, 1423, 5570
14075, 1386, 5487, 1440, 1475
14076, 1390, 1414, 1446, 1424
14077, 1447, 1391, 1418, 1480
14078, 1324, 1391, 1358, 1301
14079, 1366, 1398, 5681, 1422
14080, 5560, 1454, 1445, 1411
14081, 1449, 1417, 1395, 1369
14082, 5706, 1450, 5748, 1481
14083, 5720, 1369, 1337, 1370
14084, 1370, 1341, 1397, 5720
14085, 1444, 1394, 1424, 1479
14086, 1360, 1355, 1394, 1415
14087, 5805, 1489, 1464, 5779
14088, 5769, 1426, 5749, 1453
14089, 1397, 1375, 1425, 1450
14090, 1481, 5728, 1451, 5706
14091, 1422, 5681, 1482, 1441
14092, 1375, 1428, 1452, 1425
14093, 1401, 5680, 1437, 1435
14094, 1434, 1402, 1465, 5686
14095, 1421, 1429, 1374, 1400
14096, 1429, 1430, 1403, 1374
14097, 1254, 3125, 3504, 3130
14098, 1432, 1373, 1461, 1494
14099, 1463, 1404, 1433, 1495
14100, 1404, 1463, 1466, 1436
14101, 1460, 1431, 1490, 1521
14102, 323, 5680, 1406, 3160
14103, 1420, 1408, 1380, 1458
14104, 1409, 390, 5788, 3173
14105, 1412, 1438, 1382, 1354
14106, 1413, 1386, 1475, 5504
14107, 5428, 1410, 5487, 1386
14108, 1419, 1383, 1411, 1445
14109, 1412, 1384, 1439, 1474
14110, 1415, 1394, 1444, 1448
14111, 1416, 5720, 1397, 1450
14112, 1451, 1417, 1449, 5706
14113, 1393, 1395, 1417, 1427
14114, 1504, 1443, 1468, 1531
14115, 1410, 1442, 1472, 5487
14116, 1442, 1388, 1419, 1471
14117, 1407, 1455, 1458, 1380
14118, 1448, 1456, 1421, 1415
14119, 1398, 5769, 1453, 5681
14120, 1454, 1473, 1502, 1445
14121, 5570, 1423, 5560, 1385
14122, 1424, 1446, 1469, 1479
14123, 1492, 1420, 1458, 1519
14124, 5749, 5779, 1485, 5708
14125, 1452, 1476, 1505, 1470
14126, 1456, 1462, 1429, 1421
14127, 1493, 1462, 1516, 1553
14128, 1402, 1403, 1430, 1465
14129, 1491, 1432, 1494, 1524
14130, 1428, 1399, 1457, 1487
14131, 1495, 1433, 1460, 1525
14132, 1497, 1559, 5762, 5686
14133, 5680, 1401, 1378, 1406
14134, 1436, 1466, 3123, 1289
14135, 1489, 1588, 1554, 1523
14136, 1474, 1439, 1503, 1537
14137, 5504, 1503, 1439, 1413
14138, 1472, 1534, 1440, 5487
14139, 1471, 1419, 1445, 1502
14140, 1442, 1471, 1501, 1472
14141, 1504, 1543, 1480, 1443
14142, 1418, 1389, 1443, 1480
14143, 1477, 1444, 1479, 1506
14144, 1446, 1467, 5582, 1469
14145, 1447, 1480, 1507, 1467
14146, 1477, 1484, 1448, 1444
14147, 1483, 1425, 1452, 1470
14148, 1427, 5618, 1455, 1407
14149, 1427, 1417, 1451, 5618
14150, 1476, 1452, 1428, 1487
14151, 1471, 1502, 1532, 1501
14152, 1423, 1441, 1454, 5560
14153, 1473, 1454, 1441, 1482
14154, 1478, 1488, 1455, 5618
14155, 1484, 1486, 1456, 1448
14156, 1514, 1487, 5740, 1542
14157, 1458, 1455, 1488, 1519
14158, 1490, 1520, 1550, 1521
14159, 1560, 1494, 1461, 3130
14160, 1465, 1430, 1493, 5685
14161, 1430, 1429, 1462, 1493
14162, 1529, 1463, 1495, 1556
14163, 1496, 1466, 1463, 1529
14164, 1464, 1518, 1485, 5779
14165, 5685, 1493, 1553, 1526
14166, 336, 3123, 1466, 1496
14167, 1469, 5582, 1510, 1499
14168, 1474, 1498, 1438, 1412
14169, 1499, 1506, 1479, 1469
14170, 1511, 5764, 1478, 5728
14171, 1472, 1501, 5562, 1534
14172, 1571, 1596, 1537, 1503
14173, 1540, 5504, 1475, 1569
14174, 1470, 1505, 1500, 1483
14175, 1511, 1509, 1541, 1565
14176, 1499, 1510, 1535, 1533
14177, 5708, 1485, 5778, 1512
14178, 1547, 1548, 1512, 5778
14179, 1425, 1483, 5748, 1450
14180, 1508, 1517, 1484, 1477
14181, 1473, 5647, 1513, 1502
14182, 5779, 5749, 1426, 5805
14183, 1516, 1486, 1546, 1581
14184, 1462, 1456, 1486, 1516
14185, 1549, 1492, 1519, 1536
14186, 1489, 1435, 1437, 1588
14187, 1523, 1554, 5800, 1584
14188, 1520, 1490, 1459, 1522
14189, 1544, 1582, 1520, 1522
14190, 1497, 5685, 1526, 1558
14191, 1528, 1524, 1494, 1560
14192, 1525, 1460, 1521, 1555
14193, 1527, 5762, 1559, 3387
14194, 1499, 1533, 5694, 1506
14195, 1565, 1541, 1500, 1530
14196, 1501, 1532, 1567, 5562
14197, 1513, 5647, 1512, 1548
14198, 5647, 5677, 5708, 1512
14199, 1440, 1534, 1569, 1475
14200, 1537, 1562, 1498, 1474
14201, 1572, 1504, 1531, 1593
14202, 1561, 1563, 5829, 1514
14203, 5694, 1533, 5757, 1545
14204, 1477, 1506, 5694, 1508
14205, 1507, 1480, 1543, 1566
14206, 1507, 1538, 5582, 1467
14207, 1509, 1511, 5728, 1481
14208, 1509, 1481, 5748, 1541
14209, 1538, 1568, 1510, 5582
14210, 1591, 1570, 1565, 1530
14211, 5855, 5778, 1485, 1518
14212, 1532, 1502, 1513, 1574
14213, 1476, 1487, 1514, 5829
14214, 1551, 1579, 1515, 1491
14215, 1457, 1515, 5740, 1487
14216, 1516, 1581, 5715, 1553
14217, 1576, 1517, 1545, 1603
14218, 1486, 1484, 1517, 1546
14219, 1464, 1489, 1523, 5847
14220, 5862, 5855, 1518, 1552
14221, 1536, 1519, 5764, 1570
14222, 1522, 1459, 1492, 1549
14223, 1522, 1549, 1577, 1544
14224, 5847, 1584, 1616, 1552
14225, 1645, 1671, 1700, 5742
14226, 1590, 1617, 1674, 5486
14227, 1589, 1558, 1526, 1640
14228, 390, 1409, 1527, 3387
14229, 1585, 1551, 5616, 1614
14230, 1590, 1529, 1556, 1617
14231, 1500, 1505, 5846, 1530
14232, 1549, 1536, 1575, 1577
14233, 1592, 1566, 1620, 1633
14234, 1573, 5802, 1539, 1564
14235, 1564, 1539, 1535, 1600
14236, 1595, 1534, 5562, 1623
14237, 1538, 1507, 1566, 1592
14238, 1539, 5757, 1533, 1535
14239, 1563, 1561, 359, 5857
14240, 1505, 1476, 5829, 5846
14241, 5764, 1519, 1488, 1478
14242, 1511, 1565, 1570, 5764
14243, 1540, 1571, 1503, 5504
14244, 1630, 1655, 1596, 1571
14245, 1508, 5694, 1545, 1517
14246, 1599, 1540, 1569, 1626
14247, 1601, 1604, 1544, 1577
14248, 1561, 1514, 1542, 1578
14249, 1562, 1593, 1531, 1498
14250, 1568, 1538, 1592, 5626
14251, 1597, 1619, 1578, 1542
14252, 1550, 1520, 1582, 1611
14253, 1546, 1517, 1576, 1607
14254, 368, 1581, 1546, 1607
14255, 1574, 1513, 1548, 5709
14256, 1548, 1547, 1580, 5709
14257, 1628, 5777, 1610, 1664
14258, 1551, 1585, 1612, 1579
14259, 1610, 1583, 5862, 5877
14260, 5847, 1552, 1518, 1464
14261, 1637, 1667, 1598, 368
14262, 1640, 1526, 1553, 5715
14263, 5800, 1554, 322, 1672
14264, 1521, 1550, 1586, 1555
14265, 1555, 1615, 1587, 1525
14266, 1529, 1590, 1557, 1496
14267, 1557, 5485, 3121, 3144
14268, 3148, 3392, 1558, 1589
14269, 3389, 3427, 5496, 3408
14270, 1602, 1620, 1566, 1543
14271, 1530, 5846, 1563, 5857
14272, 1564, 1600, 1625, 1605
14273, 1570, 1591, 1575, 1536
14274, 1572, 1602, 1543, 1504
14275, 1646, 1567, 1606, 1636
14276, 1623, 5562, 1567, 1646
14277, 1568, 1600, 1535, 1510
14278, 1595, 1626, 1569, 1534
14279, 1596, 1621, 1562, 1537
14280, 5859, 1573, 1605, 1653
14281, 1574, 1606, 1567, 1532
14282, 5709, 1580, 5777, 1594
14283, 1608, 1601, 1577, 1575
14284, 1603, 1545, 5802, 5845
14285, 5741, 1579, 1612, 1635
14286, 1743, 1692, 1725, 1771
14287, 5741, 5740, 1515, 1579
14288, 1659, 1594, 5777, 1628
14289, 1629, 1647, 1619, 1648
14290, 1604, 1634, 1582, 1544
14291, 5855, 1583, 1547, 5778
14292, 5877, 1609, 1664, 1610
14293, 5800, 1643, 1616, 1584
14294, 1609, 1552, 1616, 1642
14295, 1524, 1528, 5542, 5616
14296, 1612, 1585, 1639, 1663
14297, 1611, 1638, 1586, 1550
14298, 1613, 1615, 1555, 1586
14299, 1641, 1669, 1615, 1613
14300, 3394, 1437, 5680, 323
14301, 1554, 1588, 3510, 322
14302, 1850, 1917, 1918, 1883
14303, 1590, 5486, 5485, 1557
14304, 1617, 1556, 1587, 1644
14305, 3595, 3144, 3121, 3456
14306, 1632, 5857, 359, 1647
14307, 1631, 1572, 1593, 1649
14308, 1633, 1650, 5626, 1592
14309, 1600, 5626, 1650, 1625
14310, 1636, 1606, 1594, 1659
14311, 5709, 1594, 1606, 1574
14312, 1599, 1630, 1571, 1540
14313, 1745, 1774, 1714, 1687
14314, 5741, 1597, 1542, 5740
14315, 368, 1607, 1624, 1637
14316, 5787, 1598, 1667, 1728
14317, 1660, 1599, 1626, 1684
14318, 1619, 1647, 359, 1578
14319, 1652, 1633, 1620, 1679
14320, 1573, 5859, 5845, 5802
14321, 1607, 1576, 1622, 1624
14322, 1627, 1668, 1604, 1601
14323, 5845, 5859, 1651, 1603
14324, 1622, 1576, 1603, 1651
14325, 1575, 1591, 1632, 1608
14326, 1530, 5857, 1632, 1591
14327, 345, 1664, 1609, 1642
14328, 1636, 1675, 1706, 1646
14329, 1583, 1610, 5777, 1580
14330, 1634, 1662, 1611, 1582
14331, 1627, 1629, 1691, 1668
14332, 5602, 1671, 1645, 1614
14333, 1645, 1639, 1585, 1614
14334, 1644, 1669, 1702, 1670
14335, 1616, 1643, 1665, 1642
14336, 1674, 1670, 1704, 5538
14337, 1762, 1672, 322, 5798
14338, 1701, 1672, 1762, 1734
14339, 337, 3121, 5485, 1618
14340, 1670, 1674, 1617, 1644
14341, 1629, 1627, 1601, 1608
14342, 1657, 1648, 1619, 1597
14343, 1621, 1649, 1593, 1562
14344, 1677, 1650, 1633, 1652
14345, 1620, 1602, 1658, 1679
14346, 1595, 1623, 5682, 1690
14347, 1624, 1622, 1656, 1661
14348, 1605, 1625, 1688, 1653
14349, 1625, 1650, 1677, 1688
14350, 1651, 5859, 1680, 1686
14351, 5801, 5750, 1676, 1710
14352, 1663, 1692, 1635, 1612
14353, 1676, 1628, 1664, 1683
14354, 1608, 1632, 1647, 1629
14355, 5682, 1706, 5753, 1690
14356, 1631, 1658, 1602, 1572
14357, 5875, 5867, 1668, 1720
14358, 1675, 1636, 1659, 5750
14359, 1728, 1667, 5871, 5872
14360, 1641, 1613, 1666, 1695
14361, 1613, 1586, 1638, 1666
14362, 1639, 5743, 1696, 1663
14363, 1641, 1698, 1730, 1669
14364, 1682, 1642, 1665, 5898
14365, 1621, 1596, 1655, 1678
14366, 1656, 1622, 1651, 1686
14367, 1685, 1707, 1658, 1631
14368, 1707, 1685, 1739, 1763
14369, 1687, 1714, 1655, 1630
14370, 1654, 1682, 1711, 5897
14371, 1660, 1687, 1630, 1599
14372, 1635, 1657, 1597, 5741
14373, 1720, 1668, 1691, 1727
14374, 1685, 1631, 1649, 1712
14375, 1678, 1712, 1649, 1621
14376, 1683, 1713, 1710, 1676
14377, 5876, 1681, 1713, 1683
14378, 1667, 1637, 1697, 5871
14379, 1637, 1624, 1661, 1697
14380, 1638, 1611, 1662, 1694
14381, 1604, 1668, 5867, 1634
14382, 1722, 1694, 1693, 1724
14383, 5876, 1683, 1664, 345
14384, 1701, 1721, 1665, 1643
14385, 1694, 1722, 1666, 1638
14386, 1785, 1728, 5872, 5885
14387, 1698, 1641, 1695, 1726
14388, 1730, 1759, 1702, 1669
14389, 5601, 1854, 1922, 1888
14390, 5602, 5542, 5541, 1703
14391, 1671, 382, 1733, 1700
14392, 1818, 1758, 1846, 1884
14393, 1729, 1696, 5743, 1673
14394, 1645, 5742, 5743, 1639
14395, 5538, 1705, 5486, 1674
14396, 1742, 1776, 1715, 5753
14397, 1659, 1628, 1676, 5750
14398, 1809, 1736, 1709, 1741
14399, 1707, 1738, 1679, 1658
14400, 1652, 1679, 1738, 1708
14401, 1653, 1688, 1747, 1716
14402, 1719, 1718, 1686, 1680
14403, 1642, 1682, 1654, 345
14404, 1660, 1684, 1715, 5754
14405, 1690, 1684, 1626, 1595
14406, 1685, 1712, 1768, 1739
14407, 1677, 1652, 1708, 1717
14408, 5895, 1656, 1686, 1718
14409, 1829, 1800, 5755, 1763
14410, 1688, 1677, 1717, 1747
14411, 5894, 1697, 1661, 1689
14412, 1689, 1661, 1656, 5895
14413, 1691, 1648, 1657, 1727
14414, 1635, 1692, 1727, 1657
14415, 1663, 1696, 1725, 1692
14416, 1662, 5867, 1693, 1694
14417, 1695, 1666, 1722, 1750
14418, 1722, 1753, 1779, 1750
14419, 1697, 5894, 1723, 5871
14420, 1699, 5787, 1728, 1757
14421, 1730, 1698, 1754, 1787
14422, 1754, 1698, 1726, 1782
14423, 1883, 1699, 1757, 1850
14424, 1751, 1673, 1731, 1786
14425, 1758, 1721, 1701, 1734
14426, 1704, 1732, 1760, 5601
14427, 1703, 382, 1671, 5602
14428, 5459, 1528, 1560, 3508
14429, 1670, 1702, 1732, 1704
14430, 3126, 1888, 1922, 1993
14431, 1618, 1705, 3126, 337
14432, 5486, 1705, 1618, 5485
14433, 1675, 1709, 1736, 1706
14434, 1765, 1801, 1747, 1717
14435, 1709, 1675, 5750, 5801
14436, 1709, 5801, 1710, 1741
14437, 1737, 1681, 5897, 1711
14438, 1804, 1737, 1772, 1838
14439, 1678, 1655, 1714, 1735
14440, 1735, 1768, 1712, 1678
14441, 1777, 1832, 1806, 1741
14442, 1710, 1713, 1777, 1741
14443, 5754, 1745, 1687, 1660
14444, 1776, 5803, 5754, 1715
14445, 1736, 1742, 5753, 1706
14446, 1740, 1770, 1719, 1680
14447, 1653, 1716, 1680, 5859
14448, 1765, 1769, 1795, 1825
14449, 1773, 5950, 5917, 1744
14450, 1689, 5895, 1718, 5917
14451, 1740, 1680, 1716, 1766
14452, 1783, 1721, 1758, 1818
14453, 1721, 5911, 5898, 1665
14454, 1726, 1695, 1750, 1780
14455, 1755, 5872, 5871, 1723
14456, 1720, 1743, 1749, 5875
14457, 1696, 1729, 1752, 1725
14458, 1727, 1692, 1743, 1720
14459, 1849, 1785, 5885, 1848
14460, 5742, 1731, 1673, 5743
14461, 1729, 1767, 1781, 1752
14462, 1732, 1702, 1759, 1789
14463, 1775, 1751, 1786, 5884
14464, 1767, 1751, 1775, 1807
14465, 1817, 1756, 1788, 1852
14466, 1734, 1762, 1790, 1890
14467, 1707, 1763, 5755, 1738
14468, 1713, 1681, 1737, 1777
14469, 1711, 1748, 1772, 1737
14470, 1769, 1708, 1738, 5755
14471, 1763, 1739, 1796, 1829
14472, 1860, 1794, 1793, 1840
14473, 1766, 1716, 1747, 1801
14474, 5753, 1715, 1684, 1690
14475, 5944, 5917, 5950, 1746
14476, 1718, 1719, 1744, 5917
14477, 1776, 1742, 1764, 1842
14478, 1784, 1755, 1723, 1746
14479, 1723, 5894, 5944, 1746
14480, 1765, 1717, 1708, 1769
14481, 1748, 5924, 1814, 1772
14482, 1682, 5898, 1748, 1711
14483, 1693, 1749, 1778, 1724
14484, 5875, 1749, 1693, 5867
14485, 1753, 1722, 1724, 1778
14486, 1805, 1779, 1792, 1826
14487, 1673, 1751, 1767, 1729
14488, 1835, 1802, 1808, 1833
14489, 1771, 1778, 1749, 1743
14490, 1779, 1753, 1811, 1792
14491, 1782, 1726, 1780, 1813
14492, 1816, 1754, 1782, 1843
14493, 1757, 1728, 1785, 1820
14494, 1807, 1775, 1815, 1861
14495, 1700, 1756, 1731, 5742
14496, 1850, 1757, 1820, 1882
14497, 1760, 1732, 1789, 1822
14498, 1922, 1854, 1919, 1994
14499, 1889, 1823, 1920, 1958
14500, 1762, 5798, 3393, 1790
14501, 1796, 1739, 1768, 1830
14502, 1769, 5755, 1800, 1795
14503, 1764, 1742, 1736, 1809
14504, 1836, 1809, 1741, 1806
14505, 1770, 1740, 1793, 1794
14506, 1766, 1824, 1793, 1740
14507, 1798, 1781, 1767, 1807
14508, 1735, 1714, 1774, 1797
14509, 1744, 1719, 1770, 5916
14510, 1771, 1808, 1802, 1778
14511, 1794, 1827, 5916, 1770
14512, 1799, 5966, 1837, 1773
14513, 1786, 1731, 1756, 1817
14514, 1836, 1806, 1832, 1857
14515, 1834, 1805, 1826, 1863
14516, 1843, 1782, 1813, 1872
14517, 1845, 1783, 1818, 1879
14518, 1783, 5924, 5911, 1721
14519, 1746, 5950, 1812, 1784
14520, 1848, 5885, 1819, 1878
14521, 1755, 1784, 1847, 1819
14522, 1881, 1849, 5938, 1954
14523, 1817, 1844, 5884, 1786
14524, 1759, 1730, 1787, 1821
14525, 1852, 1788, 1823, 1889
14526, 5652, 1887, 1921, 1886
14527, 1913, 1846, 1890, 1952
14528, 5628, 3141, 5760, 3415
14529, 1811, 1753, 1778, 1802
14530, 1863, 1826, 5909, 1858
14531, 1801, 1765, 1825, 1864
14532, 1799, 5916, 1827, 1865
14533, 1744, 5916, 1799, 1773
14534, 1768, 1735, 1797, 1830
14535, 1874, 1803, 1836, 1857
14536, 1870, 1804, 1838, 1902
14537, 5908, 1792, 1811, 1828
14538, 1829, 1866, 1841, 1800
14539, 1824, 1766, 1801, 1864
14540, 1808, 1752, 1781, 1833
14541, 5803, 1810, 1745, 5754
14542, 1842, 1764, 1803, 1874
14543, 1777, 1737, 1804, 1832
14544, 1838, 1772, 1814, 1875
14545, 1780, 1750, 1779, 1805
14546, 1803, 1764, 1809, 1836
14547, 1781, 1798, 1859, 1833
14548, 1810, 1839, 1774, 1745
14549, 1808, 1771, 1725, 1752
14550, 1813, 1834, 1868, 1872
14551, 1895, 1940, 1900, 1856
14552, 1909, 1843, 1872, 1939
14553, 1807, 1861, 1831, 1798
14554, 1821, 1787, 1851, 1885
14555, 1787, 1754, 1816, 1851
14556, 1844, 1817, 1852, 1914
14557, 1846, 1758, 1734, 1890
14558, 1784, 1812, 1876, 1847
14559, 1878, 1819, 1847, 1911
14560, 1882, 1820, 1881, 1912
14561, 1822, 1789, 1853, 5785
14562, 5770, 1991, 1919, 1886
14563, 1854, 5652, 1886, 1919
14564, 1761, 1791, 5760, 1855
14565, 1840, 1862, 1932, 1906
14566, 1840, 1793, 1824, 1862
14567, 1795, 1800, 1841, 1869
14568, 1840, 1906, 5949, 1860
14569, 1835, 1828, 1811, 1802
14570, 1891, 1835, 1833, 1859
14571, 1796, 1830, 1895, 1856
14572, 1829, 1796, 1856, 1866
14573, 1892, 1905, 1873, 1874
14574, 360, 1859, 1798, 1831
14575, 5848, 1873, 1810, 5803
14576, 1834, 1813, 1780, 1805
14577, 1901, 1837, 5966, 5986
14578, 1773, 1837, 1812, 5950
14579, 1875, 1814, 1845, 1910
14580, 1839, 1867, 1797, 1774
14581, 1824, 1864, 1898, 1862
14582, 1869, 1893, 1825, 1795
14583, 5965, 5952, 1894, 1931
14584, 1842, 5848, 5803, 1776
14585, 1924, 1925, 1896, 5914
14586, 1877, 1903, 1815, 5900
14587, 5925, 1939, 1872, 1868
14588, 5884, 1844, 5913, 5900
14589, 1937, 1927, 1899, 1870
14590, 1845, 1814, 5924, 1783
14591, 1876, 1812, 1837, 1901
14592, 1878, 1908, 1871, 1848
14593, 1849, 1848, 1871, 5938
14594, 1820, 1785, 1849, 1881
14595, 1917, 1850, 1882, 1953
14596, 3148, 1883, 1918, 5899
14597, 1853, 1821, 1885, 5825
14598, 1914, 1852, 1889, 5882
14599, 5786, 1956, 1921, 1887
14600, 3126, 1993, 3407, 337
14601, 5652, 1760, 1822, 1887
14602, 3141, 3140, 1855, 5760
14603, 1920, 1855, 3140, 383
14604, 1830, 1797, 1867, 1895
14605, 1892, 1874, 1857, 1899
14606, 1891, 1859, 360, 1924
14607, 1827, 1794, 1860, 5952
14608, 1831, 1861, 1928, 1925
14609, 1864, 1825, 1893, 1898
14610, 5888, 1926, 5915, 1972
14611, 5914, 1896, 1863, 1858
14612, 1868, 1834, 1863, 1896
14613, 1858, 1835, 1891, 5914
14614, 5952, 1860, 5949, 1894
14615, 5965, 1931, 5988, 5986
14616, 1866, 1856, 1900, 1938
14617, 5854, 1839, 1810, 1873
14618, 1902, 1838, 1875, 1945
14619, 1903, 1928, 1861, 1815
14620, 1866, 1938, 1897, 1841
14621, 1869, 1841, 1897, 1930
14622, 1832, 1870, 1899, 1857
14623, 1929, 1896, 1925, 1928
14624, 1874, 1873, 5848, 1842
14625, 1910, 1845, 1879, 1947
14626, 1986, 1955, 1915, 1950
14627, 1911, 1847, 1876, 1944
14628, 1911, 1935, 1908, 1878
14629, 1818, 1884, 1907, 1879
14630, 1945, 1875, 1910, 1977
14631, 1915, 1885, 1851, 1880
14632, 1909, 1880, 1816, 1843
14633, 1949, 1844, 1914, 1985
14634, 1589, 1699, 1883, 3148
14635, 1907, 1884, 1951, 1942
14636, 5786, 5785, 1916, 5826
14637, 1993, 1922, 1994, 338
14638, 5825, 1916, 5785, 1853
14639, 1705, 5538, 1888, 3126
14640, 1704, 5601, 1888, 5538
14641, 5882, 1957, 1987, 1914
14642, 1884, 1846, 1913, 1951
14643, 1873, 1905, 1943, 5854
14644, 1906, 1932, 1963, 1941
14645, 1867, 1904, 1934, 1895
14646, 1896, 1929, 5925, 1868
14647, 1898, 1893, 1926, 5888
14648, 1930, 1926, 1893, 1869
14649, 1862, 1898, 5888, 1932
14650, 1902, 1969, 1937, 1870
14651, 2009, 1947, 1933, 1964
14652, 1901, 5986, 5988, 1968
14653, 1867, 1839, 5854, 1904
14654, 1927, 1905, 1892, 1899
14655, 1909, 1939, 1978, 1950
14656, 1949, 1973, 5913, 1844
14657, 1933, 1907, 1942, 5967
14658, 1970, 1908, 1935, 1995
14659, 5925, 1959, 1966, 1939
14660, 1933, 1947, 1879, 1907
14661, 1938, 1900, 1960, 2001
14662, 1944, 1876, 1901, 1968
14663, 1911, 1944, 1976, 1935
14664, 1912, 2091, 1953, 1882
14665, 1936, 1948, 5938, 1871
14666, 5938, 1948, 1982, 1954
14667, 1983, 1913, 1952, 2017
14668, 1880, 1909, 1950, 1915
14669, 1916, 5825, 1955, 2018
14670, 1915, 1955, 5825, 1885
14671, 1956, 1988, 2049, 2020
14672, 5899, 1918, 1917, 389
14673, 1958, 1920, 383, 2131
14674, 1989, 2022, 1991, 5770
14675, 2024, 1994, 1919, 1991
14676, 2023, 321, 3158, 3119
14677, 2023, 1990, 1923, 321
14678, 360, 1831, 1925, 1924
14679, 2001, 1960, 2027, 2044
14680, 1997, 1941, 1963, 2038
14681, 1979, 1927, 1937, 2003
14682, 1962, 1943, 1905, 1927
14683, 1877, 1966, 1959, 1903
14684, 5925, 1929, 1928, 1959
14685, 1960, 1900, 1940, 1998
14686, 1941, 5963, 5949, 1906
14687, 5988, 5964, 1999, 1968
14688, 1926, 1930, 1961, 5915
14689, 1967, 1961, 1930, 1897
14690, 5913, 1946, 1877, 5900
14691, 1940, 1895, 1934, 1974
14692, 1971, 1943, 1962, 2004
14693, 1908, 1970, 1936, 1871
14694, 1996, 1962, 1927, 1979
14695, 1977, 1910, 1947, 2009
14696, 5946, 2007, 5915, 1961
14697, 5964, 5963, 1965, 1999
14698, 1980, 1964, 1933, 5967
14699, 1904, 5854, 1943, 1971
14700, 1944, 1968, 2008, 1976
14701, 1969, 1902, 1945, 2011
14702, 1973, 2006, 1946, 5913
14703, 2028, 2079, 5919, 2004
14704, 367, 2041, 1975, 5983
14705, 2006, 1973, 2086, 2037
14706, 1946, 2006, 2014, 1966
14707, 344, 1942, 1951, 1981
14708, 1952, 1923, 1990, 2017
14709, 2012, 2053, 1982, 1948
14710, 1912, 1881, 1954, 1984
14711, 5826, 1988, 1956, 5786
14712, 1956, 2020, 1989, 1921
14713, 3336, 5899, 389, 3421
14714, 3336, 3545, 3584, 3404
14715, 1958, 5883, 5882, 1889
14716, 1985, 1914, 1987, 5940
14717, 2021, 2131, 2094, 5910
14718, 2050, 1992, 2056, 5942
14719, 2040, 2002, 2007, 2069
14720, 1932, 5888, 1972, 1963
14721, 2003, 1937, 1969, 2029
14722, 2002, 2040, 2060, 2038
14723, 2031, 1965, 1997, 2070
14724, 1931, 1894, 5964, 5988
14725, 1897, 1938, 2001, 1967
14726, 5993, 2066, 2036, 1999
14727, 2011, 1945, 1977, 2043
14728, 1995, 1935, 1976, 5982
14729, 2034, 1970, 1995, 5989
14730, 1971, 2000, 1934, 1904
14731, 2047, 2087, 2114, 2083
14732, 2043, 1977, 2009, 2076
14733, 1998, 1940, 1974, 2033
14734, 1975, 1948, 1936, 5983
14735, 1968, 1999, 2036, 2008
14736, 2105, 2079, 2028, 5971
14737, 1939, 1966, 2014, 1978
14738, 2153, 2076, 2112, 2188
14739, 2032, 1980, 344, 5939
14740, 2025, 2084, 2090, 5956
14741, 2015, 1983, 2017, 2046
14742, 1978, 2014, 2078, 2016
14743, 2018, 2047, 2083, 5870
14744, 2019, 1957, 1992, 2050
14745, 2042, 1987, 1957, 2019
14746, 2018, 5870, 5826, 1916
14747, 2020, 2049, 2089, 2055
14748, 2024, 1991, 2057, 2097
14749, 2098, 5951, 2051, 2059
14750, 2015, 2054, 1981, 1983
14751, 2021, 2056, 1992, 5883
14752, 3162, 338, 3426, 3586
14753, 2058, 338, 1994, 2024
14754, 1970, 2034, 5983, 1936
14755, 2000, 1971, 2004, 5919
14756, 2004, 1962, 1996, 2028
14757, 1997, 1965, 5963, 1941
14758, 1972, 5915, 2007, 2002
14759, 1967, 2001, 2044, 2005
14760, 2108, 2036, 2066, 2143
14761, 2016, 2078, 2048, 2087
14762, 2013, 1949, 1985, 5940
14763, 1974, 1934, 2000, 2030
14764, 2027, 1960, 1998, 2065
14765, 1961, 1967, 2005, 5946
14766, 5973, 2193, 5995, 2148
14767, 1979, 2026, 2028, 1996
14768, 2003, 2029, 2117, 2026
14769, 2071, 2005, 2044, 2103
14770, 5982, 1976, 2008, 2073
14771, 2010, 1964, 1980, 2032
14772, 5939, 344, 1981, 2054
14773, 2029, 1969, 2011, 2074
14774, 2012, 1975, 2041, 2075
14775, 2072, 2115, 2041, 367
14776, 2085, 2080, 2010, 2032
14777, 1973, 1949, 2013, 2086
14778, 5940, 5941, 2063, 2013
14779, 2037, 2078, 2014, 2006
14780, 2051, 2017, 1990, 2059
14781, 2054, 2015, 2046, 2093
14782, 2016, 1986, 1950, 1978
14783, 2046, 2017, 2051, 2088
14784, 1955, 1986, 2047, 2018
14785, 2082, 2019, 2050, 2122
14786, 2049, 1988, 2045, 2081
14787, 2049, 2081, 2123, 2089
14788, 2126, 5943, 5942, 2056
14789, 1989, 2020, 2055, 2022
14790, 2092, 2128, 2168, 2132
14791, 2057, 1991, 2022, 2096
14792, 2169, 2090, 2124, 2210
14793, 2117, 2029, 2074, 2139
14794, 2033, 1974, 2030, 2067
14795, 2102, 5982, 2073, 2111
14796, 2061, 2101, 2064, 2035
14797, 2202, 2198, 5972, 2138
14798, 2034, 5989, 2061, 2035
14799, 5983, 2034, 2035, 367
14800, 2076, 2009, 1964, 2010
14801, 2013, 2063, 2068, 2086
14802, 2038, 2060, 2070, 1997
14803, 2039, 2069, 2007, 5946
14804, 1995, 5982, 2102, 5989
14805, 2073, 2008, 2036, 2108
14806, 2104, 2040, 2069, 2147
14807, 2100, 2147, 2069, 2039
14808, 2064, 2072, 367, 2035
14809, 2053, 5997, 5998, 2084
14810, 5940, 1987, 2042, 5941
14811, 2074, 2011, 2043, 2118
14812, 5870, 2045, 1988, 5826
14813, 2093, 2046, 2088, 2130
14814, 1986, 2016, 2087, 2047
14815, 2159, 2107, 2157, 2150
14816, 2150, 2157, 2110, 2186
14817, 2063, 5941, 2077, 2110
14818, 2152, 2196, 2197, 2158
14819, 2163, 2223, 2122, 2095
14820, 2122, 2050, 5942, 2095
14821, 2059, 1990, 2023, 2135
14822, 2129, 2133, 2052, 5956
14823, 2052, 1984, 2025, 5956
14824, 2025, 1982, 2053, 2084
14825, 2179, 2146, 2144, 2227
14826, 2055, 2089, 2128, 2092
14827, 5910, 2126, 2056, 2021
14828, 2092, 2096, 2022, 2055
14829, 2058, 2024, 2097, 2137
14830, 2137, 3149, 3388, 2058
14831, 2135, 2023, 3119, 5928
14832, 2144, 2146, 2070, 2060
14833, 2079, 2155, 5920, 5919
14834, 2062, 2103, 2044, 2027
14835, 2107, 2087, 2048, 2109
14836, 2037, 2109, 2048, 2078
14837, 2072, 2064, 2113, 2142
14838, 2065, 1998, 2033, 5945
14839, 2067, 2099, 5945, 2033
14840, 2106, 2031, 2070, 2146
14841, 2138, 5972, 2105, 5971
14842, 2068, 2109, 2037, 2086
14843, 2100, 2039, 2071, 2148
14844, 2148, 2071, 2103, 5973
14845, 2060, 2040, 2104, 2144
14846, 2149, 2177, 2101, 2061
14847, 2005, 2071, 2039, 5946
14848, 2139, 2138, 5971, 2117
14849, 2127, 2199, 2238, 2187
14850, 2143, 2066, 2106, 2184
14851, 2118, 2043, 2076, 2153
14852, 2053, 2012, 2075, 5997
14853, 2112, 2076, 2010, 2080
14854, 5972, 2198, 2178, 2155
14855, 2082, 2116, 2042, 2019
14856, 2110, 2077, 2145, 2186
14857, 2085, 2120, 2154, 2121
14858, 2083, 2119, 2045, 5870
14859, 5974, 2116, 2082, 2219
14860, 2114, 2087, 2107, 2159
14861, 2124, 2090, 2084, 2162
14862, 2164, 2120, 5939, 2054
14863, 2054, 2093, 2125, 2164
14864, 5951, 2166, 2088, 2051
14865, 2089, 2123, 2165, 2128
14866, 2129, 2169, 2212, 2167
14867, 5956, 2090, 2169, 2129
14868, 2204, 2125, 2161, 2245
14869, 2171, 2126, 5910, 2094
14870, 2123, 2158, 2205, 2165
14871, 2211, 2257, 2173, 2132
14872, 2136, 2174, 2097, 2057
14873, 2172, 2098, 2135, 5928
14874, 2154, 2120, 2164, 2189
14875, 2102, 2149, 2061, 5989
14876, 2062, 2156, 5973, 2103
14877, 2140, 2113, 2064, 2101
14878, 2155, 2079, 2105, 5972
14879, 2146, 2179, 2221, 6043
14880, 2031, 2106, 2066, 5993
14881, 2160, 2114, 2159, 2185
14882, 2183, 2220, 2270, 2300
14883, 2160, 2185, 2224, 2196
14884, 2149, 2102, 2111, 2180
14885, 2073, 2108, 2141, 2111
14886, 2080, 2085, 2121, 2151
14887, 2063, 2110, 2157, 2068
14888, 2180, 2237, 2177, 2149
14889, 2185, 2159, 2150, 2186
14890, 2115, 6062, 2075, 2041
14891, 2042, 2116, 2077, 5941
14892, 2139, 2074, 2118, 2191
14893, 2176, 5996, 2228, 6021
14894, 2081, 2045, 2119, 2152
14895, 2119, 2083, 2114, 2160
14896, 2283, 2195, 2247, 2290
14897, 2120, 2085, 2032, 5939
14898, 2104, 2147, 5996, 2176
14899, 2201, 2236, 2163, 2095
14900, 2081, 2152, 2158, 2123
14901, 5998, 5997, 2127, 2187
14902, 2093, 2130, 2161, 2125
14903, 2175, 2094, 2131, 2215
14904, 5943, 2201, 2095, 5942
14905, 2072, 2142, 6062, 2115
14906, 2199, 2127, 6062, 2142
14907, 2129, 2167, 2213, 2133
14908, 2206, 5987, 5976, 6017
14909, 2171, 2094, 2175, 2217
14910, 2209, 2251, 2293, 2254
14911, 2216, 2258, 2174, 2136
14912, 2091, 2052, 2133, 3139
14913, 2134, 5975, 5951, 2098
14914, 2137, 2097, 2174, 2298
14915, 3149, 2137, 2298, 339
14916, 2178, 2067, 5920, 2155
14917, 2151, 2188, 2112, 2080
14918, 2232, 2190, 2178, 2198
14919, 2108, 2143, 2183, 2141
14920, 2113, 2140, 2182, 2142
14921, 2227, 2144, 2104, 2176
14922, 2145, 2077, 2116, 5974
14923, 2177, 2229, 2140, 2101
14924, 2106, 2146, 6043, 2184
14925, 2181, 2100, 2148, 5995
14926, 2147, 2100, 2181, 5996
14927, 2111, 2141, 6030, 2180
14928, 2247, 2154, 2189, 2242
14929, 2122, 2223, 2219, 2082
14930, 2191, 2118, 2153, 2231
14931, 2222, 5974, 2219, 2261
14932, 2178, 2190, 2099, 2067
14933, 2231, 2153, 2188, 2272
14934, 2157, 2107, 2109, 2068
14935, 2262, 2261, 2219, 2223
14936, 2152, 2119, 2160, 2196
14937, 2075, 6062, 2127, 5997
14938, 2161, 2206, 5991, 2245
14939, 2323, 6034, 2365, 6064
14940, 6022, 2192, 2124, 2162
14941, 2170, 5943, 2126, 2207
14942, 2250, 2165, 2205, 5930
14943, 2189, 2164, 2125, 2204
14944, 2158, 2197, 2239, 2205
14945, 2130, 2088, 2166, 5987
14946, 2167, 2212, 2294, 2532
14947, 2213, 2167, 2532, 388
14948, 2128, 2165, 2208, 2168
14949, 2168, 2208, 2251, 2209
14950, 2210, 2124, 2192, 2249
14951, 2169, 2210, 2253, 2212
14952, 2207, 2126, 2171, 2255
14953, 2252, 2170, 2207, 2286
14954, 2255, 2171, 2217, 2297
14955, 2209, 2211, 2132, 2168
14956, 2254, 2296, 2211, 2209
14957, 2136, 2173, 2257, 2216
14958, 2217, 2175, 384, 2338
14959, 2242, 2189, 2204, 2281
14960, 6030, 2141, 2183, 2300
14961, 2139, 2191, 2202, 2138
14962, 2190, 2225, 2156, 2099
14963, 2181, 5995, 2226, 6020
14964, 2143, 2184, 2220, 2183
14965, 2187, 2238, 2240, 6022
14966, 2162, 5998, 2187, 6022
14967, 2186, 2145, 5992, 2260
14968, 5992, 2145, 5974, 2222
14969, 2151, 2121, 2195, 2233
14970, 2195, 2121, 2154, 2247
14971, 2161, 2130, 5987, 2206
14972, 2223, 2163, 2200, 2262
14973, 2191, 2231, 2246, 2202
14974, 2282, 2192, 6022, 2240
14975, 2284, 2241, 6015, 6016
14976, 6017, 2230, 5991, 2206
14977, 2273, 2193, 2225, 2308
14978, 2196, 2224, 2235, 2197
14979, 2261, 2262, 2306, 2265
14980, 2142, 2182, 2243, 2199
14981, 2238, 2199, 2243, 2312
14982, 2276, 2201, 2234, 2302
14983, 2406, 2369, 2447, 5978
14984, 2241, 2232, 2198, 2202
14985, 2232, 2268, 2225, 2190
14986, 2194, 5975, 2134, 2203
14987, 6013, 6012, 343, 2244
14988, 6021, 2310, 2227, 2176
14989, 2405, 2279, 2353, 5953
14990, 2230, 6013, 2244, 2287
14991, 2245, 5991, 2295, 6000
14992, 2234, 2170, 2252, 2285
14993, 2296, 2339, 2257, 2211
14994, 2294, 2212, 2253, 6003
14995, 3150, 2213, 388, 3152
14996, 2214, 343, 6012, 2203
14997, 384, 2460, 2420, 2380
14998, 2175, 2215, 2460, 384
14999, 2299, 2216, 2257, 2339
15000, 2297, 2217, 2338, 2374
15001, 2533, 2494, 2415, 2377
15002, 2260, 2224, 2185, 2186
15003, 2221, 2267, 2184, 6043
15004, 2264, 2357, 2310, 6021
15005, 2264, 6021, 2228, 2277
15006, 2229, 2274, 2182, 2140
15007, 2224, 2260, 2263, 2235
15008, 2220, 2184, 2267, 2303
15009, 2188, 2151, 2233, 2272
15010, 2225, 2193, 5973, 2156
15011, 2281, 2204, 2245, 6000
15012, 2277, 2228, 6020, 2313
15013, 2271, 2179, 2227, 2310
15014, 2229, 2177, 2237, 2266
15015, 6013, 2230, 6017, 2194
15016, 2290, 2247, 2242, 2323
15017, 2280, 2246, 2231, 2272
15018, 2170, 2234, 2201, 5943
15019, 2359, 2395, 2349, 2285
15020, 2276, 2314, 2236, 2201
15021, 2180, 6030, 2269, 2237
15022, 2278, 2240, 2238, 2312
15023, 2197, 2235, 2275, 2239
15024, 2301, 2282, 2240, 2278
15025, 2241, 2202, 2246, 6015
15026, 2268, 2232, 2241, 2284
15027, 2274, 2229, 2266, 2319
15028, 2292, 343, 2248, 2333
15029, 6058, 6059, 6037, 2280
15030, 2248, 343, 2214, 2288
15031, 2291, 2253, 2210, 2249
15032, 2358, 2302, 2349, 2399
15033, 2208, 2165, 2250, 2289
15034, 2318, 2252, 2286, 2368
15035, 2253, 2291, 2334, 6003
15036, 2367, 2407, 2331, 2293
15037, 2255, 2297, 2336, 2286
15038, 2256, 2377, 2337, 2288
15039, 2288, 2337, 2327, 2248
15040, 2340, 2258, 2341, 2381
15041, 339, 2298, 2340, 2416
15042, 2258, 2340, 2298, 2174
15043, 3138, 3146, 3578, 406
15044, 2265, 361, 2222, 2261
15045, 361, 2265, 2311, 2263
15046, 2279, 2200, 2236, 2314
15047, 2200, 2279, 2405, 2262
15048, 2226, 2273, 6047, 2313
15049, 2266, 2237, 2269, 6063
15050, 2269, 6030, 2300, 2316
15051, 2221, 2179, 2271, 2304
15052, 2308, 2225, 2268, 2317
15053, 2270, 2220, 2303, 2396
15054, 2320, 2264, 2277, 2350
15055, 2300, 2270, 2343, 2316
15056, 2315, 2309, 2272, 2233
15057, 2193, 2273, 2226, 5995
15058, 6035, 6016, 2326, 2362
15059, 2274, 2307, 2243, 2182
15060, 2235, 2263, 2311, 2275
15061, 2302, 2234, 2285, 2349
15062, 2283, 2315, 2233, 2195
15063, 2345, 2278, 2312, 2398
15064, 2312, 2243, 2307, 2398
15065, 2302, 2358, 2314, 2276
15066, 2306, 2321, 2275, 2311
15067, 2280, 6037, 6015, 2246
15068, 2396, 2423, 2343, 2270
15069, 2249, 2192, 2282, 6050
15070, 2323, 2242, 2281, 6034
15071, 2317, 2268, 2284, 6035
15072, 5931, 5930, 2205, 2239
15073, 2239, 2275, 2321, 5931
15074, 2293, 2251, 2330, 2367
15075, 2403, 2328, 2354, 2439
15076, 2208, 2289, 2330, 2251
15077, 2329, 2250, 5930, 2361
15078, 2356, 2290, 2323, 6064
15079, 2355, 2352, 2387, 2402
15080, 6050, 2325, 2291, 2249
15081, 2333, 2248, 2327, 6018
15082, 2360, 2412, 2324, 2292
15083, 2532, 2294, 2413, 2492
15084, 2332, 6000, 2295, 2363
15085, 2328, 2295, 5991, 2230
15086, 2331, 2335, 2254, 2293
15087, 2335, 2376, 2296, 2254
15088, 2380, 5929, 2338, 384
15089, 2341, 2299, 2378, 2419
15090, 2258, 2216, 2299, 2341
15091, 2385, 2301, 2278, 2345
15092, 2282, 2301, 2305, 6050
15093, 2399, 2349, 2395, 2432
15094, 2267, 2221, 2304, 2342
15095, 2344, 2271, 2310, 2357
15096, 2274, 2319, 2348, 2307
15097, 2305, 2347, 2394, 2351
15098, 2266, 6063, 2346, 2319
15099, 2316, 2346, 6063, 2269
15100, 6073, 6047, 2308, 2317
15101, 2315, 2364, 2352, 2309
15102, 2280, 2272, 2309, 6058
15103, 2350, 2277, 2313, 2393
15104, 2389, 2434, 2484, 2523
15105, 2353, 2391, 2361, 5953
15106, 2322, 2283, 2290, 2356
15107, 2283, 2322, 2364, 2315
15108, 2342, 2440, 2303, 2267
15109, 2285, 2252, 2318, 2359
15110, 2436, 2397, 2408, 2472
15111, 2319, 2346, 2383, 2348
15112, 2357, 2264, 2320, 2425
15113, 2353, 2279, 2314, 2358
15114, 2281, 6000, 2332, 6034
15115, 2363, 2295, 2328, 2403
15116, 6066, 6065, 2487, 6074
15117, 2371, 2334, 2291, 2325
15118, 2352, 2355, 6058, 2309
15119, 2327, 2337, 2379, 2366
15120, 2422, 2345, 2398, 2428
15121, 2289, 2250, 2329, 2369
15122, 2335, 2331, 2370, 5960
15123, 2365, 6034, 2332, 6053
15124, 2366, 2379, 2417, 2448
15125, 2292, 2333, 6044, 2360
15126, 2455, 6023, 2409, 2486
15127, 2376, 2335, 5960, 5961
15128, 2373, 2368, 2286, 2336
15129, 2256, 2218, 3133, 2377
15130, 2414, 2498, 2527, 6004
15131, 2457, 2378, 2418, 2495
15132, 2340, 2381, 2421, 2416
15133, 2378, 2299, 2339, 2418
15134, 6035, 2362, 6073, 2317
15135, 2342, 2304, 2384, 2440
15136, 2304, 2271, 2344, 2384
15137, 2382, 2346, 2316, 2343
15138, 2389, 2320, 2350, 2434
15139, 2424, 2347, 2385, 6100
15140, 2466, 2394, 2464, 2500
15141, 2347, 2305, 2301, 2385
15142, 2346, 2382, 2429, 2383
15143, 2388, 2387, 2352, 2364
15144, 2404, 2371, 2325, 2351
15145, 2351, 2325, 6050, 2305
15146, 2356, 6064, 2397, 2322
15147, 2404, 2351, 2433, 2469
15148, 6059, 2362, 2326, 6037
15149, 6059, 6058, 2355, 6071
15150, 2363, 6052, 6053, 2332
15151, 2431, 2434, 2444, 2402
15152, 2361, 2391, 2400, 2329
15153, 6011, 2386, 2435, 2392
15154, 2395, 2359, 2392, 2427
15155, 2333, 6018, 2411, 6044
15156, 2360, 6044, 2443, 6065
15157, 2361, 5930, 5931, 5953
15158, 6047, 6073, 2393, 2313
15159, 2480, 6121, 2473, 6116
15160, 2388, 2364, 2322, 2397
15161, 6103, 2476, 6119, 2428
15162, 6018, 2327, 2366, 2411
15163, 2369, 2406, 2330, 2289
15164, 2370, 2331, 2407, 2446
15165, 2318, 6011, 2392, 2359
15166, 2391, 2353, 2358, 2400
15167, 2517, 2446, 2407, 2477
15168, 2438, 2409, 2371, 2404
15169, 2455, 2451, 2372, 6023
15170, 2531, 2451, 2493, 2574
15171, 2336, 2375, 2410, 2373
15172, 2430, 2373, 2410, 2479
15173, 6004, 2410, 2375, 2414
15174, 2339, 2296, 2376, 2418
15175, 2377, 3133, 2666, 2533
15176, 2419, 2458, 2381, 2341
15177, 2415, 2379, 2337, 2377
15178, 2454, 2417, 2379, 2415
15179, 2390, 2437, 2384, 2344
15180, 2384, 2437, 6072, 2440
15181, 2426, 2398, 2307, 2348
15182, 2390, 2344, 2357, 2425
15183, 2345, 2422, 6100, 2385
15184, 2386, 2368, 2373, 2430
15185, 2397, 2436, 2449, 2388
15186, 2408, 2397, 6064, 2365
15187, 2509, 6119, 2476, 2501
15188, 2320, 2389, 6082, 2425
15189, 2434, 2350, 2393, 2444
15190, 2390, 2425, 2510, 2467
15191, 2400, 2358, 2399, 2447
15192, 2503, 2435, 2502, 2541
15193, 6071, 2444, 2362, 6059
15194, 2363, 2403, 2441, 6052
15195, 2365, 6053, 2442, 2408
15196, 2426, 2348, 2383, 6095
15197, 6095, 2462, 2476, 6103
15198, 2329, 2400, 2447, 2369
15199, 2402, 2444, 6071, 2355
15200, 2431, 2402, 2387, 2471
15201, 2354, 2324, 2412, 2439
15202, 2478, 2403, 2439, 2520
15203, 2433, 2351, 2394, 2466
15204, 2405, 2321, 2306, 2262
15205, 2330, 2406, 2445, 2367
15206, 2432, 5978, 2447, 2399
15207, 2445, 2477, 2407, 2367
15208, 2551, 2472, 2516, 2593
15209, 2334, 2371, 2409, 6023
15210, 366, 2486, 2409, 2438
15211, 2452, 2479, 2410, 6004
15212, 2636, 2676, 2704, 6111
15213, 2413, 2451, 2531, 2492
15214, 2450, 2370, 2446, 2483
15215, 5961, 5960, 5980, 2491
15216, 2374, 2338, 5929, 2453
15217, 5980, 2526, 2572, 2491
15218, 2454, 2415, 2494, 2530
15219, 2416, 5832, 3406, 3118
15220, 2448, 2417, 2489, 2525
15221, 2448, 2485, 2411, 2366
15222, 2419, 2378, 2457, 5934
15223, 2536, 2580, 2496, 5934
15224, 2381, 2458, 2459, 2421
15225, 2499, 2421, 2459, 2537
15226, 2423, 2463, 2382, 2343
15227, 2633, 2588, 2675, 2670
15228, 2394, 2347, 2424, 2464
15229, 2429, 2462, 6095, 2383
15230, 2470, 2502, 2435, 2386
15231, 2462, 2518, 2501, 2476
15232, 2463, 2462, 2429, 2382
15233, 2387, 2388, 2449, 2471
15234, 2515, 2436, 2472, 2551
15235, 2427, 2468, 2432, 2395
15236, 2438, 2404, 2469, 2475
15237, 2473, 2511, 2464, 2424
15238, 2470, 2386, 2430, 2504
15239, 2607, 2643, 2687, 2639
15240, 2463, 2423, 2465, 6081
15241, 2514, 2511, 2473, 6121
15242, 2440, 6072, 2396, 2303
15243, 2481, 2401, 6052, 2441
15244, 2422, 2428, 6119, 2480
15245, 2472, 2408, 2442, 2516
15246, 2507, 2542, 2475, 2469
15247, 2444, 2393, 6073, 2362
15248, 2484, 2434, 2431, 2512
15249, 2432, 2468, 2482, 5978
15250, 2488, 2524, 6041, 2452
15251, 2417, 2454, 2490, 2489
15252, 2450, 5980, 5960, 2370
15253, 2575, 2492, 2578, 2624
15254, 2461, 2577, 5929, 2380
15255, 2564, 2498, 2576, 2613
15256, 2505, 2563, 2486, 366
15257, 2456, 2418, 2376, 5961
15258, 2581, 2497, 2538, 2621
15259, 3124, 2420, 3138, 3403
15260, 3473, 2665, 2461, 3124
15261, 2620, 2617, 2535, 2577
15262, 2427, 2392, 2435, 2503
15263, 6072, 2465, 2423, 2396
15264, 2465, 6072, 2437, 2513
15265, 2424, 6100, 6116, 2473
15266, 2437, 2390, 2467, 2513
15267, 2516, 2481, 2562, 2593
15268, 362, 2541, 2502, 2470
15269, 2505, 366, 2506, 2553
15270, 2543, 2508, 2544, 2628
15271, 6082, 2389, 2523, 2552
15272, 2556, 2471, 2449, 2474
15273, 2507, 2469, 2433, 2508
15274, 2430, 2479, 6042, 2504
15275, 2474, 2449, 2436, 2515
15276, 2478, 2521, 2441, 2403
15277, 2522, 2443, 2485, 2565
15278, 366, 2438, 2475, 2506
15279, 2518, 2462, 2463, 6081
15280, 2512, 2548, 2523, 2484
15281, 2539, 2519, 2482, 2468
15282, 2483, 2446, 2517, 2558
15283, 2520, 6066, 6074, 6077
15284, 2557, 2566, 2488, 2527
15285, 2501, 2546, 2561, 2509
15286, 2481, 2516, 2442, 2401
15287, 2482, 2445, 2406, 5978
15288, 2512, 2431, 2471, 2556
15289, 2485, 2443, 6044, 2411
15290, 2486, 2563, 2529, 2455
15291, 6066, 2520, 2439, 2412
15292, 2498, 2414, 2453, 2535
15293, 2641, 2594, 2625, 2583
15294, 2525, 2565, 2485, 2448
15295, 2528, 2490, 2569, 2610
15296, 2530, 2569, 2490, 2454
15297, 2456, 2534, 5969, 2495
15298, 2456, 5961, 2491, 2534
15299, 2578, 2492, 2531, 2616
15300, 2532, 2492, 2575, 388
15301, 2567, 2611, 2493, 2529
15302, 2493, 2451, 2455, 2529
15303, 2571, 2494, 2533, 2623
15304, 2530, 2494, 342, 5999
15305, 2457, 2495, 5969, 5957
15306, 2538, 2496, 2580, 2621
15307, 2582, 2537, 2497, 5933
15308, 5933, 2497, 2581, 2810
15309, 2564, 2557, 2527, 2498
15310, 2421, 2499, 5832, 2416
15311, 2598, 2645, 2562, 2521
15312, 2549, 2467, 2510, 2591
15313, 2632, 5994, 2519, 2539
15314, 2503, 2539, 2468, 2427
15315, 2470, 2504, 2540, 362
15316, 2563, 2505, 2599, 2601
15317, 2568, 2487, 2522, 2604
15318, 2543, 2584, 2507, 2508
15319, 2508, 2433, 2466, 2544
15320, 2544, 2466, 2500, 2585
15321, 2547, 6121, 2509, 2561
15322, 6119, 2509, 6121, 2480
15323, 2512, 2556, 6109, 2548
15324, 2547, 2587, 2514, 6121
15325, 2500, 2464, 2511, 2545
15326, 2474, 2515, 6107, 2550
15327, 2518, 6081, 2560, 6096
15328, 2561, 2546, 2595, 2590
15329, 2515, 2551, 2609, 6107
15330, 2478, 2520, 6077, 2559
15331, 2630, 2590, 2595, 2678
15332, 6096, 2560, 2597, 6118
15333, 2519, 2477, 2445, 2482
15334, 2522, 2487, 6065, 2443
15335, 2521, 2562, 2481, 2441
15336, 2723, 2753, 2685, 2651
15337, 2504, 2555, 2583, 2540
15338, 2555, 6041, 2524, 2634
15339, 2528, 2570, 2489, 2490
15340, 2542, 2507, 2584, 2640
15341, 2647, 2483, 2558, 2596
15342, 2647, 2606, 2526, 2483
15343, 2570, 2605, 2525, 2489
15344, 2573, 6010, 5999, 342
15345, 2623, 2533, 2666, 319
15346, 2536, 5957, 2579, 2622
15347, 2577, 2535, 2453, 5929
15348, 2535, 2617, 2576, 2498
15349, 5957, 5969, 5979, 2579
15350, 6002, 2701, 2622, 2579
15351, 340, 2499, 2537, 2582
15352, 2497, 2537, 2459, 2538
15353, 2539, 2503, 2541, 2632
15354, 2632, 2625, 2594, 5994
15355, 2506, 2475, 2542, 2586
15356, 2522, 2565, 2648, 2604
15357, 2628, 2544, 2585, 2627
15358, 2511, 2514, 2554, 2545
15359, 2546, 2501, 2518, 6096
15360, 2591, 2510, 6082, 2552
15361, 2550, 6109, 2556, 2474
15362, 2548, 2603, 2552, 2523
15363, 2560, 2513, 2589, 2597
15364, 2513, 2467, 2549, 2589
15365, 2551, 2593, 2653, 2609
15366, 2559, 2598, 2521, 2478
15367, 2600, 2642, 2559, 6077
15368, 2563, 2601, 2567, 2529
15369, 2547, 2561, 2590, 2587
15370, 2602, 2566, 2646, 2680
15371, 2566, 2602, 2524, 2488
15372, 2650, 2681, 2592, 2612
15373, 5994, 2517, 2477, 2519
15374, 2568, 6077, 6074, 2487
15375, 2465, 2513, 2560, 6081
15376, 2669, 2637, 2714, 2629
15377, 2587, 2590, 2630, 2635
15378, 2566, 2557, 2592, 2646
15379, 2450, 2483, 2526, 5980
15380, 2599, 2505, 2553, 6083
15381, 2612, 2592, 2557, 2564
15382, 2750, 2757, 2695, 2721
15383, 2574, 2493, 2611, 2638
15384, 2608, 2528, 2610, 2652
15385, 2570, 2528, 2608, 2651
15386, 2605, 2648, 2565, 2525
15387, 2770, 2654, 2807, 2839
15388, 342, 2494, 2571, 2619
15389, 2579, 5979, 2618, 6002
15390, 2491, 2572, 5990, 2534
15391, 2615, 6032, 2694, 6057
15392, 2624, 2578, 2667, 2739
15393, 2612, 2564, 2613, 2659
15394, 2665, 2620, 2577, 2461
15395, 2616, 2531, 2574, 2660
15396, 2616, 2700, 2667, 2578
15397, 6001, 5990, 2572, 2658
15398, 2580, 2536, 2622, 2662
15399, 2581, 5981, 2663, 2810
15400, 2663, 2771, 2844, 2810
15401, 3014, 2853, 3041, 2980
15402, 2625, 362, 2540, 2583
15403, 2596, 2641, 2634, 2680
15404, 2558, 2594, 2641, 2596
15405, 2632, 2541, 362, 2625
15406, 2545, 2633, 2585, 2500
15407, 2649, 2568, 2604, 2686
15408, 2588, 2633, 2545, 2554
15409, 2640, 6110, 2586, 2542
15410, 2553, 2506, 2586, 2676
15411, 2645, 2653, 2593, 2562
15412, 2554, 2514, 2587, 2635
15413, 2597, 2589, 2549, 2714
15414, 2591, 2629, 2714, 2549
15415, 2607, 2548, 6109, 2550
15416, 2650, 2695, 2757, 2767
15417, 2594, 2558, 2517, 5994
15418, 6118, 2595, 2546, 6096
15419, 2602, 2680, 2634, 2524
15420, 2603, 2629, 2591, 2552
15421, 2642, 2683, 2598, 2559
15422, 2626, 2601, 2599, 6094
15423, 2604, 2648, 2720, 2686
15424, 2567, 2644, 2631, 2611
15425, 2603, 2548, 2607, 2639
15426, 6124, 2706, 6110, 2640
15427, 2709, 2672, 6102, 6115
15428, 2572, 2526, 2606, 2658
15429, 2550, 6107, 2643, 2607
15430, 2651, 2685, 2605, 2570
15431, 2683, 2692, 2645, 2598
15432, 2675, 2710, 6127, 2708
15433, 2573, 2614, 2656, 6032
15434, 2652, 6051, 2693, 2725
15435, 2644, 2567, 2601, 2626
15436, 2638, 2611, 2631, 2682
15437, 2655, 2576, 2617, 2698
15438, 2650, 2612, 2659, 2695
15439, 2614, 2654, 2696, 2656
15440, 2727, 6075, 6057, 2694
15441, 2660, 2574, 2638, 2691
15442, 2576, 2655, 6006, 2613
15443, 2661, 2571, 2623, 2703
15444, 2662, 2697, 2621, 2580
15445, 6002, 2664, 6026, 2701
15446, 2701, 6026, 2769, 2748
15447, 2634, 2641, 2583, 2555
15448, 2631, 2644, 6102, 2672
15449, 2636, 6083, 2553, 2676
15450, 2627, 2585, 2633, 2670
15451, 2628, 2679, 2584, 2543
15452, 2668, 2630, 2678, 2713
15453, 2692, 2719, 2653, 2645
15454, 2682, 2631, 2672, 2716
15455, 6127, 2741, 2776, 2744
15456, 2683, 2642, 2717, 2726
15457, 2588, 2554, 2635, 2674
15458, 6083, 2671, 6094, 2599
15459, 2637, 2715, 6118, 2597
15460, 2691, 2638, 2682, 2724
15461, 2678, 2595, 6118, 2715
15462, 2639, 2669, 2629, 2603
15463, 2707, 2687, 2643, 2673
15464, 2740, 2627, 2670, 2791
15465, 2568, 2649, 2600, 6077
15466, 2673, 2609, 2653, 2719
15467, 2626, 2677, 6102, 2644
15468, 2763, 2798, 2789, 2732
15469, 2647, 2596, 2680, 2718
15470, 2684, 2600, 2649, 2722
15471, 2783, 6092, 2750, 6069
15472, 2688, 2608, 2652, 2725
15473, 6111, 2704, 2756, 6125
15474, 2688, 2723, 2651, 2608
15475, 2719, 2746, 2707, 2673
15476, 2656, 2696, 2768, 2729
15477, 2654, 2614, 2619, 2807
15478, 2690, 6006, 2733, 2787
15479, 2727, 2766, 2799, 2765
15480, 6032, 2656, 2729, 2694
15481, 6025, 6001, 2658, 2730
15482, 2689, 2606, 2647, 2718
15483, 2690, 2659, 2613, 6006
15484, 2721, 2695, 2659, 2690
15485, 2667, 2738, 2702, 2739
15486, 2623, 319, 5935, 2703
15487, 2807, 2661, 2847, 2839
15488, 5981, 2697, 6014, 2663
15489, 2844, 2771, 2842, 2882
15490, 2699, 2618, 6001, 6025
15491, 2664, 2732, 2736, 6026
15492, 385, 2620, 2665, 3142
15493, 2700, 2616, 2660, 2731
15494, 2674, 2635, 2630, 2668
15495, 2715, 2637, 2669, 2742
15496, 2684, 2717, 2642, 2600
15497, 2740, 2679, 2628, 2627
15498, 2671, 2712, 6108, 6094
15499, 2716, 2672, 2709, 2745
15500, 2609, 2673, 2643, 6107
15501, 2746, 2754, 2777, 2759
15502, 2713, 2678, 2715, 2742
15503, 2675, 2588, 2674, 2710
15504, 2640, 2584, 2679, 6124
15505, 2704, 6110, 2706, 2756
15506, 6129, 2756, 2706, 2711
15507, 6129, 2790, 6125, 2756
15508, 6061, 2646, 2592, 2681
15509, 6061, 2767, 2689, 2718
15510, 2724, 2682, 2716, 2751
15511, 2685, 2720, 2648, 2605
15512, 2871, 2826, 2896, 2820
15513, 2722, 2649, 2686, 2758
15514, 2760, 2792, 2723, 2688
15515, 2658, 2606, 2689, 2730
15516, 2762, 2721, 2690, 2787
15517, 6078, 6076, 2765, 6085
15518, 2688, 2725, 2795, 2760
15519, 2886, 2925, 2884, 2843
15520, 6092, 6060, 2757, 2750
15521, 2728, 2696, 2654, 2770
15522, 2729, 2768, 2803, 2766
15523, 2662, 2737, 2735, 2697
15524, 2693, 6078, 2761, 2725
15525, 2846, 2811, 2698, 385
15526, 2811, 2885, 2852, 5984
15527, 2618, 2699, 2664, 6002
15528, 2730, 2689, 2767, 2757
15529, 2660, 2691, 6039, 2731
15530, 2773, 2700, 2731, 2809
15531, 2804, 6049, 6028, 6027
15532, 2622, 2701, 2737, 2662
15533, 2739, 2702, 387, 3132
15534, 3401, 3128, 3142, 3546
15535, 3546, 3142, 2665, 3473
15536, 2890, 5935, 3135, 5905
15537, 2636, 2712, 2671, 6083
15538, 6110, 2704, 2676, 2586
15539, 2705, 2710, 2674, 2668
15540, 6126, 2705, 2668, 2713
15541, 2711, 2740, 2778, 6129
15542, 2708, 2791, 2670, 2675
15543, 2758, 2686, 2720, 2784
15544, 2746, 2713, 2742, 2707
15545, 2820, 2744, 2776, 2871
15546, 2712, 2743, 2677, 6108
15547, 2754, 2746, 2719, 2692
15548, 2792, 2828, 2753, 2723
15549, 2747, 6112, 6111, 6125
15550, 2742, 2669, 2687, 2707
15551, 2751, 2716, 2745, 2780
15552, 2684, 2722, 2793, 2749
15553, 2718, 2680, 2646, 6061
15554, 2726, 2754, 2692, 2683
15555, 363, 2817, 2783, 6069
15556, 6128, 2747, 2782, 2821
15557, 2781, 6122, 2743, 6128
15558, 2796, 6039, 2764, 2862
15559, 2823, 2788, 2751, 2780
15560, 2759, 2777, 2776, 2741
15561, 6076, 6075, 2727, 2765
15562, 2768, 2696, 2728, 2801
15563, 2694, 2729, 2766, 2727
15564, 6060, 6025, 2730, 2757
15565, 2691, 2724, 2764, 6039
15566, 2738, 2667, 2700, 2773
15567, 2732, 2664, 2699, 2763
15568, 5984, 2655, 2698, 2811
15569, 2663, 6014, 2734, 2771
15570, 2735, 2772, 6014, 2697
15571, 2748, 2794, 2804, 6027
15572, 2800, 2736, 2752, 2824
15573, 2769, 6026, 2736, 2800
15574, 2737, 2701, 2748, 6027
15575, 2850, 2813, 2775, 2812
15576, 2702, 2738, 2775, 387
15577, 2774, 2739, 3132, 2814
15578, 2679, 2740, 2711, 6124
15579, 2708, 6127, 2744, 2779
15580, 2710, 2705, 2741, 6127
15581, 6126, 2759, 2741, 2705
15582, 6115, 2743, 6122, 2709
15583, 2749, 2755, 2717, 2684
15584, 2786, 2749, 2793, 2837
15585, 6122, 2781, 2818, 2819
15586, 6112, 2747, 6128, 2743
15587, 2829, 2866, 2821, 2782
15588, 2753, 2784, 2720, 2685
15589, 2721, 2762, 6069, 2750
15590, 2788, 2764, 2724, 2751
15591, 2752, 2736, 2732, 2789
15592, 2824, 2878, 2834, 2800
15593, 2755, 2785, 2726, 2717
15594, 2863, 2896, 2826, 2786
15595, 2790, 6129, 2778, 2830
15596, 2793, 2722, 2758, 2831
15597, 2746, 2759, 6126, 2713
15598, 2795, 2725, 2761, 2833
15599, 2832, 2760, 2795, 2870
15600, 6085, 2797, 2761, 6078
15601, 2854, 2861, 2895, 2893
15602, 2763, 2699, 6025, 6060
15603, 2764, 2788, 2827, 2862
15604, 2849, 2803, 2768, 2801
15605, 2835, 2765, 2799, 2875
15606, 2808, 2728, 2770, 2891
15607, 2805, 2771, 2734, 6031
15608, 2801, 2728, 2808, 2843
15609, 2879, 2841, 2806, 6046
15610, 6014, 2772, 6036, 2734
15611, 2796, 2809, 2731, 6039
15612, 3152, 2774, 2814, 3422
15613, 388, 2575, 2774, 3152
15614, 2776, 2777, 2785, 2871
15615, 2709, 6122, 2819, 2745
15616, 2782, 2747, 6125, 2790
15617, 2785, 2777, 2754, 2726
15618, 2791, 2816, 2778, 2740
15619, 2755, 2749, 2786, 2826
15620, 2779, 2816, 2791, 2708
15621, 6128, 2821, 2818, 2781
15622, 2783, 2822, 2798, 6092
15623, 2876, 2831, 2865, 2906
15624, 2655, 5984, 2733, 6006
15625, 2836, 2762, 2787, 2825
15626, 2892, 2827, 2860, 2930
15627, 2778, 2816, 6132, 2830
15628, 2832, 2869, 2792, 2760
15629, 2831, 2758, 2784, 2865
15630, 2828, 2865, 2784, 2753
15631, 2804, 2845, 2883, 6049
15632, 2794, 2748, 2769, 2834
15633, 2833, 2761, 2797, 2872
15634, 2903, 2832, 2870, 2939
15635, 2796, 2815, 2880, 2809
15636, 2797, 2835, 2873, 2872
15637, 2870, 2795, 2833, 2904
15638, 2798, 2763, 6060, 6092
15639, 2840, 6036, 6049, 6056
15640, 2874, 2857, 2915, 2859
15641, 2841, 2881, 2805, 2806
15642, 2836, 2899, 2857, 363
15643, 2766, 2803, 2838, 2799
15644, 2806, 2805, 6031, 2840
15645, 6036, 2840, 6031, 2734
15646, 2875, 2799, 2838, 2914
15647, 2891, 2770, 2839, 2887
15648, 2843, 2808, 341, 2886
15649, 2853, 5933, 2810, 2844
15650, 2953, 2921, 2885, 2981
15651, 2850, 2888, 2926, 2889
15652, 3437, 3647, 5937, 386
15653, 3132, 3417, 3409, 2814
15654, 2848, 2809, 2880, 2924
15655, 2864, 6130, 2820, 2896
15656, 2789, 2798, 2822, 2752
15657, 2762, 2836, 363, 6069
15658, 2861, 6135, 2898, 2895
15659, 2829, 2782, 2790, 2830
15660, 2780, 2745, 2819, 2855
15661, 2779, 2744, 2820, 6130
15662, 2826, 2871, 2785, 2755
15663, 2861, 2854, 2818, 2821
15664, 2752, 2822, 2859, 2824
15665, 2802, 2852, 6005, 2867
15666, 2856, 2825, 2802, 2867
15667, 2863, 2786, 2837, 2902
15668, 2788, 2823, 2860, 2827
15669, 2897, 2862, 2827, 2892
15670, 2829, 2830, 6133, 2907
15671, 2902, 2837, 2876, 2936
15672, 2837, 2793, 2831, 2876
15673, 2973, 2927, 2962, 2999
15674, 2854, 2855, 2819, 2818
15675, 2858, 2823, 2780, 2855
15676, 2824, 2859, 2915, 6079
15677, 2835, 2797, 6085, 2765
15678, 2899, 2836, 2825, 2856
15679, 2830, 6132, 2868, 6133
15680, 2801, 2843, 2884, 2849
15681, 2839, 2847, 2890, 2887
15682, 2845, 2804, 2794, 2877
15683, 2972, 6055, 2911, 2944
15684, 2911, 6055, 2875, 2914
15685, 2842, 2771, 2805, 2881
15686, 2982, 2920, 3013, 2925
15687, 2844, 2882, 3041, 2853
15688, 2877, 2794, 2834, 2878
15689, 2883, 2918, 6056, 6049
15690, 2890, 2847, 2703, 5935
15691, 2932, 2949, 2880, 2815
15692, 2888, 2850, 2812, 2848
15693, 2920, 6007, 6008, 3013
15694, 3111, 3081, 3070, 6019
15695, 3417, 2851, 3410, 5968
15696, 2802, 2733, 5984, 2852
15697, 2980, 3041, 2951, 2922
15698, 2582, 5933, 2853, 3014
15699, 2939, 2870, 2904, 2967
15700, 6084, 2916, 2971, 2948
15701, 2822, 2817, 2874, 2859
15702, 2817, 363, 2857, 2874
15703, 2927, 2893, 2895, 2931
15704, 2858, 2855, 2894, 6117
15705, 2936, 2876, 2906, 2961
15706, 2869, 2900, 2828, 2792
15707, 2815, 2796, 2862, 2897
15708, 2905, 2864, 2896, 2863
15709, 6132, 6130, 2864, 2868
15710, 2861, 2821, 2866, 6135
15711, 2867, 6005, 2923, 2937
15712, 2845, 2912, 2910, 2883
15713, 2908, 2907, 6133, 2905
15714, 2904, 2833, 2872, 2940
15715, 2893, 2894, 2855, 2854
15716, 2902, 2936, 2959, 2908
15717, 2909, 2872, 2873, 2942
15718, 2942, 2873, 6055, 2972
15719, 2945, 2838, 2803, 2849
15720, 2977, 2950, 3007, 3006
15721, 2906, 2900, 2935, 2961
15722, 6054, 6070, 6080, 2943
15723, 2901, 2933, 2899, 2856
15724, 2913, 2945, 2849, 2884
15725, 6045, 6029, 3006, 3007
15726, 365, 2932, 2815, 2897
15727, 2888, 2848, 2924, 2955
15728, 2879, 2917, 2919, 2841
15729, 2920, 2842, 2881, 6007
15730, 2883, 2910, 2947, 2918
15731, 2885, 2811, 2846, 2981
15732, 3012, 3039, 2987, 3060
15733, 341, 2922, 2951, 2886
15734, 2922, 341, 2952, 2984
15735, 3127, 2889, 5937, 3647
15736, 2890, 5905, 3016, 2887
15737, 2808, 2891, 2952, 341
15738, 2891, 2887, 2985, 2952
15739, 2897, 2892, 2928, 365
15740, 2895, 2898, 6134, 2931
15741, 2858, 2929, 2860, 2823
15742, 2900, 2906, 2865, 2828
15743, 2915, 2857, 2899, 2933
15744, 2901, 2856, 2867, 2937
15745, 2903, 2938, 2869, 2832
15746, 2923, 6005, 2921, 2954
15747, 2912, 6084, 2948, 2934
15748, 2902, 2908, 2905, 2863
15749, 2940, 2872, 2909, 2966
15750, 2967, 2904, 2940, 2995
15751, 2868, 2864, 2905, 6133
15752, 2961, 2941, 2959, 2936
15753, 2898, 2907, 6136, 6134
15754, 2999, 3000, 3017, 2973
15755, 2845, 2877, 6084, 2912
15756, 2918, 2947, 2975, 2946
15757, 2877, 2878, 2916, 6084
15758, 6038, 2994, 2971, 6070
15759, 2944, 2911, 2914, 2974
15760, 2915, 2933, 2943, 6079
15761, 6079, 2943, 2878, 2824
15762, 2963, 2960, 2937, 2923
15763, 2879, 6046, 2946, 2917
15764, 2918, 2946, 6046, 6056
15765, 2934, 6101, 2910, 2912
15766, 2881, 2841, 2919, 6007
15767, 2882, 2842, 2920, 2982
15768, 6007, 2919, 2977, 6008
15769, 2852, 2885, 2921, 6005
15770, 2948, 2971, 2994, 2968
15771, 2924, 2880, 2949, 2983
15772, 2926, 2888, 2955, 5977
15773, 2913, 2884, 2925, 3013
15774, 2886, 2951, 2982, 2925
15775, 2978, 2954, 2921, 2953
15776, 6123, 2893, 2927, 2990
15777, 2965, 2999, 2962, 2991
15778, 2958, 3003, 2983, 2949
15779, 2988, 3019, 3018, 2957
15780, 6105, 2988, 2928, 2892
15781, 2929, 2956, 6106, 2930
15782, 2941, 6134, 6136, 2959
15783, 6040, 2932, 365, 2957
15784, 2901, 2937, 2960, 6054
15785, 2900, 2869, 2938, 2935
15786, 2963, 2923, 2954, 3002
15787, 2903, 2939, 2964, 2938
15788, 2990, 3017, 3044, 3020
15789, 2995, 3026, 2993, 2967
15790, 6131, 2931, 6134, 2941
15791, 2916, 2878, 2943, 6080
15792, 2945, 2974, 2914, 2838
15793, 2946, 2975, 3004, 2976
15794, 3013, 6008, 2979, 2913
15795, 3065, 3021, 2989, 3043
15796, 2947, 2910, 6101, 3008
15797, 6054, 2943, 2933, 2901
15798, 2957, 365, 2928, 2988
15799, 2955, 2924, 2983, 3036
15800, 2919, 2917, 2950, 2977
15801, 2917, 2946, 2976, 2950
15802, 2882, 2982, 2951, 3041
15803, 3080, 3040, 3061, 3016
15804, 386, 5937, 2987, 3039
15805, 3009, 3025, 2994, 6038
15806, 6105, 6106, 2956, 2996
15807, 6117, 2894, 6123, 2970
15808, 6105, 2892, 2930, 6106
15809, 2958, 2949, 2932, 6040
15810, 2908, 2959, 6136, 2907
15811, 2991, 2962, 6131, 2941
15812, 2968, 2992, 2934, 2948
15813, 2931, 6131, 2962, 2927
15814, 2965, 2935, 2938, 2964
15815, 2954, 2978, 3011, 3002
15816, 2995, 2940, 2966, 3023
15817, 2969, 2909, 2942, 2998
15818, 2997, 3066, 3023, 2966
15819, 2967, 2993, 2964, 2939
15820, 2942, 2972, 6068, 2998
15821, 2956, 6117, 2970, 2996
15822, 2990, 2927, 2973, 3017
15823, 3001, 2944, 2974, 6029
15824, 3000, 2999, 2965, 2964
15825, 2977, 3006, 2979, 6008
15826, 3055, 3063, 3072, 3050
15827, 2969, 2998, 3024, 6120
15828, 3005, 3007, 2950, 2976
15829, 3060, 2987, 2926, 5977
15830, 2945, 2913, 2979, 2974
15831, 2981, 2846, 3128, 386
15832, 2981, 386, 3039, 2953
15833, 2958, 2989, 3021, 3003
15834, 3010, 2986, 2955, 3036
15835, 3040, 3159, 5878, 3015
15836, 3014, 2980, 3015, 5878
15837, 2985, 2887, 3016, 3061
15838, 6009, 3075, 3060, 5977
15839, 2889, 2926, 2987, 5937
15840, 2997, 2966, 2969, 6120
15841, 3026, 3053, 3029, 2993
15842, 6123, 2990, 3020, 2970
15843, 2991, 2961, 2935, 2965
15844, 3031, 2975, 2947, 3008
15845, 3008, 6101, 2992, 3032
15846, 2963, 3009, 6038, 2960
15847, 3025, 3022, 2968, 2994
15848, 6105, 2996, 3019, 2988
15849, 3052, 3106, 3059, 3027
15850, 2998, 6068, 3028, 3024
15851, 3069, 3096, 3079, 3047
15852, 3000, 2964, 2993, 3029
15853, 2972, 2944, 3001, 6068
15854, 3042, 3048, 3025, 3009
15855, 3101, 3102, 3117, 3110
15856, 2976, 3004, 3030, 3005
15857, 3055, 3050, 3028, 6048
15858, 2979, 3006, 6029, 2974
15859, 3007, 3005, 3033, 6045
15860, 3032, 2992, 3022, 3051
15861, 3004, 3031, 3058, 3030
15862, 3027, 3003, 3021, 3052
15863, 2986, 3035, 3034, 6009
15864, 3038, 3012, 3060, 3075
15865, 3011, 3054, 3037, 3002
15866, 3012, 2978, 2953, 3039
15867, 340, 2582, 3014, 5878
15868, 340, 5878, 3159, 3145
15869, 3416, 318, 3515, 3972
15870, 2984, 3061, 3040, 3015
15871, 3045, 6090, 3019, 2996
15872, 2957, 3018, 2989, 6040
15873, 3020, 3045, 2996, 2970
15874, 3053, 3026, 3073, 6114
15875, 3084, 6086, 3090, 3103
15876, 3043, 2989, 3018, 6089
15877, 6113, 2997, 6120, 3049
15878, 3037, 3064, 3042, 3002
15879, 6090, 6091, 3077, 6089
15880, 3028, 3050, 6093, 3024
15881, 2983, 3003, 3027, 3036
15882, 3033, 3055, 6048, 6045
15883, 3017, 3000, 3029, 3044
15884, 3008, 3032, 3069, 3047
15885, 3042, 3009, 2963, 3002
15886, 3069, 3032, 3051, 6088
15887, 3033, 3056, 3063, 3055
15888, 3035, 2986, 3010, 3057
15889, 3070, 3054, 3011, 3038
15890, 3057, 3010, 3059, 3078
15891, 3064, 3087, 3048, 3042
15892, 3038, 3011, 2978, 3012
15893, 6089, 3018, 3019, 6090
15894, 3053, 3062, 3044, 3029
15895, 3054, 3070, 3081, 364
15896, 3046, 3034, 3035, 3074
15897, 3057, 3078, 3082, 3074
15898, 3031, 3008, 3047, 3058
15899, 3051, 3022, 3025, 3048
15900, 3052, 3021, 3065, 3105
15901, 3073, 3026, 2995, 3023
15902, 3112, 3107, 3092, 3098
15903, 3053, 6114, 6104, 3062
15904, 6088, 3087, 3093, 3088
15905, 6097, 3068, 3077, 6104
15906, 3054, 364, 3086, 3037
15907, 3056, 3033, 3005, 3030
15908, 3076, 3056, 3030, 3058
15909, 3056, 3076, 3083, 3063
15910, 3059, 3010, 3036, 3027
15911, 3076, 3079, 3091, 3083
15912, 3062, 3045, 3020, 3044
15913, 3083, 6099, 3072, 3063
15914, 3086, 364, 3092, 3093
15915, 3068, 3043, 6089, 3077
15916, 6113, 3049, 6098, 3067
15917, 3073, 3023, 3066, 3090
15918, 6113, 3089, 3066, 2997
15919, 3084, 3105, 3065, 6086
15920, 3099, 3071, 3085, 3095
15921, 3043, 3068, 6086, 3065
15922, 3090, 3066, 3089, 3103
15923, 3115, 3114, 3104, 3100
15924, 3070, 3038, 3075, 6019
15925, 3024, 6093, 3049, 6120
15926, 3050, 3072, 3071, 6093
15927, 6067, 3046, 3074, 3082
15928, 3075, 6009, 3034, 6019
15929, 3047, 3079, 3076, 3058
15930, 318, 3080, 3016, 5905
15931, 3416, 3156, 3080, 318
15932, 6093, 3071, 6098, 3049
15933, 3108, 3097, 3091, 3079
15934, 3098, 3081, 3111, 3046
15935, 3095, 3085, 6099, 3097
15936, 3101, 3084, 3103, 3067
15937, 3085, 3071, 3072, 6099
15938, 3086, 3093, 3087, 3064
15939, 3048, 3087, 6088, 3051
15940, 6088, 3088, 3094, 3069
15941, 3093, 3092, 3107, 3088
15942, 6097, 3090, 6086, 3068
15943, 3108, 3079, 3096, 3113
15944, 3092, 364, 3081, 3098
15945, 3100, 3104, 3082, 3078
15946, 3095, 3097, 3108, 3109
15947, 3114, 3109, 3108, 3113
15948, 3083, 3091, 3097, 6099
15949, 6067, 3112, 3098, 3046
15950, 6098, 3071, 3099, 3102
15951, 3106, 3100, 3078, 3059
15952, 3101, 3067, 6098, 3102
15953, 3110, 3105, 3084, 3101
15954, 6087, 3099, 3095, 3109
15955, 3067, 3103, 3089, 6113
15956, 3116, 3104, 3114, 3113
15957, 6067, 3082, 3104, 3112
15958, 3106, 3052, 3105, 3110
15959, 3094, 3088, 3107, 3116
15960, 3113, 3096, 3094, 3116
15961, 3100, 3106, 3110, 3115
15962, 3115, 3110, 3117, 6087
15963, 3102, 3099, 6087, 3117
15964, 3109, 3114, 3115, 6087
15965, 3116, 3107, 3112, 3104
15966, 3694, 5656, 3674, 3554
15967, 339, 2416, 3118, 3397
15968, 5928, 3119, 320, 2218
15969, 3411, 3122, 3413, 372
15970, 3123, 336, 3530, 3151
15971, 3124, 3403, 3695, 3473
15972, 3863, 5904, 3437, 3401
15973, 2851, 2813, 3127, 3410
15974, 3128, 3401, 3437, 386
15975, 3619, 3396, 3573, 392
15976, 319, 3509, 3608, 3432
15977, 319, 2666, 3133, 3509
15978, 3408, 3415, 3134, 3389
15979, 5905, 3135, 3515, 318
15980, 3131, 3136, 3165, 349
15981, 5591, 3137, 1245, 1314
15982, 389, 2091, 3139, 3421
15983, 3415, 5760, 1791, 3134
15984, 4022, 404, 3888, 3556
15985, 3619, 3776, 3567, 3143
15986, 3413, 3567, 3589, 372
15987, 3144, 3595, 3425, 336
15988, 3414, 3159, 3156, 317
15989, 3406, 3572, 5733, 3561
15990, 405, 2259, 5866, 3423
15991, 405, 3578, 3146, 2259
15992, 3593, 3147, 3429, 3617
15993, 3160, 3400, 3174, 323
15994, 3422, 2814, 3409, 3582
15995, 3431, 3152, 3422, 409
15996, 3153, 1015, 1107, 5413
15997, 3154, 391, 3418, 3574
15998, 3573, 3154, 3574, 392
15999, 3411, 3166, 3155, 3122
16000, 3040, 3080, 3156, 3159
16001, 3833, 312, 3446, 3428
16002, 321, 3393, 3424, 3158
16003, 299, 3804, 3594, 3424
16004, 5768, 5642, 1379, 3173
16005, 3163, 3440, 3448, 3170
16006, 3164, 3172, 3539, 3436
16007, 3171, 3168, 3438, 3441
16008, 3183, 3171, 3441, 109
16009, 3419, 390, 3387, 3596
16010, 3434, 3394, 323, 3174
16011, 3615, 3445, 3176, 3175
16012, 3420, 5766, 3398, 5791
16013, 3176, 3445, 3623, 3182
16014, 3177, 3688, 3442, 3169
16015, 3450, 3443, 3178, 3194
16016, 3181, 3179, 3447, 3621
16017, 679, 48, 3183, 5315
16018, 3185, 3451, 3686, 3184
16019, 3210, 3186, 3449, 245
16020, 3254, 34, 636, 3259
16021, 3430, 402, 3399, 3390
16022, 3683, 3452, 3188, 3212
16023, 3189, 3188, 3452, 578
16024, 3189, 578, 3260, 3214
16025, 3192, 3453, 3630, 3201
16026, 3193, 3204, 3454, 4285
16027, 3540, 3195, 3236, 585
16028, 3235, 3196, 3463, 582
16029, 3429, 3197, 325, 3617
16030, 3198, 3459, 3626, 3208
16031, 3623, 3460, 3199, 3182
16032, 3225, 3199, 3460, 130
16033, 3685, 3455, 3200, 3220
16034, 3634, 3490, 3286, 3203
16035, 3205, 590, 3539, 3172
16036, 3216, 3206, 3458, 3466
16037, 3227, 3207, 599, 3340
16038, 3209, 3226, 3462, 3680
16039, 3627, 3461, 3211, 3202
16040, 3224, 3211, 3461, 123
16041, 3678, 3457, 3213, 3230
16042, 3528, 3215, 3245, 177
16043, 3239, 3216, 3466, 595
16044, 373, 3244, 3218, 3444
16045, 291, 4181, 3190, 3219
16046, 3221, 3468, 5331, 3240
16047, 3247, 629, 27, 3265
16048, 3223, 3247, 3523, 3681
16049, 3224, 123, 3475, 3246
16050, 3225, 130, 3384, 3249
16051, 3682, 3462, 3226, 3301
16052, 3469, 3229, 3232, 116
16053, 3231, 3262, 3524, 3684
16054, 3233, 3248, 3471, 112
16055, 3261, 3234, 3465, 222
16056, 3322, 3237, 3464, 334
16057, 3253, 3238, 4082, 113
16058, 468, 3255, 3240, 5331
16059, 3474, 3242, 3269, 312
16060, 3643, 3310, 3244, 373
16061, 3523, 3247, 3265, 557
16062, 115, 3537, 3250, 3287
16063, 3252, 3273, 120, 3472
16064, 402, 3187, 3254, 3538
16065, 423, 3259, 3256, 3541
16066, 3256, 33, 635, 3258
16067, 446, 3258, 3257, 3476
16068, 126, 3524, 3262, 3288
16069, 3276, 3263, 3479, 118
16070, 3265, 3264, 3478, 557
16071, 3284, 3266, 3480, 4286
16072, 3275, 377, 3489, 3304
16073, 674, 44, 3272, 3268
16074, 3245, 3268, 3536, 177
16075, 3412, 3446, 3270, 3157
16076, 3272, 3271, 3477, 199
16077, 3274, 3303, 3517, 354
16078, 3277, 124, 3487, 3291
16079, 3278, 3290, 3520, 3679
16080, 3279, 3296, 3483, 4258
16081, 3356, 82, 716, 3377
16082, 6, 3298, 3294, 607
16083, 3289, 3282, 109, 3486
16084, 3293, 3283, 3485, 119
16085, 3284, 4286, 353, 3308
16086, 3338, 3286, 3490, 587
16087, 3297, 3289, 3486, 110
16088, 3520, 3290, 3297, 110
16089, 3299, 3291, 3487, 125
16090, 3534, 3292, 3299, 125
16091, 3295, 3293, 119, 3488
16092, 3521, 3294, 3298, 114
16093, 3300, 3295, 3488, 3677
16094, 3677, 3483, 3296, 3300
16095, 3298, 3281, 3484, 114
16096, 3301, 3331, 3525, 3682
16097, 3339, 58, 689, 3350
16098, 3542, 3302, 3339, 591
16099, 3517, 3303, 3313, 355
16100, 378, 3314, 3304, 3489
16101, 3305, 290, 3676, 3222
16102, 3337, 3306, 3491, 594
16103, 3307, 376, 4203, 3285
16104, 3320, 6166, 6167, 3327
16105, 3482, 3309, 3320, 351
16106, 3321, 3310, 3643, 374
16107, 3529, 3311, 3341, 586
16108, 3349, 3312, 3493, 581
16109, 3313, 3325, 3522, 355
16110, 3314, 378, 3492, 3326
16111, 3519, 3315, 3355, 176
16112, 3346, 703, 702, 3354
16113, 3318, 4085, 352, 3323
16114, 3494, 3328, 3321, 374
16115, 3323, 352, 3512, 3327
16116, 3317, 3324, 3842, 4383
16117, 3329, 6177, 6178, 3334
16118, 356, 3522, 3325, 3329
16119, 379, 3330, 3326, 3492
16120, 3328, 3494, 3842, 3324
16121, 3330, 379, 3495, 3335
16122, 3347, 51, 681, 3348
16123, 3525, 3331, 3347, 598
16124, 3334, 3332, 357, 3532
16125, 3332, 6179, 6180, 5316
16126, 3367, 3373, 380, 3533
16127, 3333, 3335, 3495, 380
16128, 3342, 3343, 3516, 593
16129, 3341, 3352, 3514, 586
16130, 3342, 593, 3497, 3344
16131, 3337, 594, 3516, 3343
16132, 3345, 3344, 3497, 592
16133, 3345, 592, 3535, 3350
16134, 3496, 3346, 3354, 4182
16135, 3348, 3340, 599, 3531
16136, 3351, 3353, 3498, 4275
16137, 3351, 4275, 4182, 3354
16138, 3352, 3338, 587, 3514
16139, 3349, 581, 3498, 3353
16140, 3378, 3357, 3499, 221
16141, 3305, 3358, 4180, 290
16142, 176, 3355, 3359, 3527
16143, 3386, 357, 3332, 5316
16144, 108, 764, 3360, 3386
16145, 3361, 533, 4721, 3377
16146, 4087, 5333, 3966, 4262
16147, 3363, 3375, 3513, 467
16148, 3368, 710, 76, 3365
16149, 3364, 3368, 3518, 445
16150, 3365, 3374, 3526, 422
16151, 3374, 3366, 401, 3526
16152, 3372, 3369, 3501, 489
16153, 5333, 4087, 3362, 3370
16154, 3371, 3376, 511, 4474
16155, 3372, 489, 5333, 3370
16156, 3376, 3362, 4087, 511
16157, 104, 759, 3385, 3379
16158, 3379, 267, 4180, 3358
16159, 3382, 3381, 3502, 244
16160, 3380, 3383, 3503, 5322
16161, 3379, 3385, 4086, 267
16162, 2058, 3388, 3426, 338
16163, 3389, 5541, 5459, 3427
16164, 3511, 3433, 3391, 5368
16165, 5366, 3391, 3433, 3395
16166, 3507, 3392, 3148, 3404
16167, 3506, 3392, 3507, 411
16168, 3393, 5798, 3402, 3424
16169, 3510, 3604, 3435, 322
16170, 3561, 3554, 3118, 3406
16171, 3398, 5788, 3544, 5791
16172, 5791, 3544, 5836, 3716
16173, 3399, 402, 3538, 3810
16174, 3602, 3878, 3699, 301
16175, 301, 3699, 3809, 3932
16176, 3401, 3546, 3806, 3863
16177, 300, 3690, 3402, 3435
16178, 299, 3424, 3402, 3690
16179, 3546, 3473, 3695, 3806
16180, 3635, 3507, 3404, 3584
16181, 3618, 3509, 320, 3405
16182, 3649, 5733, 3572, 3414
16183, 3415, 3408, 5617, 5628
16184, 3410, 3692, 3563, 5968
16185, 3446, 3412, 335, 3428
16186, 317, 3156, 3416, 3548
16187, 408, 3409, 3417, 5968
16188, 3418, 391, 5766, 3420
16189, 3419, 3596, 412, 5836
16190, 3675, 3420, 5791, 3716
16191, 3139, 3150, 3505, 3421
16192, 3545, 3336, 3421, 3505
16193, 3140, 3141, 3423, 5866
16194, 3428, 3530, 3547, 3833
16195, 315, 3586, 3426, 5656
16196, 3130, 3504, 3508, 1560
16197, 3408, 5496, 3576, 5617
16198, 3430, 3120, 3187, 402
16199, 3590, 3545, 3505, 3431
16200, 3432, 3687, 3515, 3135
16201, 3871, 3597, 3972, 296
16202, 3395, 3433, 3592, 325
16203, 301, 3604, 3434, 3602
16204, 3440, 3436, 589, 3585
16205, 3647, 3437, 5904, 3692
16206, 3441, 3438, 3822, 3653
16207, 131, 3822, 3438, 3439
16208, 3442, 3564, 131, 3439
16209, 154, 3564, 3442, 3688
16210, 3550, 3443, 3450, 127
16211, 3629, 372, 3589, 5375
16212, 3703, 3445, 3615, 128
16213, 3623, 3445, 129, 3800
16214, 3662, 3748, 3666, 584
16215, 3621, 3447, 3813, 583
16216, 3634, 3448, 588, 5351
16217, 3449, 3686, 3697, 3636
16218, 3451, 4181, 3570, 268
16219, 3686, 3451, 268, 3697
16220, 3652, 3478, 578, 3452
16221, 512, 3453, 3192, 3191
16222, 490, 3630, 3453, 3579
16223, 3454, 3681, 3568, 5350
16224, 3656, 3531, 599, 3455
16225, 3581, 337, 3407, 3162
16226, 3706, 3456, 3581, 3696
16227, 3457, 3678, 121, 3587
16228, 3466, 3458, 596, 3552
16229, 3800, 3734, 3854, 3663
16230, 3769, 3731, 4140, 3650
16231, 3588, 5349, 597, 3729
16232, 583, 3598, 3463, 3621
16233, 3714, 4130, 3751, 3580
16234, 3787, 5378, 4134, 3669
16235, 3316, 579, 3467, 3251
16236, 3640, 490, 3728, 4074
16237, 3783, 5377, 4133, 3673
16238, 3356, 556, 3470, 3280
16239, 111, 3575, 3471, 3679
16240, 5334, 3474, 312, 3833
16241, 3560, 4295, 3474, 5334
16242, 5415, 5367, 3773, 469
16243, 3792, 222, 3669, 3869
16244, 3790, 117, 3673, 3865
16245, 4286, 3480, 3559, 4067
16246, 3558, 3481, 4203, 4060
16247, 3616, 3643, 373, 3754
16248, 3830, 3565, 3483, 3677
16249, 3606, 3484, 113, 3835
16250, 3613, 3488, 119, 3746
16251, 3610, 3489, 377, 3735
16252, 3490, 3634, 5351, 3562
16253, 3603, 3491, 595, 3727
16254, 3661, 3495, 379, 3778
16255, 290, 4180, 3549, 3718
16256, 3555, 3498, 581, 3732
16257, 334, 3752, 3657, 3500
16258, 556, 4721, 3557, 3721
16259, 3508, 3566, 3427, 5459
16260, 3689, 3506, 411, 3791
16261, 3506, 3689, 3596, 3387
16262, 3604, 3510, 3394, 3434
16263, 3511, 349, 3645, 5384
16264, 3609, 3514, 587, 3738
16265, 297, 3687, 3432, 3608
16266, 3625, 110, 3816, 3772
16267, 3523, 557, 3620, 534
16268, 3637, 598, 3812, 3755
16269, 3682, 3525, 3820, 597
16270, 3632, 177, 3758, 3912
16271, 3547, 3425, 313, 3702
16272, 5379, 3784, 3775, 572
16273, 3782, 3664, 423, 3541
16274, 3659, 3539, 590, 3805
16275, 4126, 3747, 3745, 565
16276, 350, 3741, 3753, 3543
16277, 3716, 5836, 3796, 3853
16278, 3560, 5334, 3702, 3900
16279, 3547, 3702, 5334, 3833
16280, 3957, 5790, 4002, 4152
16281, 3549, 4180, 267, 4261
16282, 127, 3824, 5440, 3550
16283, 3739, 3703, 128, 3884
16284, 579, 3496, 3551, 3720
16285, 596, 3839, 3903, 3552
16286, 3727, 3552, 3903, 575
16287, 4175, 4033, 3885, 143
16288, 3889, 3722, 3553, 4037
16289, 3397, 3118, 3554, 3674
16290, 3554, 3561, 3852, 3694
16291, 4057, 580, 4071, 560
16292, 3888, 404, 5577, 4055
16293, 3556, 3888, 3723, 3793
16294, 3896, 3557, 4061, 5380
16295, 3735, 3558, 3907, 398
16296, 4067, 3559, 3908, 5383
16297, 4246, 4295, 3560, 3857
16298, 316, 3852, 3561, 5733
16299, 3738, 3562, 3926, 567
16300, 587, 3490, 3562, 3738
16301, 3996, 3874, 5395, 3821
16302, 3664, 3810, 3538, 423
16303, 3566, 3698, 5458, 3427
16304, 3691, 3589, 3567, 3776
16305, 4285, 3454, 5350, 4068
16306, 3841, 3916, 5437, 5412
16307, 3569, 3916, 3841, 375
16308, 3570, 4044, 3887, 3719
16309, 3571, 3724, 3898, 3971
16310, 3695, 3971, 3858, 3806
16311, 3572, 3406, 5832, 3145
16312, 4050, 3575, 3901, 4202
16313, 403, 3818, 3576, 5496
16314, 3576, 3818, 3709, 5577
16315, 3879, 3708, 3577, 3720
16316, 3467, 3577, 3803, 3683
16317, 405, 3556, 3793, 3578
16318, 3897, 3579, 4063, 513
16319, 289, 3881, 3700, 3718
16320, 3626, 3459, 3580, 3751
16321, 3696, 3581, 3162, 3586
16322, 3595, 3456, 3706, 5417
16323, 408, 3715, 3725, 3582
16324, 3814, 3711, 409, 5985
16325, 3721, 3557, 3896, 4132
16326, 3470, 3583, 3802, 3685
16327, 3701, 3635, 3883, 4062
16328, 3585, 589, 3704, 3954
16329, 3722, 3587, 121, 3553
16330, 122, 3892, 3731, 3769
16331, 3588, 3856, 3827, 5349
16332, 129, 3445, 3703, 3851
16333, 3734, 129, 3851, 5372
16334, 5375, 3828, 5387, 5376
16335, 410, 3545, 3590, 3819
16336, 4103, 3591, 3740, 5407
16337, 3591, 3894, 3741, 350
16338, 3743, 3617, 325, 3592
16339, 3593, 303, 3826, 302
16340, 3593, 302, 3878, 3147
16341, 3798, 3944, 299, 3690
16342, 3829, 5417, 3706, 314
16343, 313, 3425, 3595, 5417
16344, 295, 3597, 3871, 4115
16345, 3757, 3598, 3945, 562
16346, 582, 3463, 3598, 3757
16347, 244, 3502, 3599, 3837
16348, 351, 3512, 3600, 3764
16349, 489, 3501, 3601, 3838
16350, 3878, 3602, 3400, 3147
16351, 3603, 3936, 574, 3761
16352, 3732, 3605, 3935, 561
16353, 581, 3493, 3605, 3732
16354, 3765, 3606, 3934, 136
16355, 3607, 3808, 5374, 3949
16356, 221, 3499, 3607, 5348
16357, 3767, 3609, 3931, 566
16358, 3759, 3610, 3921, 399
16359, 3611, 3771, 3939, 4102
16360, 354, 3517, 3612, 3730
16361, 3986, 3830, 3613, 3906
16362, 3614, 3761, 4142, 3929
16363, 3762, 3614, 3929, 573
16364, 3616, 3915, 3737, 5343
16365, 303, 3593, 3617, 5501
16366, 5918, 3618, 3405, 3594
16367, 3681, 3523, 534, 3568
16368, 3750, 3620, 557, 3817
16369, 3911, 3622, 3765, 136
16370, 3890, 3624, 3767, 566
16371, 3745, 3624, 3890, 565
16372, 3913, 3625, 3772, 4018
16373, 3625, 3913, 4114, 3834
16374, 3628, 3749, 3891, 3845
16375, 5357, 3823, 5373, 197
16376, 373, 3444, 3629, 3754
16377, 3922, 3631, 3770, 149
16378, 3825, 3846, 3824, 127
16379, 3912, 4041, 3855, 3632
16380, 3688, 3528, 3831, 154
16381, 3633, 3777, 3946, 4104
16382, 245, 3449, 3636, 3744
16383, 3905, 3637, 3755, 5394
16384, 3992, 3820, 3637, 3905
16385, 3963, 3638, 3781, 333
16386, 3763, 3638, 3963, 4107
16387, 3943, 3639, 3759, 399
16388, 3639, 3943, 400, 3778
16389, 3928, 3773, 3640, 4074
16390, 3924, 3641, 3762, 573
16391, 3775, 3641, 3924, 572
16392, 3642, 3751, 4130, 4072
16393, 3644, 3780, 3927, 4125
16394, 5384, 3645, 326, 5411
16395, 3543, 3753, 3645, 349
16396, 3742, 3646, 3882, 138
16397, 3410, 3127, 3647, 3692
16398, 3964, 3648, 3786, 400
16399, 3777, 3648, 3964, 4105
16400, 3713, 317, 3548, 3923
16401, 3801, 316, 5733, 3649
16402, 3650, 3914, 3768, 123
16403, 3651, 3779, 3917, 4116
16404, 3708, 3850, 3803, 3577
16405, 3850, 3817, 3652, 3803
16406, 3736, 3950, 3822, 131
16407, 3653, 3822, 3950, 3816
16408, 3654, 3774, 3919, 4127
16409, 3655, 3789, 3947, 4124
16410, 3710, 3847, 3802, 3583
16411, 3847, 3812, 3656, 3802
16412, 3781, 3657, 3752, 333
16413, 4069, 3658, 3784, 5379
16414, 3658, 3925, 3785, 591
16415, 3942, 4391, 3995, 3704
16416, 3660, 5367, 5415, 3861
16417, 3667, 446, 3788, 3860
16418, 3786, 3661, 3778, 400
16419, 3747, 4126, 3875, 3662
16420, 3460, 3623, 3800, 3663
16421, 3955, 3664, 3782, 424
16422, 3665, 3790, 3870, 4108
16423, 4136, 3666, 3748, 564
16424, 3813, 3848, 3807, 583
16425, 4416, 3667, 3860, 4209
16426, 3668, 3785, 4046, 3918
16427, 3805, 3668, 3918, 570
16428, 3670, 3794, 3866, 5442
16429, 3671, 3768, 3864, 5441
16430, 3872, 3672, 3792, 5385
16431, 3774, 3672, 3872, 3919
16432, 3426, 3388, 3674, 5656
16433, 3717, 3862, 3849, 3693
16434, 3583, 3470, 556, 3721
16435, 3577, 3467, 579, 3720
16436, 3446, 312, 3269, 3270
16437, 596, 3458, 3680, 3827
16438, 3462, 3682, 597, 5349
16439, 127, 3450, 3684, 3825
16440, 3543, 3217, 3243, 350
16441, 434, 3904, 4047, 4426
16442, 3596, 3689, 4001, 412
16443, 3844, 3691, 3776, 3868
16444, 393, 3828, 3691, 3844
16445, 3873, 3692, 5904, 407
16446, 4162, 3868, 3693, 3849
16447, 392, 3574, 3693, 3868
16448, 5656, 3694, 5611, 315
16449, 3818, 403, 3955, 424
16450, 5458, 3698, 3955, 403
16451, 302, 3962, 3699, 3878
16452, 4062, 3883, 3948, 432
16453, 3560, 3900, 5345, 3857
16454, 3884, 128, 3550, 5440
16455, 3851, 3703, 3739, 151
16456, 3704, 589, 3659, 3942
16457, 3832, 3954, 3975, 4092
16458, 314, 3977, 3705, 4038
16459, 3706, 3696, 3977, 314
16460, 3548, 3597, 295, 3923
16461, 3933, 297, 3959, 4120
16462, 297, 3608, 3707, 3959
16463, 3850, 558, 3750, 3817
16464, 425, 4055, 5577, 3709
16465, 3847, 5394, 3755, 3812
16466, 4139, 3859, 3711, 3814
16467, 3712, 142, 4078, 3885
16468, 3712, 3565, 3830, 3986
16469, 3801, 5790, 3957, 3843
16470, 4048, 5948, 5936, 4006
16471, 3953, 3725, 3715, 5948
16472, 413, 3675, 3716, 3853
16473, 3675, 413, 3862, 3717
16474, 3886, 4187, 4076, 5397
16475, 3720, 3551, 3893, 559
16476, 5495, 3902, 4093, 5491
16477, 5394, 5499, 4019, 3905
16478, 3587, 4053, 3892, 122
16479, 4119, 3724, 3793, 426
16480, 3898, 3724, 4119, 427
16481, 3726, 535, 5422, 3899
16482, 3726, 534, 3620, 4129
16483, 3856, 3588, 4284, 4118
16484, 3729, 597, 3820, 3992
16485, 3914, 3650, 4140, 4015
16486, 133, 3901, 3733, 4184
16487, 3733, 111, 3834, 4114
16488, 3779, 3854, 152, 3917
16489, 3950, 132, 3772, 3816
16490, 131, 3564, 5396, 3736
16491, 3737, 395, 5437, 3916
16492, 3569, 5343, 3737, 3916
16493, 3882, 3646, 3756, 137
16494, 3865, 3673, 4133, 4031
16495, 5411, 3743, 3592, 5384
16496, 5456, 5455, 3811, 5517
16497, 3869, 3669, 4134, 223
16498, 3748, 3662, 3875, 564
16499, 3666, 4136, 3848, 3813
16500, 3815, 3749, 176, 3527
16501, 3902, 3750, 558, 4093
16502, 3756, 3622, 3911, 137
16503, 3938, 3760, 220, 4042
16504, 3599, 5348, 3760, 3938
16505, 3920, 3763, 4107, 332
16506, 3764, 3600, 3930, 328
16507, 3894, 3591, 4103, 4024
16508, 3766, 466, 3940, 3601
16509, 146, 3864, 3768, 3914
16510, 3631, 3922, 3846, 3825
16511, 4104, 3939, 3771, 3633
16512, 4018, 3772, 132, 5423
16513, 5331, 3773, 5367, 468
16514, 3861, 5415, 469, 4141
16515, 3925, 3658, 4069, 3989
16516, 3946, 3777, 4105, 421
16517, 3779, 153, 3663, 3854
16518, 3927, 3780, 140, 3999
16519, 3788, 3660, 3861, 447
16520, 3788, 447, 5416, 3860
16521, 5442, 3947, 3789, 3670
16522, 139, 3870, 3790, 3865
16523, 5385, 3792, 3869, 5398
16524, 5441, 3866, 3794, 3671
16525, 5922, 4077, 3978, 4098
16526, 296, 3687, 3795, 5922
16527, 3982, 3796, 3876, 4149
16528, 3944, 277, 4109, 3961
16529, 300, 3797, 3941, 3799
16530, 5834, 5833, 5861, 3979
16531, 3649, 3713, 5790, 3801
16532, 3804, 298, 5918, 3594
16533, 3942, 570, 4117, 4391
16534, 4137, 3863, 3806, 3858
16535, 3945, 3807, 563, 4091
16536, 3808, 198, 3823, 5357
16537, 5374, 3808, 5357, 5389
16538, 3910, 301, 3932, 279
16539, 3698, 3810, 3664, 3955
16540, 5598, 3951, 5517, 3811
16541, 303, 5517, 3951, 3952
16542, 3797, 300, 3435, 3604
16543, 4139, 3814, 3969, 5970
16544, 5369, 3651, 4116, 175
16545, 3948, 3883, 410, 3819
16546, 154, 3831, 3821, 5395
16547, 3823, 3628, 3845, 5373
16548, 5440, 4007, 4121, 3884
16549, 3970, 3962, 302, 3826
16550, 3827, 3856, 3839, 596
16551, 3828, 393, 3867, 5387
16552, 3829, 3956, 4106, 5370
16553, 5417, 3829, 5370, 313
16554, 3930, 4585, 5519, 4051
16555, 4094, 4079, 3903, 3839
16556, 3562, 5351, 3840, 3926
16557, 3967, 396, 4143, 5386
16558, 4383, 3842, 375, 5347
16559, 3980, 4153, 3983, 3843
16560, 316, 3801, 3843, 3983
16561, 3844, 5572, 4012, 393
16562, 3891, 4030, 4259, 3845
16563, 5389, 5357, 197, 5404
16564, 3922, 4020, 5586, 3846
16565, 3846, 5586, 150, 3824
16566, 5394, 3847, 3710, 5499
16567, 4111, 3848, 4136, 5444
16568, 563, 3807, 3848, 4111
16569, 558, 3850, 3708, 4093
16570, 5405, 5372, 3851, 151
16571, 4216, 5474, 5405, 151
16572, 3694, 3852, 3968, 5611
16573, 3854, 3734, 5372, 152
16574, 4246, 5335, 4044, 291
16575, 4291, 4148, 4420, 429
16576, 431, 4257, 3859, 4139
16577, 3859, 432, 3948, 3819
16578, 3991, 4209, 3860, 5416
16579, 3981, 4000, 413, 3853
16580, 3849, 3862, 4155, 5675
16581, 407, 5904, 3863, 4137
16582, 4017, 3864, 146, 4415
16583, 4200, 4031, 4133, 5399
16584, 147, 4008, 3866, 5441
16585, 3867, 393, 4012, 4243
16586, 4043, 223, 4134, 5402
16587, 4016, 3870, 139, 4192
16588, 5385, 4010, 5418, 3872
16589, 200, 3919, 3872, 5418
16590, 407, 4006, 5936, 3873
16591, 429, 4048, 4006, 4291
16592, 4026, 3874, 3996, 4163
16593, 3875, 4126, 4073, 5420
16594, 4001, 3689, 3791, 3904
16595, 5611, 3968, 4039, 5545
16596, 4038, 3877, 4189, 4775
16597, 3880, 4194, 5499, 3710
16598, 151, 3739, 3884, 4121
16599, 143, 3885, 4078, 4314
16600, 4187, 3886, 4035, 5371
16601, 3744, 3886, 5397, 246
16602, 4096, 269, 5346, 292
16603, 269, 5371, 3887, 5346
16604, 4081, 3889, 4175, 4449
16605, 175, 3891, 3749, 5369
16606, 4075, 3892, 4053, 5502
16607, 3892, 4075, 5500, 3731
16608, 3894, 327, 4070, 3741
16609, 3895, 4049, 4066, 5479
16610, 3896, 5449, 555, 4132
16611, 4080, 3897, 513, 4541
16612, 491, 3728, 3897, 4080
16613, 3987, 3898, 427, 4197
16614, 3899, 5422, 4083, 5381
16615, 4063, 4068, 5382, 513
16616, 5345, 292, 5340, 3857
16617, 3901, 133, 4054, 4202
16618, 4059, 4129, 3902, 5495
16619, 4149, 4001, 3904, 434
16620, 3905, 4019, 5473, 3992
16621, 5443, 3906, 141, 4211
16622, 3986, 3906, 5443, 4056
16623, 5383, 3908, 4034, 5410
16624, 3910, 4123, 3941, 3797
16625, 333, 4072, 4040, 3963
16626, 333, 3752, 3642, 4072
16627, 3912, 3758, 178, 4041
16628, 3915, 394, 5457, 4036
16629, 4003, 5437, 395, 4036
16630, 3993, 3917, 152, 4112
16631, 4116, 3917, 3993, 4245
16632, 4005, 3918, 4046, 571
16633, 200, 3997, 4127, 3919
16634, 4113, 3920, 332, 4327
16635, 3922, 149, 5516, 4020
16636, 3785, 3925, 571, 4046
16637, 4074, 4013, 5435, 3928
16638, 3928, 5435, 469, 3773
16639, 5693, 3809, 3962, 3970
16640, 275, 4077, 3933, 4120
16641, 4144, 3936, 575, 5452
16642, 4062, 3984, 3937, 3701
16643, 433, 4047, 3937, 3984
16644, 444, 4004, 3939, 4104
16645, 4102, 3939, 4004, 4368
16646, 3944, 3798, 3979, 277
16647, 3946, 421, 5406, 3994
16648, 4104, 3946, 3994, 444
16649, 148, 3990, 3947, 5442
16650, 4062, 432, 4276, 3984
16651, 220, 3760, 3949, 4089
16652, 3950, 3736, 4026, 132
16653, 3952, 3951, 4110, 281
16654, 5690, 3970, 3826, 4084
16655, 3954, 3704, 3995, 3975
16656, 5375, 5376, 3754, 3629
16657, 4238, 134, 4351, 3958
16658, 3959, 3707, 5918, 298
16659, 3961, 4099, 298, 3804
16660, 4067, 330, 4359, 4241
16661, 3960, 4241, 4359, 4761
16662, 276, 4099, 3961, 4109
16663, 4107, 3963, 4040, 4207
16664, 5505, 3964, 400, 3943
16665, 4145, 266, 4261, 3965
16666, 3965, 4261, 267, 4086
16667, 4262, 3966, 4146, 510
16668, 4255, 5386, 397, 4060
16669, 5958, 4097, 431, 5970
16670, 5690, 5691, 5693, 3970
16671, 428, 3971, 3898, 3987
16672, 4088, 3973, 4209, 3991
16673, 3709, 3973, 4088, 425
16674, 3976, 4135, 4095, 5503
16675, 4092, 3975, 4101, 5531
16676, 5503, 3811, 5455, 3976
16677, 5896, 3978, 4210, 4592
16678, 4153, 4393, 4301, 4039
16679, 4000, 3981, 4151, 5734
16680, 3982, 4149, 4158, 4167
16681, 3988, 415, 4012, 5572
16682, 3868, 4162, 5572, 3844
16683, 5401, 4412, 3989, 4069
16684, 4222, 5563, 148, 4008
16685, 3729, 3992, 5473, 577
16686, 4388, 3994, 5406, 5468
16687, 5423, 132, 4026, 4163
16688, 178, 4127, 3997, 4312
16689, 4215, 4343, 200, 5418
16690, 4231, 4410, 573, 3929
16691, 3998, 4410, 4511, 4321
16692, 3999, 140, 4178, 4319
16693, 4319, 4499, 4334, 3999
16694, 4000, 5734, 4300, 4155
16695, 3876, 412, 4001, 4149
16696, 4161, 295, 4115, 4310
16697, 5467, 4353, 4515, 5547
16698, 4171, 4005, 571, 5400
16699, 4005, 4171, 4313, 4170
16700, 4121, 4007, 4265, 5514
16701, 4229, 5530, 147, 4017
16702, 5530, 4222, 4008, 147
16703, 567, 3926, 4009, 4232
16704, 4010, 4521, 4215, 5418
16705, 4390, 5398, 4227, 224
16706, 4011, 4344, 4461, 5414
16707, 5414, 4071, 3909, 4011
16708, 3867, 4243, 5532, 4394
16709, 4223, 4408, 491, 4080
16710, 4406, 574, 4251, 5419
16711, 4281, 145, 4198, 168
16712, 4015, 4281, 4328, 4199
16713, 4320, 4178, 140, 4108
16714, 4415, 146, 4199, 4422
16715, 4184, 5446, 4290, 133
16716, 4290, 5423, 4160, 4491
16717, 5565, 5516, 5515, 4213
16718, 566, 3931, 4021, 4217
16719, 4022, 3423, 3141, 5628
16720, 4147, 327, 4159, 305
16721, 327, 3894, 4024, 4159
16722, 4270, 4025, 4377, 487
16723, 488, 3940, 4025, 4270
16724, 4324, 4456, 4224, 159
16725, 4027, 4456, 4324, 4183
16726, 4327, 4195, 331, 4113
16727, 4058, 3890, 566, 4217
16728, 4376, 4438, 4436, 397
16729, 4309, 4173, 4029, 4436
16730, 4288, 4492, 5403, 4259
16731, 4514, 4200, 4168, 161
16732, 5518, 5534, 5595, 554
16733, 4037, 4033, 4175, 3889
16734, 4453, 5383, 5410, 4751
16735, 4287, 5457, 4122, 416
16736, 4225, 5569, 4418, 417
16737, 3553, 3472, 120, 4037
16738, 3877, 4038, 3705, 5545
16739, 4039, 4301, 3877, 5545
16740, 4207, 4040, 4154, 310
16741, 155, 3855, 4041, 4280
16742, 4269, 4042, 4379, 242
16743, 243, 3938, 4042, 4269
16744, 246, 4188, 4409, 5402
16745, 5346, 3887, 4044, 5335
16746, 4221, 4045, 4364, 538
16747, 561, 3935, 4045, 4221
16748, 4172, 433, 3984, 4276
16749, 3985, 3953, 5948, 4048
16750, 4049, 266, 4439, 4066
16751, 134, 4238, 4050, 4202
16752, 4205, 4051, 5519, 4332
16753, 3930, 4051, 5448, 328
16754, 4052, 4460, 4340, 4224
16755, 4054, 133, 4169, 5571
16756, 4202, 4054, 4433, 134
16757, 4056, 5443, 4211, 4363
16758, 142, 4277, 4193, 4078
16759, 3555, 580, 4275, 3498
16760, 3893, 4191, 4065, 5466
16761, 3890, 4058, 4164, 565
16762, 4129, 4059, 535, 3726
16763, 376, 4383, 5347, 4255
16764, 4029, 4060, 397, 4436
16765, 4378, 4544, 4787, 4607
16766, 5380, 4032, 5449, 3896
16767, 3911, 136, 4456, 4027
16768, 4190, 4065, 4317, 5551
16769, 4176, 4307, 4534, 4566
16770, 4286, 4067, 4241, 353
16771, 3899, 5381, 5350, 3568
16772, 4228, 5382, 5381, 4083
16773, 572, 5401, 4069, 5379
16774, 3998, 3924, 573, 4410
16775, 4230, 4154, 311, 4090
16776, 4323, 4204, 4073, 4402
16777, 3921, 398, 5510, 4028
16778, 4074, 3728, 491, 4013
16779, 5502, 5506, 4273, 4315
16780, 4075, 5502, 4315, 4198
16781, 4401, 4311, 4076, 4187
16782, 3795, 3933, 4077, 5922
16783, 514, 4398, 4348, 4542
16784, 4550, 143, 4314, 4806
16785, 4081, 4449, 4174, 5506
16786, 3238, 3228, 5332, 4082
16787, 4082, 5332, 4238, 3958
16788, 4083, 5422, 4236, 4348
16789, 3952, 281, 4283, 4084
16790, 4085, 353, 4241, 3960
16791, 5534, 5518, 4201, 5472
16792, 4209, 3973, 424, 4416
16793, 5494, 4355, 4089, 4254
16794, 5557, 4335, 4266, 288
16795, 4250, 4091, 4413, 539
16796, 562, 3945, 4091, 4250
16797, 4237, 5531, 4150, 545
16798, 5531, 4237, 568, 4092
16799, 4135, 5454, 4147, 4095
16800, 4381, 4147, 305, 4578
16801, 4242, 292, 5345, 4106
16802, 430, 5962, 4392, 5958
16803, 5896, 4165, 4098, 3978
16804, 4296, 4339, 4235, 5889
16805, 569, 4218, 5583, 4101
16806, 4102, 466, 3766, 3611
16807, 5407, 328, 5448, 4103
16808, 4103, 5448, 4234, 4024
16809, 4023, 4105, 3964, 5505
16810, 5370, 4106, 5345, 3900
16811, 4108, 140, 3780, 3665
16812, 4271, 4186, 4110, 5650
16813, 4064, 3882, 137, 4279
16814, 4113, 331, 3730, 3612
16815, 175, 4116, 4245, 4157
16816, 3815, 3651, 5369, 3749
16817, 4117, 570, 4170, 4819
16818, 576, 3856, 4118, 4240
16819, 4404, 4341, 577, 5473
16820, 5664, 4119, 426, 5604
16821, 5387, 4122, 5457, 394
16822, 279, 4248, 4352, 4247
16823, 4124, 149, 3770, 3655
16824, 4125, 141, 3746, 3644
16825, 4073, 4126, 565, 4402
16826, 4127, 178, 3758, 3654
16827, 4128, 4357, 4248, 5759
16828, 4090, 3714, 3881, 289
16829, 4130, 3714, 4090, 311
16830, 3880, 3721, 4132, 555
16831, 5377, 138, 5399, 4133
16832, 5378, 246, 5402, 4134
16833, 4135, 3974, 4070, 5454
16834, 5454, 4070, 327, 4147
16835, 5444, 4136, 564, 4338
16836, 4148, 4291, 4137, 3858
16837, 304, 4264, 4381, 4249
16838, 145, 4140, 3731, 5500
16839, 4015, 4140, 145, 4281
16840, 3861, 4141, 5453, 447
16841, 4214, 4141, 469, 5435
16842, 4142, 3761, 574, 4406
16843, 4261, 266, 4049, 3549
16844, 4264, 4095, 4147, 4381
16845, 4278, 4303, 428, 3987
16846, 545, 4150, 546, 4506
16847, 5795, 4329, 5734, 4151
16848, 4300, 5734, 4329, 4770
16849, 4152, 294, 3980, 3957
16850, 294, 4393, 4153, 3980
16851, 4300, 4770, 4565, 5696
16852, 5696, 5675, 4155, 4300
16853, 4167, 4158, 4308, 435
16854, 4024, 4234, 4349, 4159
16855, 4396, 155, 4280, 4563
16856, 4424, 4571, 4310, 273
16857, 4161, 4310, 4571, 4292
16858, 414, 4162, 3849, 5675
16859, 4293, 3988, 414, 4299
16860, 4163, 3996, 4160, 5423
16861, 4497, 4165, 5896, 274
16862, 4165, 273, 4310, 4115
16863, 4373, 4392, 453, 4504
16864, 4392, 5962, 4166, 453
16865, 4151, 4167, 435, 5795
16866, 4514, 4322, 4031, 4200
16867, 4064, 4168, 4200, 5399
16868, 4574, 4446, 4549, 4758
16869, 4171, 548, 4852, 4313
16870, 4173, 4929, 4405, 5509
16871, 4174, 167, 4273, 5506
16872, 4449, 4175, 143, 4550
16873, 4266, 5479, 4176, 288
16874, 4316, 5462, 4427, 5520
16875, 4499, 4319, 4524, 5507
16876, 4360, 4531, 4563, 4280
16877, 580, 4057, 4182, 4275
16878, 5451, 4027, 4183, 5524
16879, 4018, 5423, 4290, 5446
16880, 4185, 4419, 4311, 4401
16881, 269, 4096, 4185, 4401
16882, 281, 4110, 4186, 4304
16883, 5371, 4035, 3719, 3887
16884, 269, 4401, 4187, 5371
16885, 4409, 247, 5535, 5478
16886, 4682, 4552, 4582, 271
16887, 4828, 4775, 4189, 293
16888, 536, 4236, 4190, 5551
16889, 5466, 4065, 4190, 5539
16890, 4191, 4057, 560, 4455
16891, 4455, 560, 4071, 5414
16892, 4320, 4016, 4384, 4503
16893, 4193, 4451, 4314, 4078
16894, 4019, 5499, 4194, 5588
16895, 5475, 4810, 5523, 308
16896, 4216, 151, 4121, 5514
16897, 4294, 4447, 4157, 4245
16898, 4244, 427, 4119, 5664
16899, 4278, 4367, 4528, 4476
16900, 4404, 5588, 554, 4341
16901, 555, 5449, 4201, 5518
16902, 4060, 4203, 376, 4255
16903, 5421, 5420, 5463, 5464
16904, 4051, 4205, 4234, 5448
16905, 4330, 4206, 4028, 4405
16906, 425, 4088, 4208, 5578
16907, 4208, 5544, 4267, 5578
16908, 5903, 4210, 5927, 4459
16909, 141, 4125, 4334, 4211
16910, 5587, 5029, 4282, 5586
16911, 4470, 4385, 5453, 4141
16912, 4343, 4517, 3997, 200
16913, 4397, 5514, 4265, 4855
16914, 543, 4569, 4302, 4217
16915, 4391, 4218, 569, 3995
16916, 4345, 4219, 443, 4493
16917, 4190, 4236, 4220, 5539
16918, 171, 4358, 5563, 4222
16919, 4337, 4408, 492, 4507
16920, 4224, 4456, 5445, 4052
16921, 4225, 4003, 4036, 5569
16922, 4515, 4353, 417, 4634
16923, 5468, 5406, 420, 4482
16924, 5406, 421, 4226, 420
16925, 4227, 223, 4043, 5484
16926, 5597, 4382, 5530, 4229
16927, 310, 4154, 4230, 5521
16928, 4231, 550, 4511, 4410
16929, 4232, 544, 4342, 4021
16930, 4233, 552, 5546, 4365
16931, 4144, 5452, 4233, 4365
16932, 5889, 4297, 4450, 255
16933, 5926, 4100, 5902, 4298
16934, 535, 4220, 4236, 5422
16935, 4348, 4236, 536, 4542
16936, 112, 4050, 4238, 5332
16937, 540, 4387, 4239, 4519
16938, 4435, 4546, 4430, 4306
16939, 415, 5599, 4243, 4012
16940, 5532, 4243, 5599, 4573
16941, 5664, 4395, 4472, 4244
16942, 3993, 4112, 5474, 4196
16943, 4295, 4246, 291, 3219
16944, 4247, 4352, 4450, 4297
16945, 4248, 4357, 4429, 4651
16946, 4389, 4249, 4432, 4431
16947, 466, 4102, 4368, 4252
16948, 5926, 4109, 277, 4100
16949, 5404, 5403, 4254, 4089
16950, 4355, 5494, 5553, 4505
16951, 3967, 5386, 4255, 5347
16952, 4256, 418, 4779, 4621
16953, 4438, 4376, 4256, 4621
16954, 4257, 431, 4097, 4268
16955, 4276, 432, 4374, 455
16956, 4259, 5403, 5373, 3845
16957, 4030, 4157, 4447, 4288
16958, 4260, 5483, 4443, 4370
16959, 487, 5470, 4263, 4270
16960, 4441, 4369, 4263, 5470
16961, 5603, 4395, 5664, 5604
16962, 426, 4131, 4267, 5604
16963, 4400, 4268, 454, 4463
16964, 4260, 4269, 242, 5483
16965, 4025, 4252, 5469, 4377
16966, 4289, 4271, 282, 4448
16967, 4543, 4346, 553, 4601
16968, 4346, 4079, 4094, 576
16969, 429, 4420, 4356, 4272
16970, 5901, 4588, 452, 4372
16971, 4315, 4273, 4414, 5608
16972, 4417, 4172, 4276, 455
16973, 4491, 4160, 4396, 156
16974, 4510, 4328, 4281, 168
16975, 4282, 5029, 4855, 4265
16976, 4357, 280, 4375, 4429
16977, 280, 4084, 4283, 4375
16978, 4118, 4284, 577, 4341
16979, 4287, 416, 4418, 5569
16980, 4447, 4294, 4570, 5548
16981, 4254, 5403, 4492, 196
16982, 4437, 4619, 258, 4421
16983, 4169, 133, 4290, 4491
16984, 4152, 4292, 5725, 294
16985, 4496, 4293, 4299, 4565
16986, 415, 3988, 4293, 4496
16987, 4570, 4294, 4196, 4773
16988, 4423, 4339, 4296, 5912
16989, 4296, 5889, 255, 5912
16990, 4235, 278, 4297, 5889
16991, 4298, 5902, 4487, 253
16992, 4611, 4452, 4298, 253
16993, 4299, 414, 5675, 5696
16994, 293, 4189, 4301, 4480
16995, 4164, 4058, 4302, 4444
16996, 4303, 4278, 4476, 5869
16997, 4547, 4670, 5869, 4476
16998, 4457, 4304, 4421, 4649
16999, 4433, 4305, 4560, 4834
17000, 4449, 4550, 4411, 4174
17001, 4185, 4096, 4306, 4430
17002, 4534, 4307, 4673, 4915
17003, 435, 4533, 4454, 5795
17004, 4680, 4309, 419, 4882
17005, 4631, 4564, 247, 4527
17006, 4517, 5465, 4312, 3997
17007, 4412, 4316, 5400, 3989
17008, 4526, 4638, 5520, 4427
17009, 4065, 4191, 4455, 4317
17010, 5481, 4695, 4317, 4455
17011, 5466, 4318, 559, 3893
17012, 4211, 4334, 4499, 5450
17013, 4384, 4016, 4192, 4481
17014, 4178, 4320, 4503, 163
17015, 4657, 4557, 4509, 4323
17016, 5593, 4324, 159, 4625
17017, 4325, 4208, 4088, 3991
17018, 5493, 5409, 4751, 308
17019, 4326, 4034, 4195, 5077
17020, 4327, 332, 4333, 5010
17021, 4199, 4328, 169, 4422
17022, 4770, 4329, 436, 4565
17023, 4032, 532, 4676, 5472
17024, 4331, 531, 4618, 4545
17025, 4623, 5554, 4679, 307
17026, 4523, 5010, 4333, 5477
17027, 514, 4537, 4336, 4398
17028, 4459, 252, 4668, 5903
17029, 4408, 4337, 4013, 491
17030, 5464, 4519, 4338, 5421
17031, 4460, 4052, 4594, 135
17032, 158, 4513, 4340, 4460
17033, 4341, 554, 5595, 4403
17034, 4517, 4343, 4500, 5529
17035, 4556, 5481, 4461, 4911
17036, 4252, 4368, 465, 5469
17037, 4233, 4346, 4543, 552
17038, 4079, 4346, 4233, 5452
17039, 5535, 5536, 4347, 5478
17040, 5498, 5484, 4347, 4540
17041, 4422, 4484, 4350, 4415
17042, 4350, 170, 5597, 4229
17043, 4834, 4351, 134, 4433
17044, 4467, 4762, 4351, 4834
17045, 4450, 4352, 256, 4602
17046, 4256, 4371, 5547, 418
17047, 4354, 4014, 4406, 5419
17048, 551, 4498, 4354, 5419
17049, 219, 4253, 4355, 4505
17050, 4670, 4588, 4356, 5869
17051, 4486, 4358, 171, 4637
17052, 5629, 5622, 172, 4362
17053, 4464, 4359, 330, 5409
17054, 4359, 4464, 5408, 4761
17055, 5465, 4360, 4179, 4312
17056, 179, 4531, 4360, 5465
17057, 4361, 544, 4232, 4009
17058, 5629, 4362, 5565, 4213
17059, 4362, 172, 4501, 5029
17060, 164, 4554, 4363, 5450
17061, 4577, 4366, 4434, 4901
17062, 450, 4367, 4197, 4380
17063, 4528, 4367, 450, 4757
17064, 4442, 4369, 4441, 509
17065, 4488, 4372, 452, 5892
17066, 4372, 453, 4166, 5901
17067, 4392, 4373, 4097, 5958
17068, 4400, 4374, 4257, 4268
17069, 4429, 4375, 4667, 257
17070, 419, 4309, 4436, 4438
17071, 4143, 4376, 397, 5386
17072, 532, 4787, 4544, 4675
17073, 4378, 4607, 4474, 511
17074, 4379, 4253, 219, 4494
17075, 4472, 4445, 4380, 4244
17076, 4432, 4249, 4578, 4644
17077, 4382, 5597, 5657, 4473
17078, 4481, 4192, 162, 4595
17079, 4471, 448, 4483, 5627
17080, 448, 4471, 4386, 5543
17081, 4386, 449, 4395, 5603
17082, 539, 4413, 4485, 4583
17083, 4091, 563, 4387, 4413
17084, 4388, 5468, 4482, 4666
17085, 443, 4219, 4388, 4666
17086, 282, 4138, 4389, 4431
17087, 4469, 4390, 224, 5567
17088, 5725, 4440, 5665, 4425
17089, 4506, 546, 4465, 4774
17090, 4801, 5651, 5614, 4573
17091, 416, 4122, 4394, 4490
17092, 4472, 4395, 449, 4788
17093, 156, 4446, 4169, 4491
17094, 4798, 4880, 5653, 4782
17095, 4773, 4397, 174, 4570
17096, 4398, 4336, 4541, 4228
17097, 4819, 4551, 4399, 4117
17098, 4419, 4185, 4430, 270
17099, 4428, 4164, 4444, 542
17100, 4479, 5595, 4545, 4618
17101, 553, 4240, 4403, 5555
17102, 5518, 554, 5588, 4194
17103, 5419, 4251, 5482, 551
17104, 4532, 4407, 160, 4771
17105, 4408, 4223, 5550, 492
17106, 4409, 4188, 4527, 247
17107, 4411, 166, 5552, 4475
17108, 4566, 4590, 288, 4176
17109, 4177, 549, 4427, 5462
17110, 167, 4475, 4587, 4477
17111, 5640, 5608, 4414, 4713
17112, 4416, 424, 3782, 3667
17113, 4437, 4421, 4304, 4186
17114, 4484, 4422, 169, 4662
17115, 4715, 4423, 5887, 4854
17116, 254, 4339, 4423, 4715
17117, 4579, 4424, 273, 5835
17118, 4292, 4571, 4440, 5725
17119, 4548, 4480, 4425, 5665
17120, 5907, 4620, 4308, 4426
17121, 4427, 549, 5590, 4526
17122, 5462, 4316, 4412, 5401
17123, 4323, 4402, 4428, 4657
17124, 4429, 257, 4639, 4651
17125, 4352, 4248, 4651, 256
17126, 4431, 4432, 283, 4567
17127, 4901, 4434, 4702, 4921
17128, 4552, 4546, 4435, 4828
17129, 4307, 4066, 4439, 4673
17130, 4440, 272, 4765, 5665
17131, 4610, 4441, 5470, 4789
17132, 509, 4672, 5434, 4442
17133, 4675, 4544, 4442, 5434
17134, 4612, 4443, 5483, 4783
17135, 265, 4673, 4443, 4612
17136, 5705, 4659, 4788, 449
17137, 4730, 4589, 4445, 5793
17138, 5573, 4549, 4446, 156
17139, 4447, 5548, 4492, 4288
17140, 4562, 4492, 5548, 5549
17141, 4797, 4555, 4289, 4448
17142, 4451, 165, 4568, 5476
17143, 4806, 4314, 4451, 5476
17144, 308, 4863, 4671, 5493
17145, 5383, 4453, 330, 4067
17146, 4533, 435, 4308, 4620
17147, 5445, 4456, 136, 3934
17148, 4457, 4667, 4375, 4283
17149, 4592, 4210, 5903, 251
17150, 4455, 5414, 4461, 5481
17151, 4463, 454, 4599, 4749
17152, 5409, 330, 4453, 4751
17153, 4464, 5409, 5493, 4671
17154, 4551, 4580, 4508, 4399
17155, 415, 4496, 4573, 5599
17156, 4844, 4803, 4688, 157
17157, 4468, 4584, 4684, 4763
17158, 5528, 4521, 4469, 4746
17159, 5567, 224, 5498, 4586
17160, 4483, 448, 4385, 4470
17161, 5627, 4659, 5705, 4471
17162, 170, 4791, 5657, 5597
17163, 5552, 4677, 5607, 4703
17164, 5921, 4686, 4670, 4547
17165, 4698, 4477, 4587, 189
17166, 4897, 4835, 4713, 4698
17167, 4893, 4712, 5581, 4839
17168, 4478, 4712, 4893, 5522
17169, 4480, 4548, 4582, 293
17170, 5574, 5511, 4481, 4595
17171, 4507, 4598, 4704, 470
17172, 4662, 169, 4593, 5062
17173, 4596, 4484, 4662, 4918
17174, 4485, 540, 4575, 4665
17175, 172, 4732, 4616, 4501
17176, 5892, 452, 4686, 4674
17177, 4644, 4578, 305, 4489
17178, 4640, 5533, 4705, 464
17179, 465, 4345, 4493, 5533
17180, 242, 4379, 4494, 4654
17181, 4653, 4495, 4748, 486
17182, 487, 4377, 4495, 4653
17183, 4664, 4708, 4497, 274
17184, 4497, 5835, 273, 4165
17185, 4498, 551, 4632, 4722
17186, 5556, 4498, 4722, 528
17187, 164, 5450, 4499, 5507
17188, 4500, 201, 4603, 4729
17189, 4731, 173, 4501, 4616
17190, 4643, 4614, 538, 4502
17191, 4502, 538, 4364, 4764
17192, 4504, 453, 5890, 4609
17193, 5583, 4508, 546, 4150
17194, 169, 4328, 4510, 4593
17195, 4511, 550, 5556, 4529
17196, 4511, 4529, 5589, 4321
17197, 4522, 4514, 161, 4727
17198, 417, 4418, 439, 4634
17199, 4634, 4785, 5585, 4515
17200, 5465, 4517, 5529, 179
17201, 4518, 4554, 164, 5568
17202, 4701, 4913, 4719, 541
17203, 4215, 4521, 5528, 201
17204, 4650, 4727, 161, 4532
17205, 4617, 4595, 162, 4522
17206, 5010, 4523, 309, 5077
17207, 4523, 5477, 4660, 5522
17208, 4622, 4524, 163, 5512
17209, 4929, 4525, 4330, 4405
17210, 442, 4666, 4711, 4792
17211, 4526, 5590, 5643, 4638
17212, 4631, 4311, 4419, 5508
17213, 4757, 450, 4589, 4812
17214, 4757, 4814, 451, 4528
17215, 4529, 5556, 528, 4794
17216, 552, 4627, 4767, 5546
17217, 5573, 4563, 4531, 5610
17218, 179, 4605, 5610, 4531
17219, 160, 4629, 5645, 4771
17220, 4745, 4650, 4532, 4771
17221, 4533, 4717, 4896, 4454
17222, 4623, 4600, 306, 5554
17223, 4535, 4709, 5008, 4911
17224, 544, 4361, 4536, 4641
17225, 514, 4624, 4626, 4537
17226, 543, 4342, 4538, 4628
17227, 4613, 4625, 159, 5525
17228, 4625, 4629, 4539, 5593
17229, 4586, 5498, 4540, 4795
17230, 4228, 4541, 513, 5382
17231, 4692, 4682, 271, 4965
17232, 270, 4430, 4546, 4692
17233, 4547, 451, 4691, 5921
17234, 5921, 4691, 4892, 4686
17235, 5665, 4765, 4815, 4548
17236, 4582, 4548, 4815, 271
17237, 4560, 4574, 157, 4688
17238, 166, 4411, 4550, 4806
17239, 4580, 4551, 4706, 4777
17240, 546, 4508, 4580, 4465
17241, 4604, 4775, 4828, 4435
17242, 4657, 4689, 4683, 4557
17243, 542, 4444, 4553, 5594
17244, 4826, 4690, 4829, 5612
17245, 4695, 5481, 4556, 5527
17246, 541, 4509, 4557, 4701
17247, 4558, 4710, 4679, 5461
17248, 329, 4458, 4585, 3836
17249, 4700, 4568, 165, 4559
17250, 4559, 165, 4518, 5568
17251, 4574, 4560, 4305, 4446
17252, 4467, 4688, 4803, 4572
17253, 4822, 4561, 471, 5711
17254, 4659, 5627, 4561, 4822
17255, 196, 4492, 4562, 4630
17256, 4563, 5573, 156, 4396
17257, 5508, 4681, 4564, 4631
17258, 4565, 436, 4696, 4801
17259, 166, 4760, 4677, 5552
17260, 5548, 4570, 174, 5549
17261, 4424, 4579, 5761, 272
17262, 272, 4440, 4571, 4424
17263, 4572, 4803, 5480, 158
17264, 4460, 135, 4572, 158
17265, 5532, 4573, 5614, 4466
17266, 4575, 4719, 4913, 5613
17267, 4991, 4665, 4575, 5613
17268, 4576, 456, 4468, 4763
17269, 4576, 4842, 4702, 4434
17270, 5907, 4577, 4901, 457
17271, 4156, 4577, 5907, 4426
17272, 4579, 4768, 4912, 5761
17273, 4777, 4706, 4886, 4850
17274, 4696, 436, 4753, 4849
17275, 4809, 4764, 4583, 5115
17276, 4663, 4584, 455, 4512
17277, 4684, 4584, 4663, 477
17278, 4458, 329, 4761, 5408
17279, 4475, 5552, 4703, 4587
17280, 4711, 4666, 4482, 4525
17281, 4272, 4356, 4588, 5901
17282, 5624, 287, 4712, 4478
17283, 4478, 5566, 4590, 5624
17284, 4450, 4602, 5891, 255
17285, 135, 4594, 3835, 4762
17286, 4784, 5621, 5574, 4595
17287, 4791, 4596, 192, 4808
17288, 4768, 4597, 250, 5812
17289, 4597, 5835, 4497, 4708
17290, 4493, 4838, 4705, 5533
17291, 4697, 4598, 4507, 492
17292, 4601, 553, 5555, 4728
17293, 5660, 4627, 4743, 4908
17294, 4830, 4602, 4733, 5839
17295, 5023, 4716, 4830, 5839
17296, 4920, 4656, 4729, 5701
17297, 230, 4661, 4755, 4902
17298, 4607, 4061, 533, 4474
17299, 4790, 4638, 5643, 527
17300, 5590, 5589, 4608, 5643
17301, 4781, 4609, 475, 4878
17302, 4945, 4789, 4653, 486
17303, 509, 4441, 4610, 4750
17304, 4465, 524, 4813, 4774
17305, 4625, 4613, 5671, 4629
17306, 4614, 4836, 4709, 4535
17307, 4732, 172, 4486, 4747
17308, 4958, 4616, 4845, 5714
17309, 4595, 4617, 184, 4784
17310, 4672, 4724, 531, 5471
17311, 5596, 4905, 5609, 4728
17312, 457, 4769, 4620, 5907
17313, 4642, 4779, 418, 5585
17314, 4779, 4861, 4742, 4621
17315, 5512, 5511, 5574, 4658
17316, 284, 4600, 4623, 4780
17317, 514, 4542, 5606, 4624
17318, 4922, 5237, 4817, 5758
17319, 4726, 4767, 530, 4906
17320, 4824, 4862, 5661, 4925
17321, 4745, 4771, 5645, 182
17322, 4645, 4739, 4825, 4891
17323, 4682, 4692, 4546, 4552
17324, 4722, 4632, 529, 4909
17325, 4633, 186, 4829, 4690
17326, 4317, 4695, 4516, 5551
17327, 537, 4635, 5527, 4556
17328, 4710, 4738, 307, 4679
17329, 256, 4651, 4639, 5823
17330, 522, 4737, 4538, 4641
17331, 4944, 4642, 5638, 440
17332, 4836, 4643, 4837, 516
17333, 283, 4432, 4644, 4740
17334, 4752, 5579, 218, 4890
17335, 4759, 5670, 5614, 5651
17336, 4647, 4506, 4774, 523
17337, 4564, 4772, 5537, 5536
17338, 4648, 4867, 5018, 4795
17339, 4649, 4685, 4667, 4457
17340, 4727, 4650, 183, 4786
17341, 4844, 4735, 5480, 4803
17342, 4783, 4654, 241, 5580
17343, 4776, 4655, 4835, 4916
17344, 4656, 4920, 4997, 4605
17345, 4659, 4822, 5793, 4788
17346, 5521, 4660, 5477, 310
17347, 4523, 5522, 4893, 309
17348, 4661, 4864, 4756, 5906
17349, 4487, 4661, 5906, 253
17350, 4708, 4664, 4831, 5036
17351, 4665, 4991, 5063, 4699
17352, 5903, 4668, 4766, 251
17353, 4746, 4469, 5567, 4586
17354, 4603, 4669, 202, 4816
17355, 4738, 4710, 4863, 4924
17356, 4750, 4724, 4672, 509
17357, 5471, 4675, 5434, 4672
17358, 5881, 4914, 5818, 5880
17359, 531, 4331, 4676, 5471
17360, 5472, 4676, 4331, 5534
17361, 4754, 5713, 4868, 4978
17362, 5461, 4679, 5554, 4332
17363, 4929, 4680, 4711, 4525
17364, 4681, 4965, 4772, 4564
17365, 4847, 4683, 4955, 4973
17366, 4763, 4684, 4827, 478
17367, 4827, 4684, 477, 4980
17368, 4841, 234, 4741, 4685
17369, 257, 4667, 4685, 4741
17370, 4687, 258, 4694, 4881
17371, 4687, 4881, 235, 4841
17372, 4873, 4844, 157, 4802
17373, 4683, 4689, 5130, 4955
17374, 4928, 5655, 5612, 4829
17375, 5568, 4690, 4826, 4559
17376, 4692, 4965, 4681, 270
17377, 4915, 265, 4736, 5261
17378, 5261, 4888, 287, 4693
17379, 4799, 537, 5008, 5042
17380, 4628, 4862, 4569, 543
17381, 437, 4696, 4849, 5164
17382, 4801, 4696, 437, 5651
17383, 5711, 4697, 4953, 5016
17384, 189, 4848, 4897, 4698
17385, 4700, 4559, 4826, 187
17386, 519, 4913, 4701, 4847
17387, 4921, 4865, 457, 4901
17388, 4587, 4703, 5662, 189
17389, 4483, 4704, 4561, 5627
17390, 4852, 4843, 547, 4313
17391, 4970, 5001, 458, 5874
17392, 5001, 4840, 4707, 458
17393, 250, 4597, 4708, 5036
17394, 5042, 5008, 4709, 4952
17395, 4710, 4558, 4671, 4863
17396, 4792, 4711, 4680, 4882
17397, 5581, 4712, 287, 5625
17398, 4655, 5640, 4713, 4835
17399, 4714, 4502, 4764, 4809
17400, 4950, 4917, 4837, 4714
17401, 5843, 4591, 4716, 232
17402, 5874, 4896, 4717, 4769
17403, 4718, 4898, 4613, 5525
17404, 5020, 4720, 4851, 5600
17405, 4720, 5020, 4843, 4852
17406, 4723, 4750, 4610, 4846
17407, 5237, 5068, 4725, 4817
17408, 4537, 4626, 4725, 5550
17409, 4767, 4726, 4530, 5546
17410, 4729, 4603, 4816, 5701
17411, 4822, 4904, 4730, 5793
17412, 4858, 5860, 5823, 4639
17413, 5839, 4733, 5823, 5860
17414, 4734, 475, 4609, 5890
17415, 4873, 4802, 4997, 180
17416, 4873, 5006, 4735, 4844
17417, 4736, 265, 4612, 4856
17418, 5523, 4956, 4924, 4863
17419, 4899, 4738, 4924, 4935
17420, 4630, 195, 4825, 4739
17421, 4877, 284, 4876, 4976
17422, 4601, 4728, 4743, 4543
17423, 4908, 4743, 4728, 5609
17424, 5868, 4744, 5139, 229
17425, 4756, 4744, 252, 5923
17426, 4907, 4745, 182, 5009
17427, 225, 4746, 4586, 4795
17428, 4746, 225, 4926, 4900
17429, 4910, 4747, 193, 4983
17430, 4747, 4910, 5027, 4732
17431, 476, 4749, 4599, 4781
17432, 4807, 4723, 508, 4986
17433, 4326, 5077, 309, 5169
17434, 5579, 4752, 4494, 219
17435, 4840, 4753, 4581, 4707
17436, 4887, 4754, 4978, 4933
17437, 4755, 4606, 231, 5830
17438, 5610, 4758, 4549, 5573
17439, 4982, 5738, 4889, 5125
17440, 4759, 4982, 4868, 5713
17441, 4568, 4700, 4823, 5540
17442, 4677, 4760, 5540, 5302
17443, 4765, 5712, 4821, 4815
17444, 4767, 4627, 5660, 530
17445, 4768, 5812, 4879, 4912
17446, 5031, 4865, 4921, 479
17447, 4773, 4196, 5474, 4216
17448, 4776, 5047, 5062, 4593
17449, 5630, 4951, 4853, 185
17450, 186, 4633, 4778, 5032
17451, 4959, 4880, 4798, 5605
17452, 5658, 5580, 241, 5037
17453, 4784, 4954, 4857, 5621
17454, 5621, 4857, 4658, 5574
17455, 4887, 4872, 439, 4678
17456, 5380, 4787, 532, 4032
17457, 4061, 4607, 4787, 5380
17458, 4472, 4788, 5793, 4445
17459, 4885, 4790, 527, 5022
17460, 4210, 3978, 4077, 5927
17461, 4866, 4792, 4882, 4938
17462, 4820, 4974, 4871, 523
17463, 522, 4641, 4793, 5017
17464, 5822, 259, 4833, 5035
17465, 4796, 4870, 4948, 4811
17466, 4797, 5108, 260, 4833
17467, 259, 4555, 4797, 4833
17468, 174, 5605, 4798, 5549
17469, 173, 4959, 5605, 4855
17470, 5648, 4799, 5042, 515
17471, 4624, 5606, 4799, 5648
17472, 4931, 4966, 4874, 181
17473, 182, 5645, 4800, 5019
17474, 5006, 4873, 180, 5040
17475, 4740, 4644, 4489, 4600
17476, 193, 4637, 4473, 4805
17477, 4986, 4908, 5609, 4807
17478, 4808, 192, 4960, 5026
17479, 4983, 193, 4808, 5026
17480, 4810, 5136, 4956, 5523
17481, 5475, 308, 4751, 5410
17482, 4811, 4948, 5003, 5864
17483, 4811, 235, 4881, 4694
17484, 5879, 5101, 5815, 473
17485, 4813, 524, 5697, 4936
17486, 5168, 5058, 4974, 4820
17487, 451, 4814, 5089, 4691
17488, 4757, 4812, 5101, 4814
17489, 5040, 5701, 4930, 5672
17490, 4816, 202, 4930, 5701
17491, 4818, 5634, 4898, 4718
17492, 4947, 5712, 5761, 4912
17493, 4941, 248, 4964, 5123
17494, 4823, 4700, 187, 5636
17495, 5005, 4823, 5636, 5172
17496, 4925, 5687, 5631, 4824
17497, 4824, 5631, 5594, 4553
17498, 5714, 4932, 5043, 5654
17499, 4919, 4932, 5714, 4845
17500, 4928, 4829, 186, 5061
17501, 5893, 4859, 4831, 4766
17502, 259, 5822, 4870, 4796
17503, 190, 4916, 4835, 4897
17504, 4836, 4927, 4952, 4709
17505, 4939, 4838, 5644, 4866
17506, 5034, 4705, 4838, 4939
17507, 4893, 4839, 5169, 309
17508, 5581, 4963, 5136, 4839
17509, 5056, 4961, 5001, 5114
17510, 4841, 235, 5033, 234
17511, 4946, 4842, 478, 5806
17512, 4921, 4702, 5073, 479
17513, 4706, 547, 4843, 4886
17514, 4919, 194, 5015, 5097
17515, 4723, 4846, 5118, 508
17516, 4848, 189, 5662, 4967
17517, 437, 5164, 4889, 5738
17518, 5024, 5639, 525, 5098
17519, 5697, 4962, 5792, 4936
17520, 4937, 4851, 526, 5021
17521, 525, 5020, 5600, 5098
17522, 5041, 4853, 4951, 5272
17523, 4957, 5843, 232, 5086
17524, 231, 4715, 4854, 5819
17525, 4954, 5050, 5630, 4857
17526, 5630, 5050, 5264, 4951
17527, 5860, 4858, 4972, 233
17528, 5827, 5038, 5893, 4766
17529, 4975, 5036, 5066, 227
17530, 5868, 5080, 5827, 4860
17531, 4742, 4861, 441, 4938
17532, 4628, 521, 5661, 4862
17533, 4864, 230, 4934, 5139
17534, 4884, 4865, 5031, 5076
17535, 4939, 5100, 5078, 5034
17536, 442, 4792, 4866, 5644
17537, 4964, 248, 4832, 5666
17538, 5713, 4754, 438, 4646
17539, 4309, 4680, 4929, 4173
17540, 4869, 4968, 5046, 5178
17541, 236, 4948, 4870, 5865
17542, 4871, 4974, 5216, 5051
17543, 5051, 5756, 5731, 5017
17544, 4872, 5049, 5148, 5014
17545, 5716, 5019, 5044, 205
17546, 5093, 4875, 4979, 505
17547, 5053, 5013, 4875, 5093
17548, 4876, 4977, 5048, 5083
17549, 4976, 261, 5186, 4949
17550, 4877, 4976, 4949, 4804
17551, 4878, 475, 5818, 4992
17552, 5099, 4990, 4895, 476
17553, 4879, 5087, 5739, 249
17554, 173, 4731, 4880, 4959
17555, 4731, 4958, 5653, 4880
17556, 4883, 5190, 5128, 5782
17557, 5782, 5128, 212, 5085
17558, 5013, 5022, 527, 5673
17559, 5710, 5676, 5106, 5213
17560, 4850, 4886, 525, 5639
17561, 5134, 5252, 5765, 5120
17562, 5012, 4890, 5102, 240
17563, 241, 4752, 4890, 5012
17564, 4891, 218, 5579, 4645
17565, 4892, 474, 4674, 4686
17566, 192, 4596, 4918, 4923
17567, 5002, 4894, 4985, 5140
17568, 521, 4737, 4894, 5131
17569, 4980, 477, 4895, 5004
17570, 458, 4707, 4896, 5874
17571, 4613, 4898, 181, 5671
17572, 285, 4636, 4899, 4935
17573, 4669, 4900, 5674, 202
17574, 5830, 5088, 4902, 4755
17575, 5007, 4903, 5105, 485
17576, 486, 4748, 4903, 5007
17577, 5016, 5070, 5724, 4904
17578, 4724, 4807, 5609, 4905
17579, 529, 4726, 4906, 4993
17580, 4988, 4906, 530, 4994
17581, 4907, 5009, 5084, 4998
17582, 4909, 4984, 5121, 4979
17583, 4983, 5081, 5799, 4910
17584, 537, 4556, 4911, 5008
17585, 249, 4947, 4912, 4879
17586, 4987, 4913, 519, 5668
17587, 5613, 518, 5667, 4991
17588, 5096, 5873, 5011, 5784
17589, 5873, 5096, 4914, 474
17590, 4915, 4693, 4566, 4534
17591, 5039, 190, 5028, 5270
17592, 5047, 4776, 4916, 5663
17593, 516, 4837, 4917, 5065
17594, 4919, 4845, 5027, 194
17595, 5073, 4702, 4842, 4946
17596, 5237, 4922, 5146, 5075
17597, 5079, 4952, 4927, 5144
17598, 5737, 5112, 5813, 215
17599, 286, 4935, 4924, 4956
17600, 5631, 520, 5130, 5594
17601, 5018, 5054, 225, 4795
17602, 5231, 5157, 5692, 5054
17603, 5068, 5237, 5075, 4953
17604, 5122, 5082, 187, 5635
17605, 202, 5674, 5072, 4930
17606, 4818, 5149, 5124, 5634
17607, 5196, 5124, 5149, 5158
17608, 4966, 4931, 5059, 204
17609, 4891, 4825, 5043, 4932
17610, 4934, 5151, 229, 5139
17611, 4962, 5697, 4850, 5639
17612, 5100, 4938, 441, 5092
17613, 5078, 4996, 5646, 5034
17614, 5732, 4940, 5157, 203
17615, 5200, 5018, 4867, 4941
17616, 4971, 4942, 472, 5724
17617, 4944, 5025, 441, 4861
17618, 486, 5007, 5064, 4945
17619, 5118, 4846, 4945, 5064
17620, 5141, 5073, 4946, 5187
17621, 5712, 4947, 5666, 4821
17622, 5111, 5736, 5186, 5307
17623, 517, 4950, 4809, 5115
17624, 5272, 4951, 5264, 208
17625, 5068, 4953, 4697, 492
17626, 4969, 184, 4869, 5178
17627, 5050, 4954, 4969, 207
17628, 4989, 5091, 5152, 208
17629, 5654, 5653, 4958, 5714
17630, 192, 4923, 5737, 4960
17631, 5127, 5026, 4960, 5797
17632, 5164, 4849, 4961, 5056
17633, 5639, 5024, 5745, 4962
17634, 5745, 5310, 5792, 4962
17635, 4888, 5679, 5625, 287
17636, 5052, 4821, 5666, 4832
17637, 5123, 4964, 249, 5739
17638, 4832, 4965, 271, 5052
17639, 5080, 5828, 5159, 5796
17640, 5893, 5038, 228, 5226
17641, 5085, 5220, 5270, 5028
17642, 4998, 4968, 183, 4907
17643, 5046, 4968, 4998, 206
17644, 493, 5126, 4971, 5150
17645, 5110, 5837, 5033, 5184
17646, 5090, 4973, 5119, 5183
17647, 519, 4847, 4973, 5090
17648, 4975, 5812, 250, 5036
17649, 4977, 285, 5055, 5048
17650, 4978, 4868, 460, 5060
17651, 498, 5116, 4980, 5004
17652, 460, 4868, 4982, 5125
17653, 5214, 5015, 5081, 5227
17654, 4985, 522, 5017, 5731
17655, 5140, 5116, 498, 5002
17656, 5145, 5095, 4986, 508
17657, 518, 4987, 5133, 5667
17658, 4913, 4987, 518, 5613
17659, 4989, 5212, 5088, 5830
17660, 5004, 5104, 5771, 498
17661, 4991, 5667, 5669, 5063
17662, 5137, 4992, 5780, 496
17663, 4908, 4986, 5095, 4994
17664, 4995, 207, 5721, 5074
17665, 478, 4827, 5000, 5844
17666, 5002, 498, 5771, 5195
17667, 5131, 4894, 5002, 5195
17668, 5182, 5003, 5117, 5220
17669, 5082, 5722, 5636, 187
17670, 188, 5005, 5172, 5698
17671, 5006, 5201, 5030, 4735
17672, 5238, 507, 5171, 5189
17673, 5009, 182, 5019, 5716
17674, 205, 5287, 5166, 5716
17675, 5103, 5011, 5873, 4981
17676, 495, 5133, 5193, 5784
17677, 5037, 5154, 5218, 5107
17678, 5022, 5013, 5053, 5106
17679, 4608, 5673, 527, 5643
17680, 5148, 5789, 5717, 5014
17681, 440, 5638, 5014, 5717
17682, 217, 5097, 5015, 5214
17683, 5711, 5016, 4904, 4822
17684, 5021, 526, 4885, 5676
17685, 5109, 5199, 5838, 5023
17686, 232, 4716, 5023, 5838
17687, 5025, 5057, 5240, 5177
17688, 5254, 5039, 5270, 213
17689, 5149, 4818, 5030, 5201
17690, 5076, 5031, 480, 5174
17691, 5695, 5032, 5041, 209
17692, 5069, 5837, 5110, 5194
17693, 4887, 4933, 5049, 4872
17694, 464, 4705, 5034, 5646
17695, 260, 4949, 5186, 5736
17696, 5821, 4943, 5794, 237
17697, 5037, 5107, 264, 5658
17698, 5224, 5241, 5796, 5159
17699, 5038, 5796, 5241, 228
17700, 5254, 5278, 5702, 5206
17701, 190, 5039, 5663, 4916
17702, 5149, 5201, 5672, 5158
17703, 5152, 5767, 5272, 208
17704, 5032, 5695, 5061, 186
17705, 204, 5179, 5044, 4966
17706, 5076, 5045, 4970, 4884
17707, 206, 5151, 5207, 5046
17708, 5178, 5046, 5207, 5721
17709, 5062, 5047, 5637, 191
17710, 5143, 5083, 5048, 5774
17711, 262, 5774, 5048, 5055
17712, 5225, 5852, 461, 5060
17713, 5717, 462, 5057, 440
17714, 5088, 5212, 207, 4995
17715, 5212, 5264, 5050, 207
17716, 5756, 5129, 499, 5731
17717, 4985, 5731, 499, 5140
17718, 5106, 5053, 504, 5213
17719, 5246, 5157, 5231, 5763
17720, 285, 4935, 5707, 5055
17721, 5245, 5164, 5056, 5211
17722, 5211, 5255, 459, 5245
17723, 5092, 5177, 5279, 5203
17724, 5058, 500, 5216, 4974
17725, 5196, 5197, 5059, 5124
17726, 5060, 460, 5175, 5266
17727, 5122, 5655, 5229, 210
17728, 5239, 5669, 5163, 5729
17729, 5171, 5118, 5064, 5189
17730, 5226, 228, 5165, 5242
17731, 5067, 517, 5142, 5275
17732, 5162, 5244, 5192, 5772
17733, 5194, 5230, 5746, 5271
17734, 5188, 5271, 5109, 233
17735, 5150, 4971, 5724, 5070
17736, 5210, 5112, 5071, 5234
17737, 5196, 5158, 203, 5773
17738, 5150, 5146, 5144, 493
17739, 5075, 5146, 5150, 5070
17740, 5092, 5203, 5078, 5100
17741, 5146, 4922, 5079, 5144
17742, 515, 5079, 4922, 5758
17743, 5151, 5159, 5828, 229
17744, 5081, 4983, 216, 5227
17745, 211, 5230, 5194, 5110
17746, 5083, 261, 4976, 4876
17747, 206, 4998, 5084, 5704
17748, 212, 5182, 5220, 5085
17749, 4957, 5767, 5152, 5819
17750, 5123, 5739, 5167, 5744
17751, 5212, 4989, 208, 5264
17752, 5856, 5089, 5879, 473
17753, 5735, 5703, 496, 5780
17754, 5767, 4957, 5086, 209
17755, 5153, 5093, 505, 5248
17756, 212, 5184, 5094, 5182
17757, 5864, 5094, 235, 4811
17758, 507, 5095, 5145, 5171
17759, 5780, 4914, 5096, 5735
17760, 5097, 217, 5102, 4999
17761, 5138, 4937, 5021, 503
17762, 5024, 5098, 5299, 502
17763, 5099, 4878, 4992, 5137
17764, 5102, 217, 5215, 240
17765, 5856, 5160, 4981, 4892
17766, 497, 5104, 4990, 5221
17767, 463, 5217, 485, 5105
17768, 5021, 5676, 5710, 503
17769, 5181, 5107, 5252, 5679
17770, 5198, 5111, 5307, 5233
17771, 5737, 215, 5797, 4960
17772, 5071, 5112, 5737, 4923
17773, 5154, 5012, 240, 5699
17774, 5205, 5113, 5256, 5312
17775, 5031, 479, 5886, 5863
17776, 5114, 5045, 5841, 481
17777, 5135, 5185, 236, 5865
17778, 5730, 5161, 4925, 5661
17779, 5134, 5120, 286, 4963
17780, 5765, 5208, 5707, 5120
17781, 4979, 5121, 5281, 505
17782, 5167, 5739, 5087, 5781
17783, 5258, 5175, 460, 5125
17784, 5772, 5192, 5126, 493
17785, 494, 5228, 5160, 5219
17786, 5191, 5127, 5797, 5301
17787, 5129, 5756, 5155, 5806
17788, 500, 5187, 5155, 5216
17789, 4955, 5130, 520, 5689
17790, 5594, 5130, 4689, 542
17791, 5730, 5661, 521, 5131
17792, 5209, 5727, 5277, 5243
17793, 5132, 501, 5310, 5745
17794, 5228, 494, 5239, 5729
17795, 5202, 5135, 5821, 237
17796, 4326, 5169, 4810, 5475
17797, 5183, 496, 5703, 5090
17798, 5223, 5138, 503, 5262
17799, 5170, 5256, 5141, 5187
17800, 5113, 5886, 5141, 5256
17801, 5163, 5669, 5667, 5133
17802, 261, 5083, 5143, 5775
17803, 493, 5144, 5065, 5772
17804, 506, 5147, 5232, 5289
17805, 5789, 5804, 5280, 5718
17806, 5672, 4930, 5072, 5158
17807, 5151, 206, 5704, 5159
17808, 5041, 5272, 5767, 209
17809, 5274, 5699, 5303, 5304
17810, 5154, 5699, 5274, 5218
17811, 5051, 5216, 5155, 5756
17812, 5692, 5157, 4940, 4926
17813, 5158, 5072, 5732, 203
17814, 5084, 5166, 5224, 5704
17815, 473, 5219, 5160, 5856
17816, 5688, 5265, 5689, 520
17817, 5161, 5688, 5687, 4925
17818, 5065, 4917, 5162, 5772
17819, 5163, 5133, 495, 5729
17820, 459, 4889, 5164, 5245
17821, 5242, 5179, 204, 5247
17822, 5241, 5224, 5166, 5287
17823, 5231, 5200, 5744, 5763
17824, 5168, 4936, 5792, 5313
17825, 5313, 5811, 5850, 5058
17826, 5170, 500, 5058, 5850
17827, 211, 5747, 5288, 5698
17828, 5851, 5853, 5852, 5276
17829, 5276, 5282, 5817, 5851
17830, 5858, 5243, 5174, 480
17831, 5277, 5841, 5174, 5243
17832, 5273, 214, 5202, 237
17833, 5240, 5057, 462, 5718
17834, 4969, 5178, 5721, 207
17835, 205, 5044, 5179, 5807
17836, 4975, 5180, 5781, 5087
17837, 5659, 5181, 5679, 4888
17838, 5252, 5107, 5218, 263
17839, 5182, 5094, 5864, 5003
17840, 496, 5183, 5221, 5137
17841, 5199, 5229, 209, 5086
17842, 5185, 213, 5117, 236
17843, 5307, 5186, 261, 5775
17844, 5187, 4946, 5806, 5155
17845, 5069, 5194, 5271, 5188
17846, 5232, 507, 5238, 5300
17847, 5747, 5128, 5251, 5288
17848, 215, 5250, 5301, 5797
17849, 5820, 5295, 5824, 5263
17850, 5192, 494, 5219, 5126
17851, 4987, 5668, 5193, 5133
17852, 5131, 5195, 5161, 5730
17853, 5110, 5184, 5747, 211
17854, 5197, 5196, 5773, 5249
17855, 5059, 5197, 5247, 204
17856, 5249, 5773, 5246, 5306
17857, 5235, 5198, 5233, 238
17858, 5838, 5199, 5086, 232
17859, 5054, 5018, 5200, 5231
17860, 5273, 237, 5198, 5235
17861, 214, 5702, 5278, 5202
17862, 463, 4996, 5203, 5279
17863, 5293, 5296, 5842, 482
17864, 5132, 5209, 5285, 501
17865, 5113, 5205, 5863, 5886
17866, 5039, 5254, 5206, 5663
17867, 214, 5210, 5234, 5702
17868, 5831, 5207, 5151, 4934
17869, 5132, 502, 5727, 5209
17870, 5257, 5277, 5727, 5726
17871, 5176, 5210, 214, 5273
17872, 5291, 5211, 481, 5257
17873, 5293, 5262, 503, 5710
17874, 217, 5214, 5290, 5215
17875, 5215, 5263, 5267, 240
17876, 5284, 484, 5298, 5719
17877, 5222, 5104, 497, 5265
17878, 5276, 5852, 5225, 483
17879, 227, 5066, 5226, 5242
17880, 5893, 5226, 5066, 4859
17881, 5244, 5275, 494, 5192
17882, 495, 5103, 5228, 5729
17883, 5722, 5230, 5172, 5636
17884, 5289, 5232, 5300, 5309
17885, 5849, 5233, 5307, 5775
17886, 5206, 5702, 5234, 5637
17887, 5250, 5235, 238, 5301
17888, 5248, 5286, 5283, 483
17889, 5189, 485, 5268, 5238
17890, 5669, 5239, 5142, 5063
17891, 5240, 5269, 5279, 5177
17892, 5165, 228, 5241, 5287
17893, 5285, 5205, 5312, 501
17894, 5157, 5246, 5773, 203
17895, 227, 5242, 5247, 5810
17896, 5281, 5286, 5248, 505
17897, 5294, 483, 5225, 5308
17898, 5250, 215, 5813, 5176
17899, 188, 5251, 5190, 5260
17900, 5765, 5252, 263, 5292
17901, 5679, 5252, 5134, 5625
17902, 262, 5208, 5259, 5808
17903, 5305, 5849, 5816, 5253
17904, 482, 5204, 5255, 5814
17905, 5312, 5256, 5170, 5850
17906, 5175, 5258, 5840, 5266
17907, 5258, 5125, 5204, 5842
17908, 5274, 5292, 263, 5218
17909, 5259, 5292, 5274, 5304
17910, 5807, 5165, 5287, 205
17911, 5261, 4736, 5659, 4888
17912, 5267, 5263, 5824, 5303
17913, 5265, 497, 5119, 5689
17914, 5268, 485, 5217, 5298
17915, 5284, 5719, 5718, 5280
17916, 210, 5109, 5271, 5746
17917, 5297, 504, 5153, 5294
17918, 5267, 5303, 5699, 240
17919, 5275, 5142, 5239, 494
17920, 5276, 483, 5283, 5282
17921, 5851, 5817, 5173, 5853
17922, 5817, 5284, 5280, 5173
17923, 5286, 5156, 5236, 5283
17924, 5282, 484, 5284, 5817
17925, 484, 5282, 5283, 5236
17926, 5309, 484, 5236, 5289
17927, 5288, 5251, 188, 5698
17928, 5255, 5211, 5291, 5814
17929, 5223, 5291, 5257, 5726
17930, 5297, 5296, 5213, 504
17931, 5293, 482, 5814, 5262
17932, 5840, 5296, 5297, 5308
17933, 239, 5824, 5295, 5311
17934, 5258, 5842, 5296, 5840
17935, 5304, 5303, 5824, 239
17936, 238, 5233, 5849, 5305
17937, 5306, 5246, 5763, 226
17938, 5306, 226, 5781, 5180
17939, 5811, 5313, 5792, 5310
17940, 238, 5311, 5191, 5301
17941, 5318, 787, 778, 852
17942, 5319, 777, 775, 850
17943, 5320, 889, 5324, 954
17944, 997, 5344, 1042, 5325
17945, 1011, 5326, 1005, 5338
17946, 5327, 1027, 5339, 1088
17947, 5346, 5335, 5340, 292
17948, 1021, 5342, 968, 5355
17949, 921, 854, 859, 862
17950, 5393, 5355, 1020, 1079
17951, 5358, 1124, 1160, 1223
17952, 1053, 5360, 1050, 5392
17953, 5361, 1002, 5388, 1006
17954, 995, 5363, 938, 5436
17955, 5368, 3131, 349, 3511
17956, 5377, 3783, 3742, 138
17957, 5378, 3787, 3744, 246
17958, 4068, 5350, 5381, 5382
17959, 1258, 1292, 1224, 1194
17960, 3564, 154, 5395, 5396
17961, 5398, 3869, 223, 4227
17962, 5401, 572, 4177, 5462
17963, 197, 5373, 5403, 5404
17964, 5374, 5389, 4089, 3949
17965, 5407, 3740, 3764, 328
17966, 5410, 4034, 4326, 5475
17967, 5416, 447, 5453, 4212
17968, 564, 3875, 5420, 5421
17969, 4073, 4204, 5463, 5420
17970, 5428, 1323, 1351, 1410
17971, 1261, 1301, 5431, 5430
17972, 5432, 1358, 1335, 1270
17973, 5446, 4114, 3913, 4018
17974, 5524, 4407, 4279, 5451
17975, 3743, 5411, 5455, 5456
17976, 3617, 3743, 5456, 5501
17977, 4093, 3708, 3879, 5491
17978, 5458, 403, 5496, 3427
17979, 5492, 5460, 1207, 1242
17980, 5464, 5463, 4204, 541
17981, 5467, 396, 5412, 4353
17982, 5469, 465, 5533, 4640
17983, 5476, 4568, 5540, 4760
17984, 5482, 4365, 5546, 4530
17985, 5484, 5498, 224, 4227
17986, 555, 5518, 4194, 3880
17987, 5491, 4318, 5466, 5539
17988, 160, 4407, 5524, 5592
17989, 5494, 4254, 196, 5553
17990, 5506, 5502, 144, 4081
17991, 3811, 5503, 304, 5598
17992, 5508, 4419, 270, 4681
17993, 398, 3907, 5509, 5510
17994, 163, 4503, 5511, 5512
17995, 5515, 3990, 5564, 4213
17996, 149, 4124, 5515, 5516
17997, 5557, 5521, 4230, 4335
17998, 5522, 4660, 5566, 4478
17999, 537, 4799, 5606, 4635
18000, 5531, 4101, 5583, 4150
18001, 5595, 5534, 4331, 4545
18002, 5536, 5535, 247, 4564
18003, 4347, 5536, 5537, 4540
18004, 1528, 5459, 5541, 5542
18005, 1614, 5616, 5542, 5602
18006, 4208, 4325, 5543, 5544
18007, 5510, 5509, 4405, 4028
18008, 3990, 148, 5563, 5564
18009, 4020, 5516, 5565, 5587
18010, 1228, 1188, 1200, 5576
18011, 549, 4321, 5589, 5590
18012, 4183, 4324, 5593, 4539
18013, 5596, 4479, 4618, 4905
18014, 5600, 4851, 4937, 5138
18015, 1854, 5601, 1760, 5652
18016, 4267, 5544, 5603, 5604
18017, 5605, 174, 4397, 4855
18018, 5607, 4883, 5662, 4703
18019, 5608, 168, 4198, 4315
18020, 5614, 5670, 4646, 4466
18021, 5628, 5617, 404, 4022
18022, 5618, 1451, 5728, 1478
18023, 5619, 1033, 1034, 5678
18024, 4213, 5564, 5622, 5629
18025, 5678, 5623, 1083, 5619
18026, 5655, 5122, 5635, 5612
18027, 3161, 1283, 5642, 5768
18028, 5647, 1473, 1482, 5677
18029, 5648, 515, 5758, 4817
18030, 5650, 4110, 3951, 5598
18031, 4759, 5651, 437, 5738
18032, 195, 4782, 5653, 5654
18033, 5658, 264, 4856, 5580
18034, 5674, 4940, 5732, 5072
18035, 5677, 1482, 5681, 1453
18036, 5708, 5677, 1453, 5749
18037, 4418, 416, 4490, 4462
18038, 5682, 1623, 1646, 1706
18039, 5685, 1497, 5686, 1465
18040, 520, 5631, 5687, 5688
18041, 5693, 5759, 3932, 3809
18042, 209, 5229, 5061, 5695
18043, 5698, 5172, 5230, 211
18044, 5783, 5700, 1314, 3161
18045, 5193, 5668, 5703, 5735
18046, 5706, 1449, 1416, 1450
18047, 4765, 272, 5761, 5712
18048, 5715, 1598, 5787, 1640
18049, 5240, 5718, 5719, 5269
18050, 5789, 5718, 462, 5717
18051, 5722, 5082, 5746, 5230
18052, 502, 5299, 5726, 5727
18053, 5736, 5111, 5794, 5035
18054, 226, 5763, 5744, 5167
18055, 5751, 1133, 1099, 5683
18056, 5757, 1539, 5802, 1545
18057, 391, 5700, 5783, 5766
18058, 5768, 3398, 5783, 3161
18059, 5770, 1886, 1921, 1989
18060, 5774, 262, 5808, 5253
18061, 5775, 5143, 5816, 5849
18062, 5804, 5789, 5148, 5809
18063, 4431, 4567, 4448, 282
18064, 5805, 1426, 1435, 1489
18065, 5809, 5148, 5049, 461
18066, 5811, 5310, 501, 5850
18067, 475, 4734, 5880, 5818
18068, 5820, 5227, 216, 5295
18069, 5822, 4943, 5865, 4870
18070, 229, 5828, 5080, 5868
18071, 3799, 3941, 5833, 5834
18072, 5861, 5833, 278, 4235
18073, 233, 4972, 5069, 5188
18074, 5843, 4854, 5887, 4591
18075, 5298, 5309, 5300, 5268
18076, 5863, 5858, 480, 5031
18077, 5205, 5285, 5858, 5863
18078, 5885, 5872, 1755, 1819
18079, 5876, 345, 1654, 5897
18080, 1552, 1609, 5877, 5862
18081, 4814, 5101, 5879, 5089
18082, 5892, 4674, 5881, 5880
18083, 1815, 1775, 5884, 5900
18084, 5886, 479, 5073, 5141
18085, 5890, 453, 4372, 4488
18086, 5892, 5880, 4734, 4488
18087, 5944, 5894, 1689, 5917
18088, 5908, 5909, 1826, 1792
18089, 1858, 5909, 1828, 1835
18090, 1748, 5898, 5911, 5924
18091, 2030, 2000, 5919, 5920
18092, 4611, 4520, 5947, 4274
18093, 5947, 4459, 5927, 5932
18094, 5953, 5931, 2321, 2405
18095, 5954, 5932, 275, 5955
18096, 2536, 5934, 2457, 5957
18097, 3715, 3563, 5936, 5948
18098, 1827, 5952, 5965, 1865
18099, 430, 5958, 5970, 3969
18100, 5959, 4172, 456, 4366
18101, 5962, 430, 3969, 3953
18102, 3985, 4166, 5962, 3953
18103, 1894, 5949, 5963, 5964
18104, 2062, 2065, 5945, 2156
18105, 5986, 5966, 1865, 5965
18106, 5967, 1942, 344, 1980
18107, 5979, 5969, 2534, 5990
18108, 5971, 2028, 2026, 2117
18109, 2166, 5951, 5975, 5976
18110, 2194, 6017, 5976, 5975
18111, 5977, 2955, 2986, 6009
18112, 5981, 2581, 2621, 2697
18113, 3725, 3814, 5985, 3582
18114, 2618, 5979, 5990, 6001
18115, 2203, 2134, 2172, 2214
18116, 2260, 5992, 361, 2263
18117, 2228, 5996, 2181, 6020
18118, 6003, 2334, 6023, 2372
18119, 6004, 2527, 2488, 2452
18120, 6010, 2573, 6032, 2615
18121, 2569, 5999, 6010, 6024
18122, 6011, 2318, 2368, 2386
18123, 2203, 6012, 6013, 2194
18124, 6016, 6015, 6037, 2326
18125, 6019, 3034, 3046, 3111
18126, 2735, 2737, 6027, 6028
18127, 6033, 2615, 6057, 2657
18128, 2610, 6024, 6033, 6051
18129, 6036, 2772, 6028, 6049
18130, 6038, 6070, 6054, 2960
18131, 2479, 2452, 6041, 6042
18132, 3001, 6029, 6045, 6048
18133, 6046, 2806, 2840, 6056
18134, 6048, 3028, 6068, 3001
18135, 6053, 6052, 2401, 2442
18136, 2324, 2354, 2287, 2244
18137, 6055, 2873, 2835, 2875
18138, 2412, 2360, 6065, 6066
18139, 6042, 6041, 2555, 2504
18140, 6080, 6070, 2971, 2916
18141, 6075, 6076, 2657, 6057
18142, 2693, 2657, 6076, 6078
18143, 6091, 6090, 3045, 3062
18144, 3090, 6097, 6114, 3073
18145, 6116, 6100, 2422, 2480
18146, 6115, 6102, 2677, 2743
18147, 6103, 2428, 2426, 6095
18148, 6104, 3077, 6091, 3062
18149, 6108, 2677, 2626, 6094
18150, 2636, 6111, 6112, 2712
18151, 6117, 2956, 2929, 2858
18152, 6130, 6132, 2816, 2779
18153, 6135, 2866, 2907, 2898
*ELEMENT, TYPE=CPE3, ELSET=UMAT_TRIS
18154, 4288, 4259, 4030
18155, 3699, 3962, 3809
18156, 1382, 1332, 1354
18157, 4217, 4302, 4058
18158, 5421, 4338, 564
18159, 3397, 3149, 339
18160, 5539, 5495, 5491
18161, 5696, 4565, 4299
18162, 5738, 4982, 4759
18163, 5587, 5586, 4020
18164, 4089, 5389, 5404
18165, 2451, 2413, 2372
18166, 5766, 5783, 3398
18167, 5970, 431, 4139
18168, 5842, 5204, 482
18169, 4836, 4614, 4643
18170, 794, 868, 790
18171, 854, 921, 856
18172, 5429, 1040, 973
18173, 980, 1123, 1030
18174, 1115, 1078, 1082
18175, 1041, 1119, 1038
18176, 1162, 1098, 1132
18177, 1244, 1208, 1241
18178, 1281, 5526, 1246
18179, 1235, 1203, 1171
18180, 1261, 1192, 1257
18181, 1243, 1208, 1174
18182, 1301, 1261, 1294
18183, 1268, 1329, 1362
18184, 1388, 1322, 1356
18185, 5847, 1523, 1584
18186, 5829, 1563, 5846
18187, 1583, 1580, 1547
18188, 1578, 359, 1561
18189, 1605, 1573, 1564
18190, 5626, 1600, 1568
18191, 1691, 1629, 1648
18192, 5866, 383, 3140
18193, 1865, 5966, 1799
18194, 1816, 1880, 1851
18195, 1870, 1832, 1804
18196, 1828, 5909, 5908
18197, 1946, 1966, 1877
18198, 1903, 1959, 1928
18199, 2012, 1948, 1975
18200, 2026, 1979, 2003
18201, 2065, 2062, 2027
18202, 2156, 5945, 2099
18203, 2135, 2098, 2059
18204, 5998, 2162, 2084
18205, 2259, 2215, 2131
18206, 2172, 2134, 2098
18207, 5992, 2222, 361
18208, 2236, 2200, 2163
18209, 2286, 2207, 2255
18210, 6016, 6035, 2284
18211, 2495, 2418, 2456
18212, 6082, 2510, 2425
18213, 2398, 2426, 2428
18214, 5999, 2569, 2530
18215, 6024, 2610, 2569
18216, 2714, 2637, 2597
18217, 2687, 2669, 2639
18218, 2650, 2767, 2681
18219, 2711, 2706, 6124
18220, 2834, 2769, 2800
18221, 2847, 2661, 2703
18222, 2822, 2783, 2817
18223, 6123, 2894, 2893
18224, 2969, 2966, 2909
18225, 2860, 2929, 2930
18226, 2829, 2907, 2866
18227, 6040, 2989, 2958
18228, 2991, 2941, 2961
18229, 3022, 2992, 2968
18230, 3086, 3064, 3037
18231, 3031, 3004, 2975
18232, 3074, 3035, 3057
18233, 3096, 3069, 3094
18234, 3724, 3571, 406
18235, 3582, 3409, 408
18236, 3584, 3545, 410
18237, 3800, 129, 3734
18238, 3895, 289, 3718
18239, 3977, 3696, 3586
18240, 3980, 3843, 3957
18241, 5396, 4026, 3736
18242, 4301, 4189, 3877
18243, 5578, 4055, 425
18244, 5451, 4279, 137
18245, 5405, 5474, 4112
18246, 4130, 311, 4072
18247, 4371, 5467, 5547
18248, 4158, 4149, 434
18249, 5397, 4188, 246
18250, 5444, 4239, 4111
18251, 4554, 4277, 4363
18252, 4298, 4452, 5926
18253, 4578, 4249, 4381
18254, 5586, 4282, 150
18255, 5947, 5954, 4274
18256, 5491, 3879, 4318
18257, 4585, 4458, 5519
18258, 4335, 4230, 4090
18259, 5954, 5947, 5932
18260, 5450, 4363, 4211
18261, 4406, 4014, 4142
18262, 4439, 266, 4370
18263, 5923, 4611, 253
18264, 4718, 4513, 4652
18265, 5624, 4693, 287
18266, 5896, 4592, 274
18267, 4915, 4673, 265
18268, 4811, 4694, 4796
18269, 5887, 5891, 4591
18270, 4864, 4661, 230
18271, 5673, 4608, 4794
18272, 4802, 157, 4574
18273, 5067, 4950, 517
18274, 5648, 4626, 4624
18275, 4591, 4830, 4716
18276, 4927, 4836, 516
18277, 4958, 4731, 4616
18278, 4997, 4920, 180
18279, 5049, 4933, 461
18280, 5313, 5058, 5168
18281, 4950, 4714, 4809
18282, 4966, 5044, 4874
18283, 5203, 4996, 5078
18284, 5782, 5085, 4967
18285, 5105, 4996, 463
18286, 230, 5831, 4934
18287, 5308, 5297, 5294
18288, 5170, 5187, 500
18289, 5266, 5225, 5060
18290, 5771, 5104, 5222
18291, 5251, 5128, 5190
18292, 5255, 5204, 459
18293, 5704, 5224, 5159
18294, 5261, 4693, 4915
18295, 5309, 5298, 484
18296, 5191, 5311, 5295
18297, 5300, 5238, 5268
18298, 1324, 1301, 1294
18299, 5502, 4053, 144
18300, 5513, 1228, 5576
18301, 5523, 4863, 308
18302, 4059, 4220, 535
18303, 1307, 1242, 5558
18304, 5640, 168, 5608
18305, 4791, 170, 4596
18306, 5762, 1434, 5686
18307, 5781, 226, 5167
18308, 5809, 5853, 5804
18309, 5312, 5850, 501
18310, 5815, 5101, 4942
18311, 3419, 5836, 3544
18312, 5860, 233, 5839
18313, 5855, 5862, 1583
18314, 5867, 1662, 1634
18315, 5868, 4860, 4744
18316, 5069, 4972, 5837
18317, 5001, 4961, 4840
18318, 5912, 5887, 4423
18319, 5890, 4488, 4734
18320, 5876, 5897, 1681
18321, 1924, 5914, 1891
18322, 3618, 5918, 3707
18323, 5920, 2067, 2030
18324, 5955, 275, 4120
18325, 5955, 4274, 5954
18326, 5955, 4120, 4274
18327, 5987, 2166, 5976
18328, 2311, 2265, 2306
18329, 6020, 2226, 2313
18330, 6028, 2772, 2735
18331, 2308, 6047, 2273
18332, 6051, 2652, 2610
18333, 6061, 2681, 2767
18334, 6101, 2934, 2992
18335, 6112, 2743, 2712
18336, 6114, 6097, 6104
*ELSET, ELSET=PHASE_ELEM
1, 2, 3, 4, 5, 6, 7, 8, 9, 10, 11, 12, 13, 14, 15, 16
17, 18, 19, 20, 21, 22, 23, 24, 25, 26, 27, 28, 29, 30, 31, 32
33, 34, 35, 36, 37, 38, 39, 40, 41, 42, 43, 44, 45, 46, 47, 48
49, 50, 51, 52, 53, 54, 55, 56, 57, 58, 59, 60, 61, 62, 63, 64
65, 66, 67, 68, 69, 70, 71, 72, 73, 74, 75, 76, 77, 78, 79, 80
81, 82, 83, 84, 85, 86, 87, 88, 89, 90, 91, 92, 93, 94, 95, 96
97, 98, 99, 100, 101, 102, 103, 104, 105, 106, 107, 108, 109, 110, 111, 112
113, 114, 115, 116, 117, 118, 119, 120, 121, 122, 123, 124, 125, 126, 127, 128
129, 130, 131, 132, 133, 134, 135, 136, 137, 138, 139, 140, 141, 142, 143, 144
145, 146, 147, 148, 149, 150, 151, 152, 153, 154, 155, 156, 157, 158, 159, 160
161, 162, 163, 164, 165, 166, 167, 168, 169, 170, 171, 172, 173, 174, 175, 176
177, 178, 179, 180, 181, 182, 183, 184, 185, 186, 187, 188, 189, 190, 191, 192
193, 194, 195, 196, 197, 198, 199, 200, 201, 202, 203, 204, 205, 206, 207, 208
209, 210, 211, 212, 213, 214, 215, 216, 217, 218, 219, 220, 221, 222, 223, 224
225, 226, 227, 228, 229, 230, 231, 232, 233, 234, 235, 236, 237, 238, 239, 240
241, 242, 243, 244, 245, 246, 247, 248, 249, 250, 251, 252, 253, 254, 255, 256
257, 258, 259, 260, 261, 262, 263, 264, 265, 266, 267, 268, 269, 270, 271, 272
273, 274, 275, 276, 277, 278, 279, 280, 281, 282, 283, 284, 285, 286, 287, 288
289, 290, 291, 292, 293, 294, 295, 296, 297, 298, 299, 300, 301, 302, 303, 304
305, 306, 307, 308, 309, 310, 311, 312, 313, 314, 315, 316, 317, 318, 319, 320
321, 322, 323, 324, 325, 326, 327, 328, 329, 330, 331, 332, 333, 334, 335, 336
337, 338, 339, 340, 341, 342, 343, 344, 345, 346, 347, 348, 349, 350, 351, 352
353, 354, 355, 356, 357, 358, 359, 360, 361, 362, 363, 364, 365, 366, 367, 368
369, 370, 371, 372, 373, 374, 375, 376, 377, 378, 379, 380, 381, 382, 383, 384
385, 386, 387, 388, 389, 390, 391, 392, 393, 394, 395, 396, 397, 398, 399, 400
401, 402, 403, 404, 405, 406, 407, 408, 409, 410, 411, 412, 413, 414, 415, 416
417, 418, 419, 420, 421, 422, 423, 424, 425, 426, 427, 428, 429, 430, 431, 432
433, 434, 435, 436, 437, 438, 439, 440, 441, 442, 443, 444, 445, 446, 447, 448
449, 450, 451, 452, 453, 454, 455, 456, 457, 458, 459, 460, 461, 462, 463, 464
465, 466, 467, 468, 469, 470, 471, 472, 473, 474, 475, 476, 477, 478, 479, 480
481, 482, 483, 484, 485, 486, 487, 488, 489, 490, 491, 492, 493, 494, 495, 496
497, 498, 499, 500, 501, 502, 503, 504, 505, 506, 507, 508, 509, 510, 511, 512
513, 514, 515, 516, 517, 518, 519, 520, 521, 522, 523, 524, 525, 526, 527, 528
529, 530, 531, 532, 533, 534, 535, 536, 537, 538, 539, 540, 541, 542, 543, 544
545, 546, 547, 548, 549, 550, 551, 552, 553, 554, 555, 556, 557, 558, 559, 560
561, 562, 563, 564, 565, 566, 567, 568, 569, 570, 571, 572, 573, 574, 575, 576
577, 578, 579, 580, 581, 582, 583, 584, 585, 586, 587, 588, 589, 590, 591, 592
593, 594, 595, 596, 597, 598, 599, 600, 601, 602, 603, 604, 605, 606, 607, 608
609, 610, 611, 612, 613, 614, 615, 616, 617, 618, 619, 620, 621, 622, 623, 624
625, 626, 627, 628, 629, 630, 631, 632, 633, 634, 635, 636, 637, 638, 639, 640
641, 642, 643, 644, 645, 646, 647, 648, 649, 650, 651, 652, 653, 654, 655, 656
657, 658, 659, 660, 661, 662, 663, 664, 665, 666, 667, 668, 669, 670, 671, 672
673, 674, 675, 676, 677, 678, 679, 680, 681, 682, 683, 684, 685, 686, 687, 688
689, 690, 691, 692, 693, 694, 695, 696, 697, 698, 699, 700, 701, 702, 703, 704
705, 706, 707, 708, 709, 710, 711, 712, 713, 714, 715, 716, 717, 718, 719, 720
721, 722, 723, 724, 725, 726, 727, 728, 729, 730, 731, 732, 733, 734, 735, 736
737, 738, 739, 740, 741, 742, 743, 744, 745, 746, 747, 748, 749, 750, 751, 752
753, 754, 755, 756, 757, 758, 759, 760, 761, 762, 763, 764, 765, 766, 767, 768
769, 770, 771, 772, 773, 774, 775, 776, 777, 778, 779, 780, 781, 782, 783, 784
785, 786, 787, 788, 789, 790, 791, 792, 793, 794, 795, 796, 797, 798, 799, 800
801, 802, 803, 804, 805, 806, 807, 808, 809, 810, 811, 812, 813, 814, 815, 816
817, 818, 819, 820, 821, 822, 823, 824, 825, 826, 827, 828, 829, 830, 831, 832
833, 834, 835, 836, 837, 838, 839, 840, 841, 842, 843, 844, 845, 846, 847, 848
849, 850, 851, 852, 853, 854, 855, 856, 857, 858, 859, 860, 861, 862, 863, 864
865, 866, 867, 868, 869, 870, 871, 872, 873, 874, 875, 876, 877, 878, 879, 880
881, 882, 883, 884, 885, 886, 887, 888, 889, 890, 891, 892, 893, 894, 895, 896
897, 898, 899, 900, 901, 902, 903, 904, 905, 906, 907, 908, 909, 910, 911, 912
913, 914, 915, 916, 917, 918, 919, 920, 921, 922, 923, 924, 925, 926, 927, 928
929, 930, 931, 932, 933, 934, 935, 936, 937, 938, 939, 940, 941, 942, 943, 944
945, 946, 947, 948, 949, 950, 951, 952, 953, 954, 955, 956, 957, 958, 959, 960
961, 962, 963, 964, 965, 966, 967, 968, 969, 970, 971, 972, 973, 974, 975, 976
977, 978, 979, 980, 981, 982, 983, 984, 985, 986, 987, 988, 989, 990, 991, 992
993, 994, 995, 996, 997, 998, 999, 1000, 1001, 1002, 1003, 1004, 1005, 1006, 1007, 1008
1009, 1010, 1011, 1012, 1013, 1014, 1015, 1016, 1017, 1018, 1019, 1020, 1021, 1022, 1023, 1024
1025, 1026, 1027, 1028, 1029, 1030, 1031, 1032, 1033, 1034, 1035, 1036, 1037, 1038, 1039, 1040
1041, 1042, 1043, 1044, 1045, 1046, 1047, 1048, 1049, 1050, 1051, 1052, 1053, 1054, 1055, 1056
1057, 1058, 1059, 1060, 1061, 1062, 1063, 1064, 1065, 1066, 1067, 1068, 1069, 1070, 1071, 1072
1073, 1074, 1075, 1076, 1077, 1078, 1079, 1080, 1081, 1082, 1083, 1084, 1085, 1086, 1087, 1088
1089, 1090, 1091, 1092, 1093, 1094, 1095, 1096, 1097, 1098, 1099, 1100, 1101, 1102, 1103, 1104
1105, 1106, 1107, 1108, 1109, 1110, 1111, 1112, 1113, 1114, 1115, 1116, 1117, 1118, 1119, 1120
1121, 1122, 1123, 1124, 1125, 1126, 1127, 1128, 1129, 1130, 1131, 1132, 1133, 1134, 1135, 1136
1137, 1138, 1139, 1140, 1141, 1142, 1143, 1144, 1145, 1146, 1147, 1148, 1149, 1150, 1151, 1152
1153, 1154, 1155, 1156, 1157, 1158, 1159, 1160, 1161, 1162, 1163, 1164, 1165, 1166, 1167, 1168
1169, 1170, 1171, 1172, 1173, 1174, 1175, 1176, 1177, 1178, 1179, 1180, 1181, 1182, 1183, 1184
1185, 1186, 1187, 1188, 1189, 1190, 1191, 1192, 1193, 1194, 1195, 1196, 1197, 1198, 1199, 1200
1201, 1202, 1203, 1204, 1205, 1206, 1207, 1208, 1209, 1210, 1211, 1212, 1213, 1214, 1215, 1216
1217, 1218, 1219, 1220, 1221, 1222, 1223, 1224, 1225, 1226, 1227, 1228, 1229, 1230, 1231, 1232
1233, 1234, 1235, 1236, 1237, 1238, 1239, 1240, 1241, 1242, 1243, 1244, 1245, 1246, 1247, 1248
1249, 1250, 1251, 1252, 1253, 1254, 1255, 1256, 1257, 1258, 1259, 1260, 1261, 1262, 1263, 1264
1265, 1266, 1267, 1268, 1269, 1270, 1271, 1272, 1273, 1274, 1275, 1276, 1277, 1278, 1279, 1280
1281, 1282, 1283, 1284, 1285, 1286, 1287, 1288, 1289, 1290, 1291, 1292, 1293, 1294, 1295, 1296
1297, 1298, 1299, 1300, 1301, 1302, 1303, 1304, 1305, 1306, 1307, 1308, 1309, 1310, 1311, 1312
1313, 1314, 1315, 1316, 1317, 1318, 1319, 1320, 1321, 1322, 1323, 1324, 1325, 1326, 1327, 1328
1329, 1330, 1331, 1332, 1333, 1334, 1335, 1336, 1337, 1338, 1339, 1340, 1341, 1342, 1343, 1344
1345, 1346, 1347, 1348, 1349, 1350, 1351, 1352, 1353, 1354, 1355, 1356, 1357, 1358, 1359, 1360
1361, 1362, 1363, 1364, 1365, 1366, 1367, 1368, 1369, 1370, 1371, 1372, 1373, 1374, 1375, 1376
1377, 1378, 1379, 1380, 1381, 1382, 1383, 1384, 1385, 1386, 1387, 1388, 1389, 1390, 1391, 1392
1393, 1394, 1395, 1396, 1397, 1398, 1399, 1400, 1401, 1402, 1403, 1404, 1405, 1406, 1407, 1408
1409, 1410, 1411, 1412, 1413, 1414, 1415, 1416, 1417, 1418, 1419, 1420, 1421, 1422, 1423, 1424
1425, 1426, 1427, 1428, 1429, 1430, 1431, 1432, 1433, 1434, 1435, 1436, 1437, 1438, 1439, 1440
1441, 1442, 1443, 1444, 1445, 1446, 1447, 1448, 1449, 1450, 1451, 1452, 1453, 1454, 1455, 1456
1457, 1458, 1459, 1460, 1461, 1462, 1463, 1464, 1465, 1466, 1467, 1468, 1469, 1470, 1471, 1472
1473, 1474, 1475, 1476, 1477, 1478, 1479, 1480, 1481, 1482, 1483, 1484, 1485, 1486, 1487, 1488
1489, 1490, 1491, 1492, 1493, 1494, 1495, 1496, 1497, 1498, 1499, 1500, 1501, 1502, 1503, 1504
1505, 1506, 1507, 1508, 1509, 1510, 1511, 1512, 1513, 1514, 1515, 1516, 1517, 1518, 1519, 1520
1521, 1522, 1523, 1524, 1525, 1526, 1527, 1528, 1529, 1530, 1531, 1532, 1533, 1534, 1535, 1536
1537, 1538, 1539, 1540, 1541, 1542, 1543, 1544, 1545, 1546, 1547, 1548, 1549, 1550, 1551, 1552
1553, 1554, 1555, 1556, 1557, 1558, 1559, 1560, 1561, 1562, 1563, 1564, 1565, 1566, 1567, 1568
1569, 1570, 1571, 1572, 1573, 1574, 1575, 1576, 1577, 1578, 1579, 1580, 1581, 1582, 1583, 1584
1585, 1586, 1587, 1588, 1589, 1590, 1591, 1592, 1593, 1594, 1595, 1596, 1597, 1598, 1599, 1600
1601, 1602, 1603, 1604, 1605, 1606, 1607, 1608, 1609, 1610, 1611, 1612, 1613, 1614, 1615, 1616
1617, 1618, 1619, 1620, 1621, 1622, 1623, 1624, 1625, 1626, 1627, 1628, 1629, 1630, 1631, 1632
1633, 1634, 1635, 1636, 1637, 1638, 1639, 1640, 1641, 1642, 1643, 1644, 1645, 1646, 1647, 1648
1649, 1650, 1651, 1652, 1653, 1654, 1655, 1656, 1657, 1658, 1659, 1660, 1661, 1662, 1663, 1664
1665, 1666, 1667, 1668, 1669, 1670, 1671, 1672, 1673, 1674, 1675, 1676, 1677, 1678, 1679, 1680
1681, 1682, 1683, 1684, 1685, 1686, 1687, 1688, 1689, 1690, 1691, 1692, 1693, 1694, 1695, 1696
1697, 1698, 1699, 1700, 1701, 1702, 1703, 1704, 1705, 1706, 1707, 1708, 1709, 1710, 1711, 1712
1713, 1714, 1715, 1716, 1717, 1718, 1719, 1720, 1721, 1722, 1723, 1724, 1725, 1726, 1727, 1728
1729, 1730, 1731, 1732, 1733, 1734, 1735, 1736, 1737, 1738, 1739, 1740, 1741, 1742, 1743, 1744
1745, 1746, 1747, 1748, 1749, 1750, 1751, 1752, 1753, 1754, 1755, 1756, 1757, 1758, 1759, 1760
1761, 1762, 1763, 1764, 1765, 1766, 1767, 1768, 1769, 1770, 1771, 1772, 1773, 1774, 1775, 1776
1777, 1778, 1779, 1780, 1781, 1782, 1783, 1784, 1785, 1786, 1787, 1788, 1789, 1790, 1791, 1792
1793, 1794, 1795, 1796, 1797, 1798, 1799, 1800, 1801, 1802, 1803, 1804, 1805, 1806, 1807, 1808
1809, 1810, 1811, 1812, 1813, 1814, 1815, 1816, 1817, 1818, 1819, 1820, 1821, 1822, 1823, 1824
1825, 1826, 1827, 1828, 1829, 1830, 1831, 1832, 1833, 1834, 1835, 1836, 1837, 1838, 1839, 1840
1841, 1842, 1843, 1844, 1845, 1846, 1847, 1848, 1849, 1850, 1851, 1852, 1853, 1854, 1855, 1856
1857, 1858, 1859, 1860, 1861, 1862, 1863, 1864, 1865, 1866, 1867, 1868, 1869, 1870, 1871, 1872
1873, 1874, 1875, 1876, 1877, 1878, 1879, 1880, 1881, 1882, 1883, 1884, 1885, 1886, 1887, 1888
1889, 1890, 1891, 1892, 1893, 1894, 1895, 1896, 1897, 1898, 1899, 1900, 1901, 1902, 1903, 1904
1905, 1906, 1907, 1908, 1909, 1910, 1911, 1912, 1913, 1914, 1915, 1916, 1917, 1918, 1919, 1920
1921, 1922, 1923, 1924, 1925, 1926, 1927, 1928, 1929, 1930, 1931, 1932, 1933, 1934, 1935, 1936
1937, 1938, 1939, 1940, 1941, 1942, 1943, 1944, 1945, 1946, 1947, 1948, 1949, 1950, 1951, 1952
1953, 1954, 1955, 1956, 1957, 1958, 1959, 1960, 1961, 1962, 1963, 1964, 1965, 1966, 1967, 1968
1969, 1970, 1971, 1972, 1973, 1974, 1975, 1976, 1977, 1978, 1979, 1980, 1981, 1982, 1983, 1984
1985, 1986, 1987, 1988, 1989, 1990, 1991, 1992, 1993, 1994, 1995, 1996, 1997, 1998, 1999, 2000
2001, 2002, 2003, 2004, 2005, 2006, 2007, 2008, 2009, 2010, 2011, 2012, 2013, 2014, 2015, 2016
2017, 2018, 2019, 2020, 2021, 2022, 2023, 2024, 2025, 2026, 2027, 2028, 2029, 2030, 2031, 2032
2033, 2034, 2035, 2036, 2037, 2038, 2039, 2040, 2041, 2042, 2043, 2044, 2045, 2046, 2047, 2048
2049, 2050, 2051, 2052, 2053, 2054, 2055, 2056, 2057, 2058, 2059, 2060, 2061, 2062, 2063, 2064
2065, 2066, 2067, 2068, 2069, 2070, 2071, 2072, 2073, 2074, 2075, 2076, 2077, 2078, 2079, 2080
2081, 2082, 2083, 2084, 2085, 2086, 2087, 2088, 2089, 2090, 2091, 2092, 2093, 2094, 2095, 2096
2097, 2098, 2099, 2100, 2101, 2102, 2103, 2104, 2105, 2106, 2107, 2108, 2109, 2110, 2111, 2112
2113, 2114, 2115, 2116, 2117, 2118, 2119, 2120, 2121, 2122, 2123, 2124, 2125, 2126, 2127, 2128
2129, 2130, 2131, 2132, 2133, 2134, 2135, 2136, 2137, 2138, 2139, 2140, 2141, 2142, 2143, 2144
2145, 2146, 2147, 2148, 2149, 2150, 2151, 2152, 2153, 2154, 2155, 2156, 2157, 2158, 2159, 2160
2161, 2162, 2163, 2164, 2165, 2166, 2167, 2168, 2169, 2170, 2171, 2172, 2173, 2174, 2175, 2176
2177, 2178, 2179, 2180, 2181, 2182, 2183, 2184, 2185, 2186, 2187, 2188, 2189, 2190, 2191, 2192
2193, 2194, 2195, 2196, 2197, 2198, 2199, 2200, 2201, 2202, 2203, 2204, 2205, 2206, 2207, 2208
2209, 2210, 2211, 2212, 2213, 2214, 2215, 2216, 2217, 2218, 2219, 2220, 2221, 2222, 2223, 2224
2225, 2226, 2227, 2228, 2229, 2230, 2231, 2232, 2233, 2234, 2235, 2236, 2237, 2238, 2239, 2240
2241, 2242, 2243, 2244, 2245, 2246, 2247, 2248, 2249, 2250, 2251, 2252, 2253, 2254, 2255, 2256
2257, 2258, 2259, 2260, 2261, 2262, 2263, 2264, 2265, 2266, 2267, 2268, 2269, 2270, 2271, 2272
2273, 2274, 2275, 2276, 2277, 2278, 2279, 2280, 2281, 2282, 2283, 2284, 2285, 2286, 2287, 2288
2289, 2290, 2291, 2292, 2293, 2294, 2295, 2296, 2297, 2298, 2299, 2300, 2301, 2302, 2303, 2304
2305, 2306, 2307, 2308, 2309, 2310, 2311, 2312, 2313, 2314, 2315, 2316, 2317, 2318, 2319, 2320
2321, 2322, 2323, 2324, 2325, 2326, 2327, 2328, 2329, 2330, 2331, 2332, 2333, 2334, 2335, 2336
2337, 2338, 2339, 2340, 2341, 2342, 2343, 2344, 2345, 2346, 2347, 2348, 2349, 2350, 2351, 2352
2353, 2354, 2355, 2356, 2357, 2358, 2359, 2360, 2361, 2362, 2363, 2364, 2365, 2366, 2367, 2368
2369, 2370, 2371, 2372, 2373, 2374, 2375, 2376, 2377, 2378, 2379, 2380, 2381, 2382, 2383, 2384
2385, 2386, 2387, 2388, 2389, 2390, 2391, 2392, 2393, 2394, 2395, 2396, 2397, 2398, 2399, 2400
2401, 2402, 2403, 2404, 2405, 2406, 2407, 2408, 2409, 2410, 2411, 2412, 2413, 2414, 2415, 2416
2417, 2418, 2419, 2420, 2421, 2422, 2423, 2424, 2425, 2426, 2427, 2428, 2429, 2430, 2431, 2432
2433, 2434, 2435, 2436, 2437, 2438, 2439, 2440, 2441, 2442, 2443, 2444, 2445, 2446, 2447, 2448
2449, 2450, 2451, 2452, 2453, 2454, 2455, 2456, 2457, 2458, 2459, 2460, 2461, 2462, 2463, 2464
2465, 2466, 2467, 2468, 2469, 2470, 2471, 2472, 2473, 2474, 2475, 2476, 2477, 2478, 2479, 2480
2481, 2482, 2483, 2484, 2485, 2486, 2487, 2488, 2489, 2490, 2491, 2492, 2493, 2494, 2495, 2496
2497, 2498, 2499, 2500, 2501, 2502, 2503, 2504, 2505, 2506, 2507, 2508, 2509, 2510, 2511, 2512
2513, 2514, 2515, 2516, 2517, 2518, 2519, 2520, 2521, 2522, 2523, 2524, 2525, 2526, 2527, 2528
2529, 2530, 2531, 2532, 2533, 2534, 2535, 2536, 2537, 2538, 2539, 2540, 2541, 2542, 2543, 2544
2545, 2546, 2547, 2548, 2549, 2550, 2551, 2552, 2553, 2554, 2555, 2556, 2557, 2558, 2559, 2560
2561, 2562, 2563, 2564, 2565, 2566, 2567, 2568, 2569, 2570, 2571, 2572, 2573, 2574, 2575, 2576
2577, 2578, 2579, 2580, 2581, 2582, 2583, 2584, 2585, 2586, 2587, 2588, 2589, 2590, 2591, 2592
2593, 2594, 2595, 2596, 2597, 2598, 2599, 2600, 2601, 2602, 2603, 2604, 2605, 2606, 2607, 2608
2609, 2610, 2611, 2612, 2613, 2614, 2615, 2616, 2617, 2618, 2619, 2620, 2621, 2622, 2623, 2624
2625, 2626, 2627, 2628, 2629, 2630, 2631, 2632, 2633, 2634, 2635, 2636, 2637, 2638, 2639, 2640
2641, 2642, 2643, 2644, 2645, 2646, 2647, 2648, 2649, 2650, 2651, 2652, 2653, 2654, 2655, 2656
2657, 2658, 2659, 2660, 2661, 2662, 2663, 2664, 2665, 2666, 2667, 2668, 2669, 2670, 2671, 2672
2673, 2674, 2675, 2676, 2677, 2678, 2679, 2680, 2681, 2682, 2683, 2684, 2685, 2686, 2687, 2688
2689, 2690, 2691, 2692, 2693, 2694, 2695, 2696, 2697, 2698, 2699, 2700, 2701, 2702, 2703, 2704
2705, 2706, 2707, 2708, 2709, 2710, 2711, 2712, 2713, 2714, 2715, 2716, 2717, 2718, 2719, 2720
2721, 2722, 2723, 2724, 2725, 2726, 2727, 2728, 2729, 2730, 2731, 2732, 2733, 2734, 2735, 2736
2737, 2738, 2739, 2740, 2741, 2742, 2743, 2744, 2745, 2746, 2747, 2748, 2749, 2750, 2751, 2752
2753, 2754, 2755, 2756, 2757, 2758, 2759, 2760, 2761, 2762, 2763, 2764, 2765, 2766, 2767, 2768
2769, 2770, 2771, 2772, 2773, 2774, 2775, 2776, 2777, 2778, 2779, 2780, 2781, 2782, 2783, 2784
2785, 2786, 2787, 2788, 2789, 2790, 2791, 2792, 2793, 2794, 2795, 2796, 2797, 2798, 2799, 2800
2801, 2802, 2803, 2804, 2805, 2806, 2807, 2808, 2809, 2810, 2811, 2812, 2813, 2814, 2815, 2816
2817, 2818, 2819, 2820, 2821, 2822, 2823, 2824, 2825, 2826, 2827, 2828, 2829, 2830, 2831, 2832
2833, 2834, 2835, 2836, 2837, 2838, 2839, 2840, 2841, 2842, 2843, 2844, 2845, 2846, 2847, 2848
2849, 2850, 2851, 2852, 2853, 2854, 2855, 2856, 2857, 2858, 2859, 2860, 2861, 2862, 2863, 2864
2865, 2866, 2867, 2868, 2869, 2870, 2871, 2872, 2873, 2874, 2875, 2876, 2877, 2878, 2879, 2880
2881, 2882, 2883, 2884, 2885, 2886, 2887, 2888, 2889, 2890, 2891, 2892, 2893, 2894, 2895, 2896
2897, 2898, 2899, 2900, 2901, 2902, 2903, 2904, 2905, 2906, 2907, 2908, 2909, 2910, 2911, 2912
2913, 2914, 2915, 2916, 2917, 2918, 2919, 2920, 2921, 2922, 2923, 2924, 2925, 2926, 2927, 2928
2929, 2930, 2931, 2932, 2933, 2934, 2935, 2936, 2937, 2938, 2939, 2940, 2941, 2942, 2943, 2944
2945, 2946, 2947, 2948, 2949, 2950, 2951, 2952, 2953, 2954, 2955, 2956, 2957, 2958, 2959, 2960
2961, 2962, 2963, 2964, 2965, 2966, 2967, 2968, 2969, 2970, 2971, 2972, 2973, 2974, 2975, 2976
2977, 2978, 2979, 2980, 2981, 2982, 2983, 2984, 2985, 2986, 2987, 2988, 2989, 2990, 2991, 2992
2993, 2994, 2995, 2996, 2997, 2998, 2999, 3000, 3001, 3002, 3003, 3004, 3005, 3006, 3007, 3008
3009, 3010, 3011, 3012, 3013, 3014, 3015, 3016, 3017, 3018, 3019, 3020, 3021, 3022, 3023, 3024
3025, 3026, 3027, 3028, 3029, 3030, 3031, 3032, 3033, 3034, 3035, 3036, 3037, 3038, 3039, 3040
3041, 3042, 3043, 3044, 3045, 3046, 3047, 3048, 3049, 3050, 3051, 3052, 3053, 3054, 3055, 3056
3057, 3058, 3059, 3060, 3061, 3062, 3063, 3064, 3065, 3066, 3067, 3068, 3069, 3070, 3071, 3072
3073, 3074, 3075, 3076, 3077, 3078, 3079, 3080, 3081, 3082, 3083, 3084, 3085, 3086, 3087, 3088
3089, 3090, 3091, 3092, 3093, 3094, 3095, 3096, 3097, 3098, 3099, 3100, 3101, 3102, 3103, 3104
3105, 3106, 3107, 3108, 3109, 3110, 3111, 3112, 3113, 3114, 3115, 3116, 3117, 3118, 3119, 3120
3121, 3122, 3123, 3124, 3125, 3126, 3127, 3128, 3129, 3130, 3131, 3132, 3133, 3134, 3135, 3136
3137, 3138, 3139, 3140, 3141, 3142, 3143, 3144, 3145, 3146, 3147, 3148, 3149, 3150, 3151, 3152
3153, 3154, 3155, 3156, 3157, 3158, 3159, 3160, 3161, 3162, 3163, 3164, 3165, 3166, 3167, 3168
3169, 3170, 3171, 3172, 3173, 3174, 3175, 3176, 3177, 3178, 3179, 3180, 3181, 3182, 3183, 3184
3185, 3186, 3187, 3188, 3189, 3190, 3191, 3192, 3193, 3194, 3195, 3196, 3197, 3198, 3199, 3200
3201, 3202, 3203, 3204, 3205, 3206, 3207, 3208, 3209, 3210, 3211, 3212, 3213, 3214, 3215, 3216
3217, 3218, 3219, 3220, 3221, 3222, 3223, 3224, 3225, 3226, 3227, 3228, 3229, 3230, 3231, 3232
3233, 3234, 3235, 3236, 3237, 3238, 3239, 3240, 3241, 3242, 3243, 3244, 3245, 3246, 3247, 3248
3249, 3250, 3251, 3252, 3253, 3254, 3255, 3256, 3257, 3258, 3259, 3260, 3261, 3262, 3263, 3264
3265, 3266, 3267, 3268, 3269, 3270, 3271, 3272, 3273, 3274, 3275, 3276, 3277, 3278, 3279, 3280
3281, 3282, 3283, 3284, 3285, 3286, 3287, 3288, 3289, 3290, 3291, 3292, 3293, 3294, 3295, 3296
3297, 3298, 3299, 3300, 3301, 3302, 3303, 3304, 3305, 3306, 3307, 3308, 3309, 3310, 3311, 3312
3313, 3314, 3315, 3316, 3317, 3318, 3319, 3320, 3321, 3322, 3323, 3324, 3325, 3326, 3327, 3328
3329, 3330, 3331, 3332, 3333, 3334, 3335, 3336, 3337, 3338, 3339, 3340, 3341, 3342, 3343, 3344
3345, 3346, 3347, 3348, 3349, 3350, 3351, 3352, 3353, 3354, 3355, 3356, 3357, 3358, 3359, 3360
3361, 3362, 3363, 3364, 3365, 3366, 3367, 3368, 3369, 3370, 3371, 3372, 3373, 3374, 3375, 3376
3377, 3378, 3379, 3380, 3381, 3382, 3383, 3384, 3385, 3386, 3387, 3388, 3389, 3390, 3391, 3392
3393, 3394, 3395, 3396, 3397, 3398, 3399, 3400, 3401, 3402, 3403, 3404, 3405, 3406, 3407, 3408
3409, 3410, 3411, 3412, 3413, 3414, 3415, 3416, 3417, 3418, 3419, 3420, 3421, 3422, 3423, 3424
3425, 3426, 3427, 3428, 3429, 3430, 3431, 3432, 3433, 3434, 3435, 3436, 3437, 3438, 3439, 3440
3441, 3442, 3443, 3444, 3445, 3446, 3447, 3448, 3449, 3450, 3451, 3452, 3453, 3454, 3455, 3456
3457, 3458, 3459, 3460, 3461, 3462, 3463, 3464, 3465, 3466, 3467, 3468, 3469, 3470, 3471, 3472
3473, 3474, 3475, 3476, 3477, 3478, 3479, 3480, 3481, 3482, 3483, 3484, 3485, 3486, 3487, 3488
3489, 3490, 3491, 3492, 3493, 3494, 3495, 3496, 3497, 3498, 3499, 3500, 3501, 3502, 3503, 3504
3505, 3506, 3507, 3508, 3509, 3510, 3511, 3512, 3513, 3514, 3515, 3516, 3517, 3518, 3519, 3520
3521, 3522, 3523, 3524, 3525, 3526, 3527, 3528, 3529, 3530, 3531, 3532, 3533, 3534, 3535, 3536
3537, 3538, 3539, 3540, 3541, 3542, 3543, 3544, 3545, 3546, 3547, 3548, 3549, 3550, 3551, 3552
3553, 3554, 3555, 3556, 3557, 3558, 3559, 3560, 3561, 3562, 3563, 3564, 3565, 3566, 3567, 3568
3569, 3570, 3571, 3572, 3573, 3574, 3575, 3576, 3577, 3578, 3579, 3580, 3581, 3582, 3583, 3584
3585, 3586, 3587, 3588, 3589, 3590, 3591, 3592, 3593, 3594, 3595, 3596, 3597, 3598, 3599, 3600
3601, 3602, 3603, 3604, 3605, 3606, 3607, 3608, 3609, 3610, 3611, 3612, 3613, 3614, 3615, 3616
3617, 3618, 3619, 3620, 3621, 3622, 3623, 3624, 3625, 3626, 3627, 3628, 3629, 3630, 3631, 3632
3633, 3634, 3635, 3636, 3637, 3638, 3639, 3640, 3641, 3642, 3643, 3644, 3645, 3646, 3647, 3648
3649, 3650, 3651, 3652, 3653, 3654, 3655, 3656, 3657, 3658, 3659, 3660, 3661, 3662, 3663, 3664
3665, 3666, 3667, 3668, 3669, 3670, 3671, 3672, 3673, 3674, 3675, 3676, 3677, 3678, 3679, 3680
3681, 3682, 3683, 3684, 3685, 3686, 3687, 3688, 3689, 3690, 3691, 3692, 3693, 3694, 3695, 3696
3697, 3698, 3699, 3700, 3701, 3702, 3703, 3704, 3705, 3706, 3707, 3708, 3709, 3710, 3711, 3712
3713, 3714, 3715, 3716, 3717, 3718, 3719, 3720, 3721, 3722, 3723, 3724, 3725, 3726, 3727, 3728
3729, 3730, 3731, 3732, 3733, 3734, 3735, 3736, 3737, 3738, 3739, 3740, 3741, 3742, 3743, 3744
3745, 3746, 3747, 3748, 3749, 3750, 3751, 3752, 3753, 3754, 3755, 3756, 3757, 3758, 3759, 3760
3761, 3762, 3763, 3764, 3765, 3766, 3767, 3768, 3769, 3770, 3771, 3772, 3773, 3774, 3775, 3776
3777, 3778, 3779, 3780, 3781, 3782, 3783, 3784, 3785, 3786, 3787, 3788, 3789, 3790, 3791, 3792
3793, 3794, 3795, 3796, 3797, 3798, 3799, 3800, 3801, 3802, 3803, 3804, 3805, 3806, 3807, 3808
3809, 3810, 3811, 3812, 3813, 3814, 3815, 3816, 3817, 3818, 3819, 3820, 3821, 3822, 3823, 3824
3825, 3826, 3827, 3828, 3829, 3830, 3831, 3832, 3833, 3834, 3835, 3836, 3837, 3838, 3839, 3840
3841, 3842, 3843, 3844, 3845, 3846, 3847, 3848, 3849, 3850, 3851, 3852, 3853, 3854, 3855, 3856
3857, 3858, 3859, 3860, 3861, 3862, 3863, 3864, 3865, 3866, 3867, 3868, 3869, 3870, 3871, 3872
3873, 3874, 3875, 3876, 3877, 3878, 3879, 3880, 3881, 3882, 3883, 3884, 3885, 3886, 3887, 3888
3889, 3890, 3891, 3892, 3893, 3894, 3895, 3896, 3897, 3898, 3899, 3900, 3901, 3902, 3903, 3904
3905, 3906, 3907, 3908, 3909, 3910, 3911, 3912, 3913, 3914, 3915, 3916, 3917, 3918, 3919, 3920
3921, 3922, 3923, 3924, 3925, 3926, 3927, 3928, 3929, 3930, 3931, 3932, 3933, 3934, 3935, 3936
3937, 3938, 3939, 3940, 3941, 3942, 3943, 3944, 3945, 3946, 3947, 3948, 3949, 3950, 3951, 3952
3953, 3954, 3955, 3956, 3957, 3958, 3959, 3960, 3961, 3962, 3963, 3964, 3965, 3966, 3967, 3968
3969, 3970, 3971, 3972, 3973, 3974, 3975, 3976, 3977, 3978, 3979, 3980, 3981, 3982, 3983, 3984
3985, 3986, 3987, 3988, 3989, 3990, 3991, 3992, 3993, 3994, 3995, 3996, 3997, 3998, 3999, 4000
4001, 4002, 4003, 4004, 4005, 4006, 4007, 4008, 4009, 4010, 4011, 4012, 4013, 4014, 4015, 4016
4017, 4018, 4019, 4020, 4021, 4022, 4023, 4024, 4025, 4026, 4027, 4028, 4029, 4030, 4031, 4032
4033, 4034, 4035, 4036, 4037, 4038, 4039, 4040, 4041, 4042, 4043, 4044, 4045, 4046, 4047, 4048
4049, 4050, 4051, 4052, 4053, 4054, 4055, 4056, 4057, 4058, 4059, 4060, 4061, 4062, 4063, 4064
4065, 4066, 4067, 4068, 4069, 4070, 4071, 4072, 4073, 4074, 4075, 4076, 4077, 4078, 4079, 4080
4081, 4082, 4083, 4084, 4085, 4086, 4087, 4088, 4089, 4090, 4091, 4092, 4093, 4094, 4095, 4096
4097, 4098, 4099, 4100, 4101, 4102, 4103, 4104, 4105, 4106, 4107, 4108, 4109, 4110, 4111, 4112
4113, 4114, 4115, 4116, 4117, 4118, 4119, 4120, 4121, 4122, 4123, 4124, 4125, 4126, 4127, 4128
4129, 4130, 4131, 4132, 4133, 4134, 4135, 4136, 4137, 4138, 4139, 4140, 4141, 4142, 4143, 4144
4145, 4146, 4147, 4148, 4149, 4150, 4151, 4152, 4153, 4154, 4155, 4156, 4157, 4158, 4159, 4160
4161, 4162, 4163, 4164, 4165, 4166, 4167, 4168, 4169, 4170, 4171, 4172, 4173, 4174, 4175, 4176
4177, 4178, 4179, 4180, 4181, 4182, 4183, 4184, 4185, 4186, 4187, 4188, 4189, 4190, 4191, 4192
4193, 4194, 4195, 4196, 4197, 4198, 4199, 4200, 4201, 4202, 4203, 4204, 4205, 4206, 4207, 4208
4209, 4210, 4211, 4212, 4213, 4214, 4215, 4216, 4217, 4218, 4219, 4220, 4221, 4222, 4223, 4224
4225, 4226, 4227, 4228, 4229, 4230, 4231, 4232, 4233, 4234, 4235, 4236, 4237, 4238, 4239, 4240
4241, 4242, 4243, 4244, 4245, 4246, 4247, 4248, 4249, 4250, 4251, 4252, 4253, 4254, 4255, 4256
4257, 4258, 4259, 4260, 4261, 4262, 4263, 4264, 4265, 4266, 4267, 4268, 4269, 4270, 4271, 4272
4273, 4274, 4275, 4276, 4277, 4278, 4279, 4280, 4281, 4282, 4283, 4284, 4285, 4286, 4287, 4288
4289, 4290, 4291, 4292, 4293, 4294, 4295, 4296, 4297, 4298, 4299, 4300, 4301, 4302, 4303, 4304
4305, 4306, 4307, 4308, 4309, 4310, 4311, 4312, 4313, 4314, 4315, 4316, 4317, 4318, 4319, 4320
4321, 4322, 4323, 4324, 4325, 4326, 4327, 4328, 4329, 4330, 4331, 4332, 4333, 4334, 4335, 4336
4337, 4338, 4339, 4340, 4341, 4342, 4343, 4344, 4345, 4346, 4347, 4348, 4349, 4350, 4351, 4352
4353, 4354, 4355, 4356, 4357, 4358, 4359, 4360, 4361, 4362, 4363, 4364, 4365, 4366, 4367, 4368
4369, 4370, 4371, 4372, 4373, 4374, 4375, 4376, 4377, 4378, 4379, 4380, 4381, 4382, 4383, 4384
4385, 4386, 4387, 4388, 4389, 4390, 4391, 4392, 4393, 4394, 4395, 4396, 4397, 4398, 4399, 4400
4401, 4402, 4403, 4404, 4405, 4406, 4407, 4408, 4409, 4410, 4411, 4412, 4413, 4414, 4415, 4416
4417, 4418, 4419, 4420, 4421, 4422, 4423, 4424, 4425, 4426, 4427, 4428, 4429, 4430, 4431, 4432
4433, 4434, 4435, 4436, 4437, 4438, 4439, 4440, 4441, 4442, 4443, 4444, 4445, 4446, 4447, 4448
4449, 4450, 4451, 4452, 4453, 4454, 4455, 4456, 4457, 4458, 4459, 4460, 4461, 4462, 4463, 4464
4465, 4466, 4467, 4468, 4469, 4470, 4471, 4472, 4473, 4474, 4475, 4476, 4477, 4478, 4479, 4480
4481, 4482, 4483, 4484, 4485, 4486, 4487, 4488, 4489, 4490, 4491, 4492, 4493, 4494, 4495, 4496
4497, 4498, 4499, 4500, 4501, 4502, 4503, 4504, 4505, 4506, 4507, 4508, 4509, 4510, 4511, 4512
4513, 4514, 4515, 4516, 4517, 4518, 4519, 4520, 4521, 4522, 4523, 4524, 4525, 4526, 4527, 4528
4529, 4530, 4531, 4532, 4533, 4534, 4535, 4536, 4537, 4538, 4539, 4540, 4541, 4542, 4543, 4544
4545, 4546, 4547, 4548, 4549, 4550, 4551, 4552, 4553, 4554, 4555, 4556, 4557, 4558, 4559, 4560
4561, 4562, 4563, 4564, 4565, 4566, 4567, 4568, 4569, 4570, 4571, 4572, 4573, 4574, 4575, 4576
4577, 4578, 4579, 4580, 4581, 4582, 4583, 4584, 4585, 4586, 4587, 4588, 4589, 4590, 4591, 4592
4593, 4594, 4595, 4596, 4597, 4598, 4599, 4600, 4601, 4602, 4603, 4604, 4605, 4606, 4607, 4608
4609, 4610, 4611, 4612, 4613, 4614, 4615, 4616, 4617, 4618, 4619, 4620, 4621, 4622, 4623, 4624
4625, 4626, 4627, 4628, 4629, 4630, 4631, 4632, 4633, 4634, 4635, 4636, 4637, 4638, 4639, 4640
4641, 4642, 4643, 4644, 4645, 4646, 4647, 4648, 4649, 4650, 4651, 4652, 4653, 4654, 4655, 4656
4657, 4658, 4659, 4660, 4661, 4662, 4663, 4664, 4665, 4666, 4667, 4668, 4669, 4670, 4671, 4672
4673, 4674, 4675, 4676, 4677, 4678, 4679, 4680, 4681, 4682, 4683, 4684, 4685, 4686, 4687, 4688
4689, 4690, 4691, 4692, 4693, 4694, 4695, 4696, 4697, 4698, 4699, 4700, 4701, 4702, 4703, 4704
4705, 4706, 4707, 4708, 4709, 4710, 4711, 4712, 4713, 4714, 4715, 4716, 4717, 4718, 4719, 4720
4721, 4722, 4723, 4724, 4725, 4726, 4727, 4728, 4729, 4730, 4731, 4732, 4733, 4734, 4735, 4736
4737, 4738, 4739, 4740, 4741, 4742, 4743, 4744, 4745, 4746, 4747, 4748, 4749, 4750, 4751, 4752
4753, 4754, 4755, 4756, 4757, 4758, 4759, 4760, 4761, 4762, 4763, 4764, 4765, 4766, 4767, 4768
4769, 4770, 4771, 4772, 4773, 4774, 4775, 4776, 4777, 4778, 4779, 4780, 4781, 4782, 4783, 4784
4785, 4786, 4787, 4788, 4789, 4790, 4791, 4792, 4793, 4794, 4795, 4796, 4797, 4798, 4799, 4800
4801, 4802, 4803, 4804, 4805, 4806, 4807, 4808, 4809, 4810, 4811, 4812, 4813, 4814, 4815, 4816
4817, 4818, 4819, 4820, 4821, 4822, 4823, 4824, 4825, 4826, 4827, 4828, 4829, 4830, 4831, 4832
4833, 4834, 4835, 4836, 4837, 4838, 4839, 4840, 4841, 4842, 4843, 4844, 4845, 4846, 4847, 4848
4849, 4850, 4851, 4852, 4853, 4854, 4855, 4856, 4857, 4858, 4859, 4860, 4861, 4862, 4863, 4864
4865, 4866, 4867, 4868, 4869, 4870, 4871, 4872, 4873, 4874, 4875, 4876, 4877, 4878, 4879, 4880
4881, 4882, 4883, 4884, 4885, 4886, 4887, 4888, 4889, 4890, 4891, 4892, 4893, 4894, 4895, 4896
4897, 4898, 4899, 4900, 4901, 4902, 4903, 4904, 4905, 4906, 4907, 4908, 4909, 4910, 4911, 4912
4913, 4914, 4915, 4916, 4917, 4918, 4919, 4920, 4921, 4922, 4923, 4924, 4925, 4926, 4927, 4928
4929, 4930, 4931, 4932, 4933, 4934, 4935, 4936, 4937, 4938, 4939, 4940, 4941, 4942, 4943, 4944
4945, 4946, 4947, 4948, 4949, 4950, 4951, 4952, 4953, 4954, 4955, 4956, 4957, 4958, 4959, 4960
4961, 4962, 4963, 4964, 4965, 4966, 4967, 4968, 4969, 4970, 4971, 4972, 4973, 4974, 4975, 4976
4977, 4978, 4979, 4980, 4981, 4982, 4983, 4984, 4985, 4986, 4987, 4988, 4989, 4990, 4991, 4992
4993, 4994, 4995, 4996, 4997, 4998, 4999, 5000, 5001, 5002, 5003, 5004, 5005, 5006, 5007, 5008
5009, 5010, 5011, 5012, 5013, 5014, 5015, 5016, 5017, 5018, 5019, 5020, 5021, 5022, 5023, 5024
5025, 5026, 5027, 5028, 5029, 5030, 5031, 5032, 5033, 5034, 5035, 5036, 5037, 5038, 5039, 5040
5041, 5042, 5043, 5044, 5045, 5046, 5047, 5048, 5049, 5050, 5051, 5052, 5053, 5054, 5055, 5056
5057, 5058, 5059, 5060, 5061, 5062, 5063, 5064, 5065, 5066, 5067, 5068, 5069, 5070, 5071, 5072
5073, 5074, 5075, 5076, 5077, 5078, 5079, 5080, 5081, 5082, 5083, 5084, 5085, 5086, 5087, 5088
5089, 5090, 5091, 5092, 5093, 5094, 5095, 5096, 5097, 5098, 5099, 5100, 5101, 5102, 5103, 5104
5105, 5106, 5107, 5108, 5109, 5110, 5111, 5112, 5113, 5114, 5115, 5116, 5117, 5118, 5119, 5120
5121, 5122, 5123, 5124, 5125, 5126, 5127, 5128, 5129, 5130, 5131, 5132, 5133, 5134, 5135, 5136
5137, 5138, 5139, 5140, 5141, 5142, 5143, 5144, 5145, 5146, 5147, 5148, 5149, 5150, 5151, 5152
5153, 5154, 5155, 5156, 5157, 5158, 5159, 5160, 5161, 5162, 5163, 5164, 5165, 5166, 5167, 5168
5169, 5170, 5171, 5172, 5173, 5174, 5175, 5176, 5177, 5178, 5179, 5180, 5181, 5182, 5183, 5184
5185, 5186, 5187, 5188, 5189, 5190, 5191, 5192, 5193, 5194, 5195, 5196, 5197, 5198, 5199, 5200
5201, 5202, 5203, 5204, 5205, 5206, 5207, 5208, 5209, 5210, 5211, 5212, 5213, 5214, 5215, 5216
5217, 5218, 5219, 5220, 5221, 5222, 5223, 5224, 5225, 5226, 5227, 5228, 5229, 5230, 5231, 5232
5233, 5234, 5235, 5236, 5237, 5238, 5239, 5240, 5241, 5242, 5243, 5244, 5245, 5246, 5247, 5248
5249, 5250, 5251, 5252, 5253, 5254, 5255, 5256, 5257, 5258, 5259, 5260, 5261, 5262, 5263, 5264
5265, 5266, 5267, 5268, 5269, 5270, 5271, 5272, 5273, 5274, 5275, 5276, 5277, 5278, 5279, 5280
5281, 5282, 5283, 5284, 5285, 5286, 5287, 5288, 5289, 5290, 5291, 5292, 5293, 5294, 5295, 5296
5297, 5298, 5299, 5300, 5301, 5302, 5303, 5304, 5305, 5306, 5307, 5308, 5309, 5310, 5311, 5312
5313, 5314, 5315, 5316, 5317, 5318, 5319, 5320, 5321, 5322, 5323, 5324, 5325, 5326, 5327, 5328
5329, 5330, 5331, 5332, 5333, 5334, 5335, 5336, 5337, 5338, 5339, 5340, 5341, 5342, 5343, 5344
5345, 5346, 5347, 5348, 5349, 5350, 5351, 5352, 5353, 5354, 5355, 5356, 5357, 5358, 5359, 5360
5361, 5362, 5363, 5364, 5365, 5366, 5367, 5368, 5369, 5370, 5371, 5372, 5373, 5374, 5375, 5376
5377, 5378, 5379, 5380, 5381, 5382, 5383, 5384, 5385, 5386, 5387, 5388, 5389, 5390, 5391, 5392
5393, 5394, 5395, 5396, 5397, 5398, 5399, 5400, 5401, 5402, 5403, 5404, 5405, 5406, 5407, 5408
5409, 5410, 5411, 5412, 5413, 5414, 5415, 5416, 5417, 5418, 5419, 5420, 5421, 5422, 5423, 5424
5425, 5426, 5427, 5428, 5429, 5430, 5431, 5432, 5433, 5434, 5435, 5436, 5437, 5438, 5439, 5440
5441, 5442, 5443, 5444, 5445, 5446, 5447, 5448, 5449, 5450, 5451, 5452, 5453, 5454, 5455, 5456
5457, 5458, 5459, 5460, 5461, 5462, 5463, 5464, 5465, 5466, 5467, 5468, 5469, 5470, 5471, 5472
5473, 5474, 5475, 5476, 5477, 5478, 5479, 5480, 5481, 5482, 5483, 5484, 5485, 5486, 5487, 5488
5489, 5490, 5491, 5492, 5493, 5494, 5495, 5496, 5497, 5498, 5499, 5500, 5501, 5502, 5503, 5504
5505, 5506, 5507, 5508, 5509, 5510, 5511, 5512, 5513, 5514, 5515, 5516, 5517, 5518, 5519, 5520
5521, 5522, 5523, 5524, 5525, 5526, 5527, 5528, 5529, 5530, 5531, 5532, 5533, 5534, 5535, 5536
5537, 5538, 5539, 5540, 5541, 5542, 5543, 5544, 5545, 5546, 5547, 5548, 5549, 5550, 5551, 5552
5553, 5554, 5555, 5556, 5557, 5558, 5559, 5560, 5561, 5562, 5563, 5564, 5565, 5566, 5567, 5568
5569, 5570, 5571, 5572, 5573, 5574, 5575, 5576, 5577, 5578, 5579, 5580, 5581, 5582, 5583, 5584
5585, 5586, 5587, 5588, 5589, 5590, 5591, 5592, 5593, 5594, 5595, 5596, 5597, 5598, 5599, 5600
5601, 5602, 5603, 5604, 5605, 5606, 5607, 5608, 5609, 5610, 5611, 5612, 5613, 5614, 5615, 5616
5617, 5618, 5619, 5620, 5621, 5622, 5623, 5624, 5625, 5626, 5627, 5628, 5629, 5630, 5631, 5632
5633, 5634, 5635, 5636, 5637, 5638, 5639, 5640, 5641, 5642, 5643, 5644, 5645, 5646, 5647, 5648
5649, 5650, 5651, 5652, 5653, 5654, 5655, 5656, 5657, 5658, 5659, 5660, 5661, 5662, 5663, 5664
5665, 5666, 5667, 5668, 5669, 5670, 5671, 5672, 5673, 5674, 5675, 5676, 5677, 5678, 5679, 5680
5681, 5682, 5683, 5684, 5685, 5686, 5687, 5688, 5689, 5690, 5691, 5692, 5693, 5694, 5695, 5696
5697, 5698, 5699, 5700, 5701, 5702, 5703, 5704, 5705, 5706, 5707, 5708, 5709, 5710, 5711, 5712
5713, 5714, 5715, 5716, 5717, 5718, 5719, 5720, 5721, 5722, 5723, 5724, 5725, 5726, 5727, 5728
5729, 5730, 5731, 5732, 5733, 5734, 5735, 5736, 5737, 5738, 5739, 5740, 5741, 5742, 5743, 5744
5745, 5746, 5747, 5748, 5749, 5750, 5751, 5752, 5753, 5754, 5755, 5756, 5757, 5758, 5759, 5760
5761, 5762, 5763, 5764, 5765, 5766, 5767, 5768, 5769, 5770, 5771, 5772, 5773, 5774, 5775, 5776
5777, 5778, 5779, 5780, 5781, 5782, 5783, 5784, 5785, 5786, 5787, 5788, 5789, 5790, 5791, 5792
5793, 5794, 5795, 5796, 5797, 5798, 5799, 5800, 5801, 5802, 5803, 5804, 5805, 5806, 5807, 5808
5809, 5810, 5811, 5812, 5813, 5814, 5815, 5816, 5817, 5818, 5819, 5820, 5821, 5822, 5823, 5824
5825, 5826, 5827, 5828, 5829, 5830, 5831, 5832, 5833, 5834, 5835, 5836, 5837, 5838, 5839, 5840
5841, 5842, 5843, 5844, 5845, 5846, 5847, 5848, 5849, 5850, 5851, 5852, 5853, 5854, 5855, 5856
5857, 5858, 5859, 5860, 5861, 5862, 5863, 5864, 5865, 5866, 5867, 5868, 5869, 5870, 5871, 5872
5873, 5874, 5875, 5876, 5877, 5878, 5879, 5880, 5881, 5882, 5883, 5884, 5885, 5886, 5887, 5888
5889, 5890, 5891, 5892, 5893, 5894, 5895, 5896, 5897, 5898, 5899, 5900, 5901, 5902, 5903, 5904
5905, 5906, 5907, 5908, 5909, 5910, 5911, 5912, 5913, 5914, 5915, 5916, 5917, 5918, 5919, 5920
5921, 5922, 5923, 5924, 5925, 5926, 5927, 5928, 5929, 5930, 5931, 5932, 5933, 5934, 5935, 5936
5937, 5938, 5939, 5940, 5941, 5942, 5943, 5944, 5945, 5946, 5947, 5948, 5949, 5950, 5951, 5952
5953, 5954, 5955, 5956, 5957, 5958, 5959, 5960, 5961, 5962, 5963, 5964, 5965, 5966, 5967, 5968
5969, 5970, 5971, 5972, 5973, 5974, 5975, 5976, 5977, 5978, 5979, 5980, 5981, 5982, 5983, 5984
5985, 5986, 5987, 5988, 5989, 5990, 5991, 5992, 5993, 5994, 5995, 5996, 5997, 5998, 5999, 6000
6001, 6002, 6003, 6004, 6005, 6006, 6007, 6008, 6009, 6010, 6011, 6012, 6013, 6014, 6015, 6016
6017, 6018, 6019, 6020, 6021, 6022, 6023, 6024, 6025, 6026, 6027, 6028, 6029, 6030, 6031, 6032
6033, 6034, 6035, 6036, 6037, 6038, 6039, 6040, 6041, 6042, 6043, 6044, 6045, 6046, 6047, 6048
6049, 6050, 6051, 6052, 6053, 6054, 6055, 6056, 6057, 6058, 6059, 6060, 6061, 6062, 6063, 6064
6065, 6066, 6067, 6068, 6069, 6070, 6071, 6072, 6073, 6074, 6075, 6076, 6077, 6078, 6079, 6080
6081, 6082, 6083, 6084, 6085, 6086, 6087, 6088, 6089, 6090, 6091, 6092, 6093, 6094, 6095, 6096
6097, 6098, 6099, 6100, 6101, 6102, 6103, 6104, 6105, 6106, 6107, 6108, 6109, 6110, 6111, 6112
*ELSET, ELSET=MECH_ELEM
6113, 6114, 6115, 6116, 6117, 6118, 6119, 6120, 6121, 6122, 6123, 6124, 6125, 6126, 6127, 6128
6129, 6130, 6131, 6132, 6133, 6134, 6135, 6136, 6137, 6138, 6139, 6140, 6141, 6142, 6143, 6144
6145, 6146, 6147, 6148, 6149, 6150, 6151, 6152, 6153, 6154, 6155, 6156, 6157, 6158, 6159, 6160
6161, 6162, 6163, 6164, 6165, 6166, 6167, 6168, 6169, 6170, 6171, 6172, 6173, 6174, 6175, 6176
6177, 6178, 6179, 6180, 6181, 6182, 6183, 6184, 6185, 6186, 6187, 6188, 6189, 6190, 6191, 6192
6193, 6194, 6195, 6196, 6197, 6198, 6199, 6200, 6201, 6202, 6203, 6204, 6205, 6206, 6207, 6208
6209, 6210, 6211, 6212, 6213, 6214, 6215, 6216, 6217, 6218, 6219, 6220, 6221, 6222, 6223, 6224
6225, 6226, 6227, 6228, 6229, 6230, 6231, 6232, 6233, 6234, 6235, 6236, 6237, 6238, 6239, 6240
6241, 6242, 6243, 6244, 6245, 6246, 6247, 6248, 6249, 6250, 6251, 6252, 6253, 6254, 6255, 6256
6257, 6258, 6259, 6260, 6261, 6262, 6263, 6264, 6265, 6266, 6267, 6268, 6269, 6270, 6271, 6272
6273, 6274, 6275, 6276, 6277, 6278, 6279, 6280, 6281, 6282, 6283, 6284, 6285, 6286, 6287, 6288
6289, 6290, 6291, 6292, 6293, 6294, 6295, 6296, 6297, 6298, 6299, 6300, 6301, 6302, 6303, 6304
6305, 6306, 6307, 6308, 6309, 6310, 6311, 6312, 6313, 6314, 6315, 6316, 6317, 6318, 6319, 6320
6321, 6322, 6323, 6324, 6325, 6326, 6327, 6328, 6329, 6330, 6331, 6332, 6333, 6334, 6335, 6336
6337, 6338, 6339, 6340, 6341, 6342, 6343, 6344, 6345, 6346, 6347, 6348, 6349, 6350, 6351, 6352
6353, 6354, 6355, 6356, 6357, 6358, 6359, 6360, 6361, 6362, 6363, 6364, 6365, 6366, 6367, 6368
6369, 6370, 6371, 6372, 6373, 6374, 6375, 6376, 6377, 6378, 6379, 6380, 6381, 6382, 6383, 6384
6385, 6386, 6387, 6388, 6389, 6390, 6391, 6392, 6393, 6394, 6395, 6396, 6397, 6398, 6399, 6400
6401, 6402, 6403, 6404, 6405, 6406, 6407, 6408, 6409, 6410, 6411, 6412, 6413, 6414, 6415, 6416
6417, 6418, 6419, 6420, 6421, 6422, 6423, 6424, 6425, 6426, 6427, 6428, 6429, 6430, 6431, 6432
6433, 6434, 6435, 6436, 6437, 6438, 6439, 6440, 6441, 6442, 6443, 6444, 6445, 6446, 6447, 6448
6449, 6450, 6451, 6452, 6453, 6454, 6455, 6456, 6457, 6458, 6459, 6460, 6461, 6462, 6463, 6464
6465, 6466, 6467, 6468, 6469, 6470, 6471, 6472, 6473, 6474, 6475, 6476, 6477, 6478, 6479, 6480
6481, 6482, 6483, 6484, 6485, 6486, 6487, 6488, 6489, 6490, 6491, 6492, 6493, 6494, 6495, 6496
6497, 6498, 6499, 6500, 6501, 6502, 6503, 6504, 6505, 6506, 6507, 6508, 6509, 6510, 6511, 6512
6513, 6514, 6515, 6516, 6517, 6518, 6519, 6520, 6521, 6522, 6523, 6524, 6525, 6526, 6527, 6528
6529, 6530, 6531, 6532, 6533, 6534, 6535, 6536, 6537, 6538, 6539, 6540, 6541, 6542, 6543, 6544
6545, 6546, 6547, 6548, 6549, 6550, 6551, 6552, 6553, 6554, 6555, 6556, 6557, 6558, 6559, 6560
6561, 6562, 6563, 6564, 6565, 6566, 6567, 6568, 6569, 6570, 6571, 6572, 6573, 6574, 6575, 6576
6577, 6578, 6579, 6580, 6581, 6582, 6583, 6584, 6585, 6586, 6587, 6588, 6589, 6590, 6591, 6592
6593, 6594, 6595, 6596, 6597, 6598, 6599, 6600, 6601, 6602, 6603, 6604, 6605, 6606, 6607, 6608
6609, 6610, 6611, 6612, 6613, 6614, 6615, 6616, 6617, 6618, 6619, 6620, 6621, 6622, 6623, 6624
6625, 6626, 6627, 6628, 6629, 6630, 6631, 6632, 6633, 6634, 6635, 6636, 6637, 6638, 6639, 6640
6641, 6642, 6643, 6644, 6645, 6646, 6647, 6648, 6649, 6650, 6651, 6652, 6653, 6654, 6655, 6656
6657, 6658, 6659, 6660, 6661, 6662, 6663, 6664, 6665, 6666, 6667, 6668, 6669, 6670, 6671, 6672
6673, 6674, 6675, 6676, 6677, 6678, 6679, 6680, 6681, 6682, 6683, 6684, 6685, 6686, 6687, 6688
6689, 6690, 6691, 6692, 6693, 6694, 6695, 6696, 6697, 6698, 6699, 6700, 6701, 6702, 6703, 6704
6705, 6706, 6707, 6708, 6709, 6710, 6711, 6712, 6713, 6714, 6715, 6716, 6717, 6718, 6719, 6720
6721, 6722, 6723, 6724, 6725, 6726, 6727, 6728, 6729, 6730, 6731, 6732, 6733, 6734, 6735, 6736
6737, 6738, 6739, 6740, 6741, 6742, 6743, 6744, 6745, 6746, 6747, 6748, 6749, 6750, 6751, 6752
6753, 6754, 6755, 6756, 6757, 6758, 6759, 6760, 6761, 6762, 6763, 6764, 6765, 6766, 6767, 6768
6769, 6770, 6771, 6772, 6773, 6774, 6775, 6776, 6777, 6778, 6779, 6780, 6781, 6782, 6783, 6784
6785, 6786, 6787, 6788, 6789, 6790, 6791, 6792, 6793, 6794, 6795, 6796, 6797, 6798, 6799, 6800
6801, 6802, 6803, 6804, 6805, 6806, 6807, 6808, 6809, 6810, 6811, 6812, 6813, 6814, 6815, 6816
6817, 6818, 6819, 6820, 6821, 6822, 6823, 6824, 6825, 6826, 6827, 6828, 6829, 6830, 6831, 6832
6833, 6834, 6835, 6836, 6837, 6838, 6839, 6840, 6841, 6842, 6843, 6844, 6845, 6846, 6847, 6848
6849, 6850, 6851, 6852, 6853, 6854, 6855, 6856, 6857, 6858, 6859, 6860, 6861, 6862, 6863, 6864
6865, 6866, 6867, 6868, 6869, 6870, 6871, 6872, 6873, 6874, 6875, 6876, 6877, 6878, 6879, 6880
6881, 6882, 6883, 6884, 6885, 6886, 6887, 6888, 6889, 6890, 6891, 6892, 6893, 6894, 6895, 6896
6897, 6898, 6899, 6900, 6901, 6902, 6903, 6904, 6905, 6906, 6907, 6908, 6909, 6910, 6911, 6912
6913, 6914, 6915, 6916, 6917, 6918, 6919, 6920, 6921, 6922, 6923, 6924, 6925, 6926, 6927, 6928
6929, 6930, 6931, 6932, 6933, 6934, 6935, 6936, 6937, 6938, 6939, 6940, 6941, 6942, 6943, 6944
6945, 6946, 6947, 6948, 6949, 6950, 6951, 6952, 6953, 6954, 6955, 6956, 6957, 6958, 6959, 6960
6961, 6962, 6963, 6964, 6965, 6966, 6967, 6968, 6969, 6970, 6971, 6972, 6973, 6974, 6975, 6976
6977, 6978, 6979, 6980, 6981, 6982, 6983, 6984, 6985, 6986, 6987, 6988, 6989, 6990, 6991, 6992
6993, 6994, 6995, 6996, 6997, 6998, 6999, 7000, 7001, 7002, 7003, 7004, 7005, 7006, 7007, 7008
7009, 7010, 7011, 7012, 7013, 7014, 7015, 7016, 7017, 7018, 7019, 7020, 7021, 7022, 7023, 7024
7025, 7026, 7027, 7028, 7029, 7030, 7031, 7032, 7033, 7034, 7035, 7036, 7037, 7038, 7039, 7040
7041, 7042, 7043, 7044, 7045, 7046, 7047, 7048, 7049, 7050, 7051, 7052, 7053, 7054, 7055, 7056
7057, 7058, 7059, 7060, 7061, 7062, 7063, 7064, 7065, 7066, 7067, 7068, 7069, 7070, 7071, 7072
7073, 7074, 7075, 7076, 7077, 7078, 7079, 7080, 7081, 7082, 7083, 7084, 7085, 7086, 7087, 7088
7089, 7090, 7091, 7092, 7093, 7094, 7095, 7096, 7097, 7098, 7099, 7100, 7101, 7102, 7103, 7104
7105, 7106, 7107, 7108, 7109, 7110, 7111, 7112, 7113, 7114, 7115, 7116, 7117, 7118, 7119, 7120
7121, 7122, 7123, 7124, 7125, 7126, 7127, 7128, 7129, 7130, 7131, 7132, 7133, 7134, 7135, 7136
7137, 7138, 7139, 7140, 7141, 7142, 7143, 7144, 7145, 7146, 7147, 7148, 7149, 7150, 7151, 7152
7153, 7154, 7155, 7156, 7157, 7158, 7159, 7160, 7161, 7162, 7163, 7164, 7165, 7166, 7167, 7168
7169, 7170, 7171, 7172, 7173, 7174, 7175, 7176, 7177, 7178, 7179, 7180, 7181, 7182, 7183, 7184
7185, 7186, 7187, 7188, 7189, 7190, 7191, 7192, 7193, 7194, 7195, 7196, 7197, 7198, 7199, 7200
7201, 7202, 7203, 7204, 7205, 7206, 7207, 7208, 7209, 7210, 7211, 7212, 7213, 7214, 7215, 7216
7217, 7218, 7219, 7220, 7221, 7222, 7223, 7224, 7225, 7226, 7227, 7228, 7229, 7230, 7231, 7232
7233, 7234, 7235, 7236, 7237, 7238, 7239, 7240, 7241, 7242, 7243, 7244, 7245, 7246, 7247, 7248
7249, 7250, 7251, 7252, 7253, 7254, 7255, 7256, 7257, 7258, 7259, 7260, 7261, 7262, 7263, 7264
7265, 7266, 7267, 7268, 7269, 7270, 7271, 7272, 7273, 7274, 7275, 7276, 7277, 7278, 7279, 7280
7281, 7282, 7283, 7284, 7285, 7286, 7287, 7288, 7289, 7290, 7291, 7292, 7293, 7294, 7295, 7296
7297, 7298, 7299, 7300, 7301, 7302, 7303, 7304, 7305, 7306, 7307, 7308, 7309, 7310, 7311, 7312
7313, 7314, 7315, 7316, 7317, 7318, 7319, 7320, 7321, 7322, 7323, 7324, 7325, 7326, 7327, 7328
7329, 7330, 7331, 7332, 7333, 7334, 7335, 7336, 7337, 7338, 7339, 7340, 7341, 7342, 7343, 7344
7345, 7346, 7347, 7348, 7349, 7350, 7351, 7352, 7353, 7354, 7355, 7356, 7357, 7358, 7359, 7360
7361, 7362, 7363, 7364, 7365, 7366, 7367, 7368, 7369, 7370, 7371, 7372, 7373, 7374, 7375, 7376
7377, 7378, 7379, 7380, 7381, 7382, 7383, 7384, 7385, 7386, 7387, 7388, 7389, 7390, 7391, 7392
7393, 7394, 7395, 7396, 7397, 7398, 7399, 7400, 7401, 7402, 7403, 7404, 7405, 7406, 7407, 7408
7409, 7410, 7411, 7412, 7413, 7414, 7415, 7416, 7417, 7418, 7419, 7420, 7421, 7422, 7423, 7424
7425, 7426, 7427, 7428, 7429, 7430, 7431, 7432, 7433, 7434, 7435, 7436, 7437, 7438, 7439, 7440
7441, 7442, 7443, 7444, 7445, 7446, 7447, 7448, 7449, 7450, 7451, 7452, 7453, 7454, 7455, 7456
7457, 7458, 7459, 7460, 7461, 7462, 7463, 7464, 7465, 7466, 7467, 7468, 7469, 7470, 7471, 7472
7473, 7474, 7475, 7476, 7477, 7478, 7479, 7480, 7481, 7482, 7483, 7484, 7485, 7486, 7487, 7488
7489, 7490, 7491, 7492, 7493, 7494, 7495, 7496, 7497, 7498, 7499, 7500, 7501, 7502, 7503, 7504
7505, 7506, 7507, 7508, 7509, 7510, 7511, 7512, 7513, 7514, 7515, 7516, 7517, 7518, 7519, 7520
7521, 7522, 7523, 7524, 7525, 7526, 7527, 7528, 7529, 7530, 7531, 7532, 7533, 7534, 7535, 7536
7537, 7538, 7539, 7540, 7541, 7542, 7543, 7544, 7545, 7546, 7547, 7548, 7549, 7550, 7551, 7552
7553, 7554, 7555, 7556, 7557, 7558, 7559, 7560, 7561, 7562, 7563, 7564, 7565, 7566, 7567, 7568
7569, 7570, 7571, 7572, 7573, 7574, 7575, 7576, 7577, 7578, 7579, 7580, 7581, 7582, 7583, 7584
7585, 7586, 7587, 7588, 7589, 7590, 7591, 7592, 7593, 7594, 7595, 7596, 7597, 7598, 7599, 7600
7601, 7602, 7603, 7604, 7605, 7606, 7607, 7608, 7609, 7610, 7611, 7612, 7613, 7614, 7615, 7616
7617, 7618, 7619, 7620, 7621, 7622, 7623, 7624, 7625, 7626, 7627, 7628, 7629, 7630, 7631, 7632
7633, 7634, 7635, 7636, 7637, 7638, 7639, 7640, 7641, 7642, 7643, 7644, 7645, 7646, 7647, 7648
7649, 7650, 7651, 7652, 7653, 7654, 7655, 7656, 7657, 7658, 7659, 7660, 7661, 7662, 7663, 7664
7665, 7666, 7667, 7668, 7669, 7670, 7671, 7672, 7673, 7674, 7675, 7676, 7677, 7678, 7679, 7680
7681, 7682, 7683, 7684, 7685, 7686, 7687, 7688, 7689, 7690, 7691, 7692, 7693, 7694, 7695, 7696
7697, 7698, 7699, 7700, 7701, 7702, 7703, 7704, 7705, 7706, 7707, 7708, 7709, 7710, 7711, 7712
7713, 7714, 7715, 7716, 7717, 7718, 7719, 7720, 7721, 7722, 7723, 7724, 7725, 7726, 7727, 7728
7729, 7730, 7731, 7732, 7733, 7734, 7735, 7736, 7737, 7738, 7739, 7740, 7741, 7742, 7743, 7744
7745, 7746, 7747, 7748, 7749, 7750, 7751, 7752, 7753, 7754, 7755, 7756, 7757, 7758, 7759, 7760
7761, 7762, 7763, 7764, 7765, 7766, 7767, 7768, 7769, 7770, 7771, 7772, 7773, 7774, 7775, 7776
7777, 7778, 7779, 7780, 7781, 7782, 7783, 7784, 7785, 7786, 7787, 7788, 7789, 7790, 7791, 7792
7793, 7794, 7795, 7796, 7797, 7798, 7799, 7800, 7801, 7802, 7803, 7804, 7805, 7806, 7807, 7808
7809, 7810, 7811, 7812, 7813, 7814, 7815, 7816, 7817, 7818, 7819, 7820, 7821, 7822, 7823, 7824
7825, 7826, 7827, 7828, 7829, 7830, 7831, 7832, 7833, 7834, 7835, 7836, 7837, 7838, 7839, 7840
7841, 7842, 7843, 7844, 7845, 7846, 7847, 7848, 7849, 7850, 7851, 7852, 7853, 7854, 7855, 7856
7857, 7858, 7859, 7860, 7861, 7862, 7863, 7864, 7865, 7866, 7867, 7868, 7869, 7870, 7871, 7872
7873, 7874, 7875, 7876, 7877, 7878, 7879, 7880, 7881, 7882, 7883, 7884, 7885, 7886, 7887, 7888
7889, 7890, 7891, 7892, 7893, 7894, 7895, 7896, 7897, 7898, 7899, 7900, 7901, 7902, 7903, 7904
7905, 7906, 7907, 7908, 7909, 7910, 7911, 7912, 7913, 7914, 7915, 7916, 7917, 7918, 7919, 7920
7921, 7922, 7923, 7924, 7925, 7926, 7927, 7928, 7929, 7930, 7931, 7932, 7933, 7934, 7935, 7936
7937, 7938, 7939, 7940, 7941, 7942, 7943, 7944, 7945, 7946, 7947, 7948, 7949, 7950, 7951, 7952
7953, 7954, 7955, 7956, 7957, 7958, 7959, 7960, 7961, 7962, 7963, 7964, 7965, 7966, 7967, 7968
7969, 7970, 7971, 7972, 7973, 7974, 7975, 7976, 7977, 7978, 7979, 7980, 7981, 7982, 7983, 7984
7985, 7986, 7987, 7988, 7989, 7990, 7991, 7992, 7993, 7994, 7995, 7996, 7997, 7998, 7999, 8000
8001, 8002, 8003, 8004, 8005, 8006, 8007, 8008, 8009, 8010, 8011, 8012, 8013, 8014, 8015, 8016
8017, 8018, 8019, 8020, 8021, 8022, 8023, 8024, 8025, 8026, 8027, 8028, 8029, 8030, 8031, 8032
8033, 8034, 8035, 8036, 8037, 8038, 8039, 8040, 8041, 8042, 8043, 8044, 8045, 8046, 8047, 8048
8049, 8050, 8051, 8052, 8053, 8054, 8055, 8056, 8057, 8058, 8059, 8060, 8061, 8062, 8063, 8064
8065, 8066, 8067, 8068, 8069, 8070, 8071, 8072, 8073, 8074, 8075, 8076, 8077, 8078, 8079, 8080
8081, 8082, 8083, 8084, 8085, 8086, 8087, 8088, 8089, 8090, 8091, 8092, 8093, 8094, 8095, 8096
8097, 8098, 8099, 8100, 8101, 8102, 8103, 8104, 8105, 8106, 8107, 8108, 8109, 8110, 8111, 8112
8113, 8114, 8115, 8116, 8117, 8118, 8119, 8120, 8121, 8122, 8123, 8124, 8125, 8126, 8127, 8128
8129, 8130, 8131, 8132, 8133, 8134, 8135, 8136, 8137, 8138, 8139, 8140, 8141, 8142, 8143, 8144
8145, 8146, 8147, 8148, 8149, 8150, 8151, 8152, 8153, 8154, 8155, 8156, 8157, 8158, 8159, 8160
8161, 8162, 8163, 8164, 8165, 8166, 8167, 8168, 8169, 8170, 8171, 8172, 8173, 8174, 8175, 8176
8177, 8178, 8179, 8180, 8181, 8182, 8183, 8184, 8185, 8186, 8187, 8188, 8189, 8190, 8191, 8192
8193, 8194, 8195, 8196, 8197, 8198, 8199, 8200, 8201, 8202, 8203, 8204, 8205, 8206, 8207, 8208
8209, 8210, 8211, 8212, 8213, 8214, 8215, 8216, 8217, 8218, 8219, 8220, 8221, 8222, 8223, 8224
8225, 8226, 8227, 8228, 8229, 8230, 8231, 8232, 8233, 8234, 8235, 8236, 8237, 8238, 8239, 8240
8241, 8242, 8243, 8244, 8245, 8246, 8247, 8248, 8249, 8250, 8251, 8252, 8253, 8254, 8255, 8256
8257, 8258, 8259, 8260, 8261, 8262, 8263, 8264, 8265, 8266, 8267, 8268, 8269, 8270, 8271, 8272
8273, 8274, 8275, 8276, 8277, 8278, 8279, 8280, 8281, 8282, 8283, 8284, 8285, 8286, 8287, 8288
8289, 8290, 8291, 8292, 8293, 8294, 8295, 8296, 8297, 8298, 8299, 8300, 8301, 8302, 8303, 8304
8305, 8306, 8307, 8308, 8309, 8310, 8311, 8312, 8313, 8314, 8315, 8316, 8317, 8318, 8319, 8320
8321, 8322, 8323, 8324, 8325, 8326, 8327, 8328, 8329, 8330, 8331, 8332, 8333, 8334, 8335, 8336
8337, 8338, 8339, 8340, 8341, 8342, 8343, 8344, 8345, 8346, 8347, 8348, 8349, 8350, 8351, 8352
8353, 8354, 8355, 8356, 8357, 8358, 8359, 8360, 8361, 8362, 8363, 8364, 8365, 8366, 8367, 8368
8369, 8370, 8371, 8372, 8373, 8374, 8375, 8376, 8377, 8378, 8379, 8380, 8381, 8382, 8383, 8384
8385, 8386, 8387, 8388, 8389, 8390, 8391, 8392, 8393, 8394, 8395, 8396, 8397, 8398, 8399, 8400
8401, 8402, 8403, 8404, 8405, 8406, 8407, 8408, 8409, 8410, 8411, 8412, 8413, 8414, 8415, 8416
8417, 8418, 8419, 8420, 8421, 8422, 8423, 8424, 8425, 8426, 8427, 8428, 8429, 8430, 8431, 8432
8433, 8434, 8435, 8436, 8437, 8438, 8439, 8440, 8441, 8442, 8443, 8444, 8445, 8446, 8447, 8448
8449, 8450, 8451, 8452, 8453, 8454, 8455, 8456, 8457, 8458, 8459, 8460, 8461, 8462, 8463, 8464
8465, 8466, 8467, 8468, 8469, 8470, 8471, 8472, 8473, 8474, 8475, 8476, 8477, 8478, 8479, 8480
8481, 8482, 8483, 8484, 8485, 8486, 8487, 8488, 8489, 8490, 8491, 8492, 8493, 8494, 8495, 8496
8497, 8498, 8499, 8500, 8501, 8502, 8503, 8504, 8505, 8506, 8507, 8508, 8509, 8510, 8511, 8512
8513, 8514, 8515, 8516, 8517, 8518, 8519, 8520, 8521, 8522, 8523, 8524, 8525, 8526, 8527, 8528
8529, 8530, 8531, 8532, 8533, 8534, 8535, 8536, 8537, 8538, 8539, 8540, 8541, 8542, 8543, 8544
8545, 8546, 8547, 8548, 8549, 8550, 8551, 8552, 8553, 8554, 8555, 8556, 8557, 8558, 8559, 8560
8561, 8562, 8563, 8564, 8565, 8566, 8567, 8568, 8569, 8570, 8571, 8572, 8573, 8574, 8575, 8576
8577, 8578, 8579, 8580, 8581, 8582, 8583, 8584, 8585, 8586, 8587, 8588, 8589, 8590, 8591, 8592
8593, 8594, 8595, 8596, 8597, 8598, 8599, 8600, 8601, 8602, 8603, 8604, 8605, 8606, 8607, 8608
8609, 8610, 8611, 8612, 8613, 8614, 8615, 8616, 8617, 8618, 8619, 8620, 8621, 8622, 8623, 8624
8625, 8626, 8627, 8628, 8629, 8630, 8631, 8632, 8633, 8634, 8635, 8636, 8637, 8638, 8639, 8640
8641, 8642, 8643, 8644, 8645, 8646, 8647, 8648, 8649, 8650, 8651, 8652, 8653, 8654, 8655, 8656
8657, 8658, 8659, 8660, 8661, 8662, 8663, 8664, 8665, 8666, 8667, 8668, 8669, 8670, 8671, 8672
8673, 8674, 8675, 8676, 8677, 8678, 8679, 8680, 8681, 8682, 8683, 8684, 8685, 8686, 8687, 8688
8689, 8690, 8691, 8692, 8693, 8694, 8695, 8696, 8697, 8698, 8699, 8700, 8701, 8702, 8703, 8704
8705, 8706, 8707, 8708, 8709, 8710, 8711, 8712, 8713, 8714, 8715, 8716, 8717, 8718, 8719, 8720
8721, 8722, 8723, 8724, 8725, 8726, 8727, 8728, 8729, 8730, 8731, 8732, 8733, 8734, 8735, 8736
8737, 8738, 8739, 8740, 8741, 8742, 8743, 8744, 8745, 8746, 8747, 8748, 8749, 8750, 8751, 8752
8753, 8754, 8755, 8756, 8757, 8758, 8759, 8760, 8761, 8762, 8763, 8764, 8765, 8766, 8767, 8768
8769, 8770, 8771, 8772, 8773, 8774, 8775, 8776, 8777, 8778, 8779, 8780, 8781, 8782, 8783, 8784
8785, 8786, 8787, 8788, 8789, 8790, 8791, 8792, 8793, 8794, 8795, 8796, 8797, 8798, 8799, 8800
8801, 8802, 8803, 8804, 8805, 8806, 8807, 8808, 8809, 8810, 8811, 8812, 8813, 8814, 8815, 8816
8817, 8818, 8819, 8820, 8821, 8822, 8823, 8824, 8825, 8826, 8827, 8828, 8829, 8830, 8831, 8832
8833, 8834, 8835, 8836, 8837, 8838, 8839, 8840, 8841, 8842, 8843, 8844, 8845, 8846, 8847, 8848
8849, 8850, 8851, 8852, 8853, 8854, 8855, 8856, 8857, 8858, 8859, 8860, 8861, 8862, 8863, 8864
8865, 8866, 8867, 8868, 8869, 8870, 8871, 8872, 8873, 8874, 8875, 8876, 8877, 8878, 8879, 8880
8881, 8882, 8883, 8884, 8885, 8886, 8887, 8888, 8889, 8890, 8891, 8892, 8893, 8894, 8895, 8896
8897, 8898, 8899, 8900, 8901, 8902, 8903, 8904, 8905, 8906, 8907, 8908, 8909, 8910, 8911, 8912
8913, 8914, 8915, 8916, 8917, 8918, 8919, 8920, 8921, 8922, 8923, 8924, 8925, 8926, 8927, 8928
8929, 8930, 8931, 8932, 8933, 8934, 8935, 8936, 8937, 8938, 8939, 8940, 8941, 8942, 8943, 8944
8945, 8946, 8947, 8948, 8949, 8950, 8951, 8952, 8953, 8954, 8955, 8956, 8957, 8958, 8959, 8960
8961, 8962, 8963, 8964, 8965, 8966, 8967, 8968, 8969, 8970, 8971, 8972, 8973, 8974, 8975, 8976
8977, 8978, 8979, 8980, 8981, 8982, 8983, 8984, 8985, 8986, 8987, 8988, 8989, 8990, 8991, 8992
8993, 8994, 8995, 8996, 8997, 8998, 8999, 9000, 9001, 9002, 9003, 9004, 9005, 9006, 9007, 9008
9009, 9010, 9011, 9012, 9013, 9014, 9015, 9016, 9017, 9018, 9019, 9020, 9021, 9022, 9023, 9024
9025, 9026, 9027, 9028, 9029, 9030, 9031, 9032, 9033, 9034, 9035, 9036, 9037, 9038, 9039, 9040
9041, 9042, 9043, 9044, 9045, 9046, 9047, 9048, 9049, 9050, 9051, 9052, 9053, 9054, 9055, 9056
9057, 9058, 9059, 9060, 9061, 9062, 9063, 9064, 9065, 9066, 9067, 9068, 9069, 9070, 9071, 9072
9073, 9074, 9075, 9076, 9077, 9078, 9079, 9080, 9081, 9082, 9083, 9084, 9085, 9086, 9087, 9088
9089, 9090, 9091, 9092, 9093, 9094, 9095, 9096, 9097, 9098, 9099, 9100, 9101, 9102, 9103, 9104
9105, 9106, 9107, 9108, 9109, 9110, 9111, 9112, 9113, 9114, 9115, 9116, 9117, 9118, 9119, 9120
9121, 9122, 9123, 9124, 9125, 9126, 9127, 9128, 9129, 9130, 9131, 9132, 9133, 9134, 9135, 9136
9137, 9138, 9139, 9140, 9141, 9142, 9143, 9144, 9145, 9146, 9147, 9148, 9149, 9150, 9151, 9152
9153, 9154, 9155, 9156, 9157, 9158, 9159, 9160, 9161, 9162, 9163, 9164, 9165, 9166, 9167, 9168
9169, 9170, 9171, 9172, 9173, 9174, 9175, 9176, 9177, 9178, 9179, 9180, 9181, 9182, 9183, 9184
9185, 9186, 9187, 9188, 9189, 9190, 9191, 9192, 9193, 9194, 9195, 9196, 9197, 9198, 9199, 9200
9201, 9202, 9203, 9204, 9205, 9206, 9207, 9208, 9209, 9210, 9211, 9212, 9213, 9214, 9215, 9216
9217, 9218, 9219, 9220, 9221, 9222, 9223, 9224, 9225, 9226, 9227, 9228, 9229, 9230, 9231, 9232
9233, 9234, 9235, 9236, 9237, 9238, 9239, 9240, 9241, 9242, 9243, 9244, 9245, 9246, 9247, 9248
9249, 9250, 9251, 9252, 9253, 9254, 9255, 9256, 9257, 9258, 9259, 9260, 9261, 9262, 9263, 9264
9265, 9266, 9267, 9268, 9269, 9270, 9271, 9272, 9273, 9274, 9275, 9276, 9277, 9278, 9279, 9280
9281, 9282, 9283, 9284, 9285, 9286, 9287, 9288, 9289, 9290, 9291, 9292, 9293, 9294, 9295, 9296
9297, 9298, 9299, 9300, 9301, 9302, 9303, 9304, 9305, 9306, 9307, 9308, 9309, 9310, 9311, 9312
9313, 9314, 9315, 9316, 9317, 9318, 9319, 9320, 9321, 9322, 9323, 9324, 9325, 9326, 9327, 9328
9329, 9330, 9331, 9332, 9333, 9334, 9335, 9336, 9337, 9338, 9339, 9340, 9341, 9342, 9343, 9344
9345, 9346, 9347, 9348, 9349, 9350, 9351, 9352, 9353, 9354, 9355, 9356, 9357, 9358, 9359, 9360
9361, 9362, 9363, 9364, 9365, 9366, 9367, 9368, 9369, 9370, 9371, 9372, 9373, 9374, 9375, 9376
9377, 9378, 9379, 9380, 9381, 9382, 9383, 9384, 9385, 9386, 9387, 9388, 9389, 9390, 9391, 9392
9393, 9394, 9395, 9396, 9397, 9398, 9399, 9400, 9401, 9402, 9403, 9404, 9405, 9406, 9407, 9408
9409, 9410, 9411, 9412, 9413, 9414, 9415, 9416, 9417, 9418, 9419, 9420, 9421, 9422, 9423, 9424
9425, 9426, 9427, 9428, 9429, 9430, 9431, 9432, 9433, 9434, 9435, 9436, 9437, 9438, 9439, 9440
9441, 9442, 9443, 9444, 9445, 9446, 9447, 9448, 9449, 9450, 9451, 9452, 9453, 9454, 9455, 9456
9457, 9458, 9459, 9460, 9461, 9462, 9463, 9464, 9465, 9466, 9467, 9468, 9469, 9470, 9471, 9472
9473, 9474, 9475, 9476, 9477, 9478, 9479, 9480, 9481, 9482, 9483, 9484, 9485, 9486, 9487, 9488
9489, 9490, 9491, 9492, 9493, 9494, 9495, 9496, 9497, 9498, 9499, 9500, 9501, 9502, 9503, 9504
9505, 9506, 9507, 9508, 9509, 9510, 9511, 9512, 9513, 9514, 9515, 9516, 9517, 9518, 9519, 9520
9521, 9522, 9523, 9524, 9525, 9526, 9527, 9528, 9529, 9530, 9531, 9532, 9533, 9534, 9535, 9536
9537, 9538, 9539, 9540, 9541, 9542, 9543, 9544, 9545, 9546, 9547, 9548, 9549, 9550, 9551, 9552
9553, 9554, 9555, 9556, 9557, 9558, 9559, 9560, 9561, 9562, 9563, 9564, 9565, 9566, 9567, 9568
9569, 9570, 9571, 9572, 9573, 9574, 9575, 9576, 9577, 9578, 9579, 9580, 9581, 9582, 9583, 9584
9585, 9586, 9587, 9588, 9589, 9590, 9591, 9592, 9593, 9594, 9595, 9596, 9597, 9598, 9599, 9600
9601, 9602, 9603, 9604, 9605, 9606, 9607, 9608, 9609, 9610, 9611, 9612, 9613, 9614, 9615, 9616
9617, 9618, 9619, 9620, 9621, 9622, 9623, 9624, 9625, 9626, 9627, 9628, 9629, 9630, 9631, 9632
9633, 9634, 9635, 9636, 9637, 9638, 9639, 9640, 9641, 9642, 9643, 9644, 9645, 9646, 9647, 9648
9649, 9650, 9651, 9652, 9653, 9654, 9655, 9656, 9657, 9658, 9659, 9660, 9661, 9662, 9663, 9664
9665, 9666, 9667, 9668, 9669, 9670, 9671, 9672, 9673, 9674, 9675, 9676, 9677, 9678, 9679, 9680
9681, 9682, 9683, 9684, 9685, 9686, 9687, 9688, 9689, 9690, 9691, 9692, 9693, 9694, 9695, 9696
9697, 9698, 9699, 9700, 9701, 9702, 9703, 9704, 9705, 9706, 9707, 9708, 9709, 9710, 9711, 9712
9713, 9714, 9715, 9716, 9717, 9718, 9719, 9720, 9721, 9722, 9723, 9724, 9725, 9726, 9727, 9728
9729, 9730, 9731, 9732, 9733, 9734, 9735, 9736, 9737, 9738, 9739, 9740, 9741, 9742, 9743, 9744
9745, 9746, 9747, 9748, 9749, 9750, 9751, 9752, 9753, 9754, 9755, 9756, 9757, 9758, 9759, 9760
9761, 9762, 9763, 9764, 9765, 9766, 9767, 9768, 9769, 9770, 9771, 9772, 9773, 9774, 9775, 9776
9777, 9778, 9779, 9780, 9781, 9782, 9783, 9784, 9785, 9786, 9787, 9788, 9789, 9790, 9791, 9792
9793, 9794, 9795, 9796, 9797, 9798, 9799, 9800, 9801, 9802, 9803, 9804, 9805, 9806, 9807, 9808
9809, 9810, 9811, 9812, 9813, 9814, 9815, 9816, 9817, 9818, 9819, 9820, 9821, 9822, 9823, 9824
9825, 9826, 9827, 9828, 9829, 9830, 9831, 9832, 9833, 9834, 9835, 9836, 9837, 9838, 9839, 9840
9841, 9842, 9843, 9844, 9845, 9846, 9847, 9848, 9849, 9850, 9851, 9852, 9853, 9854, 9855, 9856
9857, 9858, 9859, 9860, 9861, 9862, 9863, 9864, 9865, 9866, 9867, 9868, 9869, 9870, 9871, 9872
9873, 9874, 9875, 9876, 9877, 9878, 9879, 9880, 9881, 9882, 9883, 9884, 9885, 9886, 9887, 9888
9889, 9890, 9891, 9892, 9893, 9894, 9895, 9896, 9897, 9898, 9899, 9900, 9901, 9902, 9903, 9904
9905, 9906, 9907, 9908, 9909, 9910, 9911, 9912, 9913, 9914, 9915, 9916, 9917, 9918, 9919, 9920
9921, 9922, 9923, 9924, 9925, 9926, 9927, 9928, 9929, 9930, 9931, 9932, 9933, 9934, 9935, 9936
9937, 9938, 9939, 9940, 9941, 9942, 9943, 9944, 9945, 9946, 9947, 9948, 9949, 9950, 9951, 9952
9953, 9954, 9955, 9956, 9957, 9958, 9959, 9960, 9961, 9962, 9963, 9964, 9965, 9966, 9967, 9968
9969, 9970, 9971, 9972, 9973, 9974, 9975, 9976, 9977, 9978, 9979, 9980, 9981, 9982, 9983, 9984
9985, 9986, 9987, 9988, 9989, 9990, 9991, 9992, 9993, 9994, 9995, 9996, 9997, 9998, 9999, 10000
10001, 10002, 10003, 10004, 10005, 10006, 10007, 10008, 10009, 10010, 10011, 10012, 10013, 10014, 10015, 10016
10017, 10018, 10019, 10020, 10021, 10022, 10023, 10024, 10025, 10026, 10027, 10028, 10029, 10030, 10031, 10032
10033, 10034, 10035, 10036, 10037, 10038, 10039, 10040, 10041, 10042, 10043, 10044, 10045, 10046, 10047, 10048
10049, 10050, 10051, 10052, 10053, 10054, 10055, 10056, 10057, 10058, 10059, 10060, 10061, 10062, 10063, 10064
10065, 10066, 10067, 10068, 10069, 10070, 10071, 10072, 10073, 10074, 10075, 10076, 10077, 10078, 10079, 10080
10081, 10082, 10083, 10084, 10085, 10086, 10087, 10088, 10089, 10090, 10091, 10092, 10093, 10094, 10095, 10096
10097, 10098, 10099, 10100, 10101, 10102, 10103, 10104, 10105, 10106, 10107, 10108, 10109, 10110, 10111, 10112
10113, 10114, 10115, 10116, 10117, 10118, 10119, 10120, 10121, 10122, 10123, 10124, 10125, 10126, 10127, 10128
10129, 10130, 10131, 10132, 10133, 10134, 10135, 10136, 10137, 10138, 10139, 10140, 10141, 10142, 10143, 10144
10145, 10146, 10147, 10148, 10149, 10150, 10151, 10152, 10153, 10154, 10155, 10156, 10157, 10158, 10159, 10160
10161, 10162, 10163, 10164, 10165, 10166, 10167, 10168, 10169, 10170, 10171, 10172, 10173, 10174, 10175, 10176
10177, 10178, 10179, 10180, 10181, 10182, 10183, 10184, 10185, 10186, 10187, 10188, 10189, 10190, 10191, 10192
10193, 10194, 10195, 10196, 10197, 10198, 10199, 10200, 10201, 10202, 10203, 10204, 10205, 10206, 10207, 10208
10209, 10210, 10211, 10212, 10213, 10214, 10215, 10216, 10217, 10218, 10219, 10220, 10221, 10222, 10223, 10224
10225, 10226, 10227, 10228, 10229, 10230, 10231, 10232, 10233, 10234, 10235, 10236, 10237, 10238, 10239, 10240
10241, 10242, 10243, 10244, 10245, 10246, 10247, 10248, 10249, 10250, 10251, 10252, 10253, 10254, 10255, 10256
10257, 10258, 10259, 10260, 10261, 10262, 10263, 10264, 10265, 10266, 10267, 10268, 10269, 10270, 10271, 10272
10273, 10274, 10275, 10276, 10277, 10278, 10279, 10280, 10281, 10282, 10283, 10284, 10285, 10286, 10287, 10288
10289, 10290, 10291, 10292, 10293, 10294, 10295, 10296, 10297, 10298, 10299, 10300, 10301, 10302, 10303, 10304
10305, 10306, 10307, 10308, 10309, 10310, 10311, 10312, 10313, 10314, 10315, 10316, 10317, 10318, 10319, 10320
10321, 10322, 10323, 10324, 10325, 10326, 10327, 10328, 10329, 10330, 10331, 10332, 10333, 10334, 10335, 10336
10337, 10338, 10339, 10340, 10341, 10342, 10343, 10344, 10345, 10346, 10347, 10348, 10349, 10350, 10351, 10352
10353, 10354, 10355, 10356, 10357, 10358, 10359, 10360, 10361, 10362, 10363, 10364, 10365, 10366, 10367, 10368
10369, 10370, 10371, 10372, 10373, 10374, 10375, 10376, 10377, 10378, 10379, 10380, 10381, 10382, 10383, 10384
10385, 10386, 10387, 10388, 10389, 10390, 10391, 10392, 10393, 10394, 10395, 10396, 10397, 10398, 10399, 10400
10401, 10402, 10403, 10404, 10405, 10406, 10407, 10408, 10409, 10410, 10411, 10412, 10413, 10414, 10415, 10416
10417, 10418, 10419, 10420, 10421, 10422, 10423, 10424, 10425, 10426, 10427, 10428, 10429, 10430, 10431, 10432
10433, 10434, 10435, 10436, 10437, 10438, 10439, 10440, 10441, 10442, 10443, 10444, 10445, 10446, 10447, 10448
10449, 10450, 10451, 10452, 10453, 10454, 10455, 10456, 10457, 10458, 10459, 10460, 10461, 10462, 10463, 10464
10465, 10466, 10467, 10468, 10469, 10470, 10471, 10472, 10473, 10474, 10475, 10476, 10477, 10478, 10479, 10480
10481, 10482, 10483, 10484, 10485, 10486, 10487, 10488, 10489, 10490, 10491, 10492, 10493, 10494, 10495, 10496
10497, 10498, 10499, 10500, 10501, 10502, 10503, 10504, 10505, 10506, 10507, 10508, 10509, 10510, 10511, 10512
10513, 10514, 10515, 10516, 10517, 10518, 10519, 10520, 10521, 10522, 10523, 10524, 10525, 10526, 10527, 10528
10529, 10530, 10531, 10532, 10533, 10534, 10535, 10536, 10537, 10538, 10539, 10540, 10541, 10542, 10543, 10544
10545, 10546, 10547, 10548, 10549, 10550, 10551, 10552, 10553, 10554, 10555, 10556, 10557, 10558, 10559, 10560
10561, 10562, 10563, 10564, 10565, 10566, 10567, 10568, 10569, 10570, 10571, 10572, 10573, 10574, 10575, 10576
10577, 10578, 10579, 10580, 10581, 10582, 10583, 10584, 10585, 10586, 10587, 10588, 10589, 10590, 10591, 10592
10593, 10594, 10595, 10596, 10597, 10598, 10599, 10600, 10601, 10602, 10603, 10604, 10605, 10606, 10607, 10608
10609, 10610, 10611, 10612, 10613, 10614, 10615, 10616, 10617, 10618, 10619, 10620, 10621, 10622, 10623, 10624
10625, 10626, 10627, 10628, 10629, 10630, 10631, 10632, 10633, 10634, 10635, 10636, 10637, 10638, 10639, 10640
10641, 10642, 10643, 10644, 10645, 10646, 10647, 10648, 10649, 10650, 10651, 10652, 10653, 10654, 10655, 10656
10657, 10658, 10659, 10660, 10661, 10662, 10663, 10664, 10665, 10666, 10667, 10668, 10669, 10670, 10671, 10672
10673, 10674, 10675, 10676, 10677, 10678, 10679, 10680, 10681, 10682, 10683, 10684, 10685, 10686, 10687, 10688
10689, 10690, 10691, 10692, 10693, 10694, 10695, 10696, 10697, 10698, 10699, 10700, 10701, 10702, 10703, 10704
10705, 10706, 10707, 10708, 10709, 10710, 10711, 10712, 10713, 10714, 10715, 10716, 10717, 10718, 10719, 10720
10721, 10722, 10723, 10724, 10725, 10726, 10727, 10728, 10729, 10730, 10731, 10732, 10733, 10734, 10735, 10736
10737, 10738, 10739, 10740, 10741, 10742, 10743, 10744, 10745, 10746, 10747, 10748, 10749, 10750, 10751, 10752
10753, 10754, 10755, 10756, 10757, 10758, 10759, 10760, 10761, 10762, 10763, 10764, 10765, 10766, 10767, 10768
10769, 10770, 10771, 10772, 10773, 10774, 10775, 10776, 10777, 10778, 10779, 10780, 10781, 10782, 10783, 10784
10785, 10786, 10787, 10788, 10789, 10790, 10791, 10792, 10793, 10794, 10795, 10796, 10797, 10798, 10799, 10800
10801, 10802, 10803, 10804, 10805, 10806, 10807, 10808, 10809, 10810, 10811, 10812, 10813, 10814, 10815, 10816
10817, 10818, 10819, 10820, 10821, 10822, 10823, 10824, 10825, 10826, 10827, 10828, 10829, 10830, 10831, 10832
10833, 10834, 10835, 10836, 10837, 10838, 10839, 10840, 10841, 10842, 10843, 10844, 10845, 10846, 10847, 10848
10849, 10850, 10851, 10852, 10853, 10854, 10855, 10856, 10857, 10858, 10859, 10860, 10861, 10862, 10863, 10864
10865, 10866, 10867, 10868, 10869, 10870, 10871, 10872, 10873, 10874, 10875, 10876, 10877, 10878, 10879, 10880
10881, 10882, 10883, 10884, 10885, 10886, 10887, 10888, 10889, 10890, 10891, 10892, 10893, 10894, 10895, 10896
10897, 10898, 10899, 10900, 10901, 10902, 10903, 10904, 10905, 10906, 10907, 10908, 10909, 10910, 10911, 10912
10913, 10914, 10915, 10916, 10917, 10918, 10919, 10920, 10921, 10922, 10923, 10924, 10925, 10926, 10927, 10928
10929, 10930, 10931, 10932, 10933, 10934, 10935, 10936, 10937, 10938, 10939, 10940, 10941, 10942, 10943, 10944
10945, 10946, 10947, 10948, 10949, 10950, 10951, 10952, 10953, 10954, 10955, 10956, 10957, 10958, 10959, 10960
10961, 10962, 10963, 10964, 10965, 10966, 10967, 10968, 10969, 10970, 10971, 10972, 10973, 10974, 10975, 10976
10977, 10978, 10979, 10980, 10981, 10982, 10983, 10984, 10985, 10986, 10987, 10988, 10989, 10990, 10991, 10992
10993, 10994, 10995, 10996, 10997, 10998, 10999, 11000, 11001, 11002, 11003, 11004, 11005, 11006, 11007, 11008
11009, 11010, 11011, 11012, 11013, 11014, 11015, 11016, 11017, 11018, 11019, 11020, 11021, 11022, 11023, 11024
11025, 11026, 11027, 11028, 11029, 11030, 11031, 11032, 11033, 11034, 11035, 11036, 11037, 11038, 11039, 11040
11041, 11042, 11043, 11044, 11045, 11046, 11047, 11048, 11049, 11050, 11051, 11052, 11053, 11054, 11055, 11056
11057, 11058, 11059, 11060, 11061, 11062, 11063, 11064, 11065, 11066, 11067, 11068, 11069, 11070, 11071, 11072
11073, 11074, 11075, 11076, 11077, 11078, 11079, 11080, 11081, 11082, 11083, 11084, 11085, 11086, 11087, 11088
11089, 11090, 11091, 11092, 11093, 11094, 11095, 11096, 11097, 11098, 11099, 11100, 11101, 11102, 11103, 11104
11105, 11106, 11107, 11108, 11109, 11110, 11111, 11112, 11113, 11114, 11115, 11116, 11117, 11118, 11119, 11120
11121, 11122, 11123, 11124, 11125, 11126, 11127, 11128, 11129, 11130, 11131, 11132, 11133, 11134, 11135, 11136
11137, 11138, 11139, 11140, 11141, 11142, 11143, 11144, 11145, 11146, 11147, 11148, 11149, 11150, 11151, 11152
11153, 11154, 11155, 11156, 11157, 11158, 11159, 11160, 11161, 11162, 11163, 11164, 11165, 11166, 11167, 11168
11169, 11170, 11171, 11172, 11173, 11174, 11175, 11176, 11177, 11178, 11179, 11180, 11181, 11182, 11183, 11184
11185, 11186, 11187, 11188, 11189, 11190, 11191, 11192, 11193, 11194, 11195, 11196, 11197, 11198, 11199, 11200
11201, 11202, 11203, 11204, 11205, 11206, 11207, 11208, 11209, 11210, 11211, 11212, 11213, 11214, 11215, 11216
11217, 11218, 11219, 11220, 11221, 11222, 11223, 11224, 11225, 11226, 11227, 11228, 11229, 11230, 11231, 11232
11233, 11234, 11235, 11236, 11237, 11238, 11239, 11240, 11241, 11242, 11243, 11244, 11245, 11246, 11247, 11248
11249, 11250, 11251, 11252, 11253, 11254, 11255, 11256, 11257, 11258, 11259, 11260, 11261, 11262, 11263, 11264
11265, 11266, 11267, 11268, 11269, 11270, 11271, 11272, 11273, 11274, 11275, 11276, 11277, 11278, 11279, 11280
11281, 11282, 11283, 11284, 11285, 11286, 11287, 11288, 11289, 11290, 11291, 11292, 11293, 11294, 11295, 11296
11297, 11298, 11299, 11300, 11301, 11302, 11303, 11304, 11305, 11306, 11307, 11308, 11309, 11310, 11311, 11312
11313, 11314, 11315, 11316, 11317, 11318, 11319, 11320, 11321, 11322, 11323, 11324, 11325, 11326, 11327, 11328
11329, 11330, 11331, 11332, 11333, 11334, 11335, 11336, 11337, 11338, 11339, 11340, 11341, 11342, 11343, 11344
11345, 11346, 11347, 11348, 11349, 11350, 11351, 11352, 11353, 11354, 11355, 11356, 11357, 11358, 11359, 11360
11361, 11362, 11363, 11364, 11365, 11366, 11367, 11368, 11369, 11370, 11371, 11372, 11373, 11374, 11375, 11376
11377, 11378, 11379, 11380, 11381, 11382, 11383, 11384, 11385, 11386, 11387, 11388, 11389, 11390, 11391, 11392
11393, 11394, 11395, 11396, 11397, 11398, 11399, 11400, 11401, 11402, 11403, 11404, 11405, 11406, 11407, 11408
11409, 11410, 11411, 11412, 11413, 11414, 11415, 11416, 11417, 11418, 11419, 11420, 11421, 11422, 11423, 11424
11425, 11426, 11427, 11428, 11429, 11430, 11431, 11432, 11433, 11434, 11435, 11436, 11437, 11438, 11439, 11440
11441, 11442, 11443, 11444, 11445, 11446, 11447, 11448, 11449, 11450, 11451, 11452, 11453, 11454, 11455, 11456
11457, 11458, 11459, 11460, 11461, 11462, 11463, 11464, 11465, 11466, 11467, 11468, 11469, 11470, 11471, 11472
11473, 11474, 11475, 11476, 11477, 11478, 11479, 11480, 11481, 11482, 11483, 11484, 11485, 11486, 11487, 11488
11489, 11490, 11491, 11492, 11493, 11494, 11495, 11496, 11497, 11498, 11499, 11500, 11501, 11502, 11503, 11504
11505, 11506, 11507, 11508, 11509, 11510, 11511, 11512, 11513, 11514, 11515, 11516, 11517, 11518, 11519, 11520
11521, 11522, 11523, 11524, 11525, 11526, 11527, 11528, 11529, 11530, 11531, 11532, 11533, 11534, 11535, 11536
11537, 11538, 11539, 11540, 11541, 11542, 11543, 11544, 11545, 11546, 11547, 11548, 11549, 11550, 11551, 11552
11553, 11554, 11555, 11556, 11557, 11558, 11559, 11560, 11561, 11562, 11563, 11564, 11565, 11566, 11567, 11568
11569, 11570, 11571, 11572, 11573, 11574, 11575, 11576, 11577, 11578, 11579, 11580, 11581, 11582, 11583, 11584
11585, 11586, 11587, 11588, 11589, 11590, 11591, 11592, 11593, 11594, 11595, 11596, 11597, 11598, 11599, 11600
11601, 11602, 11603, 11604, 11605, 11606, 11607, 11608, 11609, 11610, 11611, 11612, 11613, 11614, 11615, 11616
11617, 11618, 11619, 11620, 11621, 11622, 11623, 11624, 11625, 11626, 11627, 11628, 11629, 11630, 11631, 11632
11633, 11634, 11635, 11636, 11637, 11638, 11639, 11640, 11641, 11642, 11643, 11644, 11645, 11646, 11647, 11648
11649, 11650, 11651, 11652, 11653, 11654, 11655, 11656, 11657, 11658, 11659, 11660, 11661, 11662, 11663, 11664
11665, 11666, 11667, 11668, 11669, 11670, 11671, 11672, 11673, 11674, 11675, 11676, 11677, 11678, 11679, 11680
11681, 11682, 11683, 11684, 11685, 11686, 11687, 11688, 11689, 11690, 11691, 11692, 11693, 11694, 11695, 11696
11697, 11698, 11699, 11700, 11701, 11702, 11703, 11704, 11705, 11706, 11707, 11708, 11709, 11710, 11711, 11712
11713, 11714, 11715, 11716, 11717, 11718, 11719, 11720, 11721, 11722, 11723, 11724, 11725, 11726, 11727, 11728
11729, 11730, 11731, 11732, 11733, 11734, 11735, 11736, 11737, 11738, 11739, 11740, 11741, 11742, 11743, 11744
11745, 11746, 11747, 11748, 11749, 11750, 11751, 11752, 11753, 11754, 11755, 11756, 11757, 11758, 11759, 11760
11761, 11762, 11763, 11764, 11765, 11766, 11767, 11768, 11769, 11770, 11771, 11772, 11773, 11774, 11775, 11776
11777, 11778, 11779, 11780, 11781, 11782, 11783, 11784, 11785, 11786, 11787, 11788, 11789, 11790, 11791, 11792
11793, 11794, 11795, 11796, 11797, 11798, 11799, 11800, 11801, 11802, 11803, 11804, 11805, 11806, 11807, 11808
11809, 11810, 11811, 11812, 11813, 11814, 11815, 11816, 11817, 11818, 11819, 11820, 11821, 11822, 11823, 11824
11825, 11826, 11827, 11828, 11829, 11830, 11831, 11832, 11833, 11834, 11835, 11836, 11837, 11838, 11839, 11840
11841, 11842, 11843, 11844, 11845, 11846, 11847, 11848, 11849, 11850, 11851, 11852, 11853, 11854, 11855, 11856
11857, 11858, 11859, 11860, 11861, 11862, 11863, 11864, 11865, 11866, 11867, 11868, 11869, 11870, 11871, 11872
11873, 11874, 11875, 11876, 11877, 11878, 11879, 11880, 11881, 11882, 11883, 11884, 11885, 11886, 11887, 11888
11889, 11890, 11891, 11892, 11893, 11894, 11895, 11896, 11897, 11898, 11899, 11900, 11901, 11902, 11903, 11904
11905, 11906, 11907, 11908, 11909, 11910, 11911, 11912, 11913, 11914, 11915, 11916, 11917, 11918, 11919, 11920
11921, 11922, 11923, 11924, 11925, 11926, 11927, 11928, 11929, 11930, 11931, 11932, 11933, 11934, 11935, 11936
11937, 11938, 11939, 11940, 11941, 11942, 11943, 11944, 11945, 11946, 11947, 11948, 11949, 11950, 11951, 11952
11953, 11954, 11955, 11956, 11957, 11958, 11959, 11960, 11961, 11962, 11963, 11964, 11965, 11966, 11967, 11968
11969, 11970, 11971, 11972, 11973, 11974, 11975, 11976, 11977, 11978, 11979, 11980, 11981, 11982, 11983, 11984
11985, 11986, 11987, 11988, 11989, 11990, 11991, 11992, 11993, 11994, 11995, 11996, 11997, 11998, 11999, 12000
12001, 12002, 12003, 12004, 12005, 12006, 12007, 12008, 12009, 12010, 12011, 12012, 12013, 12014, 12015, 12016
12017, 12018, 12019, 12020, 12021, 12022, 12023, 12024, 12025, 12026, 12027, 12028, 12029, 12030, 12031, 12032
12033, 12034, 12035, 12036, 12037, 12038, 12039, 12040, 12041, 12042, 12043, 12044, 12045, 12046, 12047, 12048
12049, 12050, 12051, 12052, 12053, 12054, 12055, 12056, 12057, 12058, 12059, 12060, 12061, 12062, 12063, 12064
12065, 12066, 12067, 12068, 12069, 12070, 12071, 12072, 12073, 12074, 12075, 12076, 12077, 12078, 12079, 12080
12081, 12082, 12083, 12084, 12085, 12086, 12087, 12088, 12089, 12090, 12091, 12092, 12093, 12094, 12095, 12096
12097, 12098, 12099, 12100, 12101, 12102, 12103, 12104, 12105, 12106, 12107, 12108, 12109, 12110, 12111, 12112
12113, 12114, 12115, 12116, 12117, 12118, 12119, 12120, 12121, 12122, 12123, 12124, 12125, 12126, 12127, 12128
12129, 12130, 12131, 12132, 12133, 12134, 12135, 12136, 12137, 12138, 12139, 12140, 12141, 12142, 12143, 12144
12145, 12146, 12147, 12148, 12149, 12150, 12151, 12152, 12153, 12154, 12155, 12156, 12157, 12158, 12159, 12160
12161, 12162, 12163, 12164, 12165, 12166, 12167, 12168, 12169, 12170, 12171, 12172, 12173, 12174, 12175, 12176
12177, 12178, 12179, 12180, 12181, 12182, 12183, 12184, 12185, 12186, 12187, 12188, 12189, 12190, 12191, 12192
12193, 12194, 12195, 12196, 12197, 12198, 12199, 12200, 12201, 12202, 12203, 12204, 12205, 12206, 12207, 12208
12209, 12210, 12211, 12212, 12213, 12214, 12215, 12216, 12217, 12218, 12219, 12220, 12221, 12222, 12223, 12224
*ELSET, ELSET=UMATELEM
12225, 12226, 12227, 12228, 12229, 12230, 12231, 12232, 12233, 12234, 12235, 12236, 12237, 12238, 12239, 12240
12241, 12242, 12243, 12244, 12245, 12246, 12247, 12248, 12249, 12250, 12251, 12252, 12253, 12254, 12255, 12256
12257, 12258, 12259, 12260, 12261, 12262, 12263, 12264, 12265, 12266, 12267, 12268, 12269, 12270, 12271, 12272
12273, 12274, 12275, 12276, 12277, 12278, 12279, 12280, 12281, 12282, 12283, 12284, 12285, 12286, 12287, 12288
12289, 12290, 12291, 12292, 12293, 12294, 12295, 12296, 12297, 12298, 12299, 12300, 12301, 12302, 12303, 12304
12305, 12306, 12307, 12308, 12309, 12310, 12311, 12312, 12313, 12314, 12315, 12316, 12317, 12318, 12319, 12320
12321, 12322, 12323, 12324, 12325, 12326, 12327, 12328, 12329, 12330, 12331, 12332, 12333, 12334, 12335, 12336
12337, 12338, 12339, 12340, 12341, 12342, 12343, 12344, 12345, 12346, 12347, 12348, 12349, 12350, 12351, 12352
12353, 12354, 12355, 12356, 12357, 12358, 12359, 12360, 12361, 12362, 12363, 12364, 12365, 12366, 12367, 12368
12369, 12370, 12371, 12372, 12373, 12374, 12375, 12376, 12377, 12378, 12379, 12380, 12381, 12382, 12383, 12384
12385, 12386, 12387, 12388, 12389, 12390, 12391, 12392, 12393, 12394, 12395, 12396, 12397, 12398, 12399, 12400
12401, 12402, 12403, 12404, 12405, 12406, 12407, 12408, 12409, 12410, 12411, 12412, 12413, 12414, 12415, 12416
12417, 12418, 12419, 12420, 12421, 12422, 12423, 12424, 12425, 12426, 12427, 12428, 12429, 12430, 12431, 12432
12433, 12434, 12435, 12436, 12437, 12438, 12439, 12440, 12441, 12442, 12443, 12444, 12445, 12446, 12447, 12448
12449, 12450, 12451, 12452, 12453, 12454, 12455, 12456, 12457, 12458, 12459, 12460, 12461, 12462, 12463, 12464
12465, 12466, 12467, 12468, 12469, 12470, 12471, 12472, 12473, 12474, 12475, 12476, 12477, 12478, 12479, 12480
12481, 12482, 12483, 12484, 12485, 12486, 12487, 12488, 12489, 12490, 12491, 12492, 12493, 12494, 12495, 12496
12497, 12498, 12499, 12500, 12501, 12502, 12503, 12504, 12505, 12506, 12507, 12508, 12509, 12510, 12511, 12512
12513, 12514, 12515, 12516, 12517, 12518, 12519, 12520, 12521, 12522, 12523, 12524, 12525, 12526, 12527, 12528
12529, 12530, 12531, 12532, 12533, 12534, 12535, 12536, 12537, 12538, 12539, 12540, 12541, 12542, 12543, 12544
12545, 12546, 12547, 12548, 12549, 12550, 12551, 12552, 12553, 12554, 12555, 12556, 12557, 12558, 12559, 12560
12561, 12562, 12563, 12564, 12565, 12566, 12567, 12568, 12569, 12570, 12571, 12572, 12573, 12574, 12575, 12576
12577, 12578, 12579, 12580, 12581, 12582, 12583, 12584, 12585, 12586, 12587, 12588, 12589, 12590, 12591, 12592
12593, 12594, 12595, 12596, 12597, 12598, 12599, 12600, 12601, 12602, 12603, 12604, 12605, 12606, 12607, 12608
12609, 12610, 12611, 12612, 12613, 12614, 12615, 12616, 12617, 12618, 12619, 12620, 12621, 12622, 12623, 12624
12625, 12626, 12627, 12628, 12629, 12630, 12631, 12632, 12633, 12634, 12635, 12636, 12637, 12638, 12639, 12640
12641, 12642, 12643, 12644, 12645, 12646, 12647, 12648, 12649, 12650, 12651, 12652, 12653, 12654, 12655, 12656
12657, 12658, 12659, 12660, 12661, 12662, 12663, 12664, 12665, 12666, 12667, 12668, 12669, 12670, 12671, 12672
12673, 12674, 12675, 12676, 12677, 12678, 12679, 12680, 12681, 12682, 12683, 12684, 12685, 12686, 12687, 12688
12689, 12690, 12691, 12692, 12693, 12694, 12695, 12696, 12697, 12698, 12699, 12700, 12701, 12702, 12703, 12704
12705, 12706, 12707, 12708, 12709, 12710, 12711, 12712, 12713, 12714, 12715, 12716, 12717, 12718, 12719, 12720
12721, 12722, 12723, 12724, 12725, 12726, 12727, 12728, 12729, 12730, 12731, 12732, 12733, 12734, 12735, 12736
12737, 12738, 12739, 12740, 12741, 12742, 12743, 12744, 12745, 12746, 12747, 12748, 12749, 12750, 12751, 12752
12753, 12754, 12755, 12756, 12757, 12758, 12759, 12760, 12761, 12762, 12763, 12764, 12765, 12766, 12767, 12768
12769, 12770, 12771, 12772, 12773, 12774, 12775, 12776, 12777, 12778, 12779, 12780, 12781, 12782, 12783, 12784
12785, 12786, 12787, 12788, 12789, 12790, 12791, 12792, 12793, 12794, 12795, 12796, 12797, 12798, 12799, 12800
12801, 12802, 12803, 12804, 12805, 12806, 12807, 12808, 12809, 12810, 12811, 12812, 12813, 12814, 12815, 12816
12817, 12818, 12819, 12820, 12821, 12822, 12823, 12824, 12825, 12826, 12827, 12828, 12829, 12830, 12831, 12832
12833, 12834, 12835, 12836, 12837, 12838, 12839, 12840, 12841, 12842, 12843, 12844, 12845, 12846, 12847, 12848
12849, 12850, 12851, 12852, 12853, 12854, 12855, 12856, 12857, 12858, 12859, 12860, 12861, 12862, 12863, 12864
12865, 12866, 12867, 12868, 12869, 12870, 12871, 12872, 12873, 12874, 12875, 12876, 12877, 12878, 12879, 12880
12881, 12882, 12883, 12884, 12885, 12886, 12887, 12888, 12889, 12890, 12891, 12892, 12893, 12894, 12895, 12896
12897, 12898, 12899, 12900, 12901, 12902, 12903, 12904, 12905, 12906, 12907, 12908, 12909, 12910, 12911, 12912
12913, 12914, 12915, 12916, 12917, 12918, 12919, 12920, 12921, 12922, 12923, 12924, 12925, 12926, 12927, 12928
12929, 12930, 12931, 12932, 12933, 12934, 12935, 12936, 12937, 12938, 12939, 12940, 12941, 12942, 12943, 12944
12945, 12946, 12947, 12948, 12949, 12950, 12951, 12952, 12953, 12954, 12955, 12956, 12957, 12958, 12959, 12960
12961, 12962, 12963, 12964, 12965, 12966, 12967, 12968, 12969, 12970, 12971, 12972, 12973, 12974, 12975, 12976
12977, 12978, 12979, 12980, 12981, 12982, 12983, 12984, 12985, 12986, 12987, 12988, 12989, 12990, 12991, 12992
12993, 12994, 12995, 12996, 12997, 12998, 12999, 13000, 13001, 13002, 13003, 13004, 13005, 13006, 13007, 13008
13009, 13010, 13011, 13012, 13013, 13014, 13015, 13016, 13017, 13018, 13019, 13020, 13021, 13022, 13023, 13024
13025, 13026, 13027, 13028, 13029, 13030, 13031, 13032, 13033, 13034, 13035, 13036, 13037, 13038, 13039, 13040
13041, 13042, 13043, 13044, 13045, 13046, 13047, 13048, 13049, 13050, 13051, 13052, 13053, 13054, 13055, 13056
13057, 13058, 13059, 13060, 13061, 13062, 13063, 13064, 13065, 13066, 13067, 13068, 13069, 13070, 13071, 13072
13073, 13074, 13075, 13076, 13077, 13078, 13079, 13080, 13081, 13082, 13083, 13084, 13085, 13086, 13087, 13088
13089, 13090, 13091, 13092, 13093, 13094, 13095, 13096, 13097, 13098, 13099, 13100, 13101, 13102, 13103, 13104
13105, 13106, 13107, 13108, 13109, 13110, 13111, 13112, 13113, 13114, 13115, 13116, 13117, 13118, 13119, 13120
13121, 13122, 13123, 13124, 13125, 13126, 13127, 13128, 13129, 13130, 13131, 13132, 13133, 13134, 13135, 13136
13137, 13138, 13139, 13140, 13141, 13142, 13143, 13144, 13145, 13146, 13147, 13148, 13149, 13150, 13151, 13152
13153, 13154, 13155, 13156, 13157, 13158, 13159, 13160, 13161, 13162, 13163, 13164, 13165, 13166, 13167, 13168
13169, 13170, 13171, 13172, 13173, 13174, 13175, 13176, 13177, 13178, 13179, 13180, 13181, 13182, 13183, 13184
13185, 13186, 13187, 13188, 13189, 13190, 13191, 13192, 13193, 13194, 13195, 13196, 13197, 13198, 13199, 13200
13201, 13202, 13203, 13204, 13205, 13206, 13207, 13208, 13209, 13210, 13211, 13212, 13213, 13214, 13215, 13216
13217, 13218, 13219, 13220, 13221, 13222, 13223, 13224, 13225, 13226, 13227, 13228, 13229, 13230, 13231, 13232
13233, 13234, 13235, 13236, 13237, 13238, 13239, 13240, 13241, 13242, 13243, 13244, 13245, 13246, 13247, 13248
13249, 13250, 13251, 13252, 13253, 13254, 13255, 13256, 13257, 13258, 13259, 13260, 13261, 13262, 13263, 13264
13265, 13266, 13267, 13268, 13269, 13270, 13271, 13272, 13273, 13274, 13275, 13276, 13277, 13278, 13279, 13280
13281, 13282, 13283, 13284, 13285, 13286, 13287, 13288, 13289, 13290, 13291, 13292, 13293, 13294, 13295, 13296
13297, 13298, 13299, 13300, 13301, 13302, 13303, 13304, 13305, 13306, 13307, 13308, 13309, 13310, 13311, 13312
13313, 13314, 13315, 13316, 13317, 13318, 13319, 13320, 13321, 13322, 13323, 13324, 13325, 13326, 13327, 13328
13329, 13330, 13331, 13332, 13333, 13334, 13335, 13336, 13337, 13338, 13339, 13340, 13341, 13342, 13343, 13344
13345, 13346, 13347, 13348, 13349, 13350, 13351, 13352, 13353, 13354, 13355, 13356, 13357, 13358, 13359, 13360
13361, 13362, 13363, 13364, 13365, 13366, 13367, 13368, 13369, 13370, 13371, 13372, 13373, 13374, 13375, 13376
13377, 13378, 13379, 13380, 13381, 13382, 13383, 13384, 13385, 13386, 13387, 13388, 13389, 13390, 13391, 13392
13393, 13394, 13395, 13396, 13397, 13398, 13399, 13400, 13401, 13402, 13403, 13404, 13405, 13406, 13407, 13408
13409, 13410, 13411, 13412, 13413, 13414, 13415, 13416, 13417, 13418, 13419, 13420, 13421, 13422, 13423, 13424
13425, 13426, 13427, 13428, 13429, 13430, 13431, 13432, 13433, 13434, 13435, 13436, 13437, 13438, 13439, 13440
13441, 13442, 13443, 13444, 13445, 13446, 13447, 13448, 13449, 13450, 13451, 13452, 13453, 13454, 13455, 13456
13457, 13458, 13459, 13460, 13461, 13462, 13463, 13464, 13465, 13466, 13467, 13468, 13469, 13470, 13471, 13472
13473, 13474, 13475, 13476, 13477, 13478, 13479, 13480, 13481, 13482, 13483, 13484, 13485, 13486, 13487, 13488
13489, 13490, 13491, 13492, 13493, 13494, 13495, 13496, 13497, 13498, 13499, 13500, 13501, 13502, 13503, 13504
13505, 13506, 13507, 13508, 13509, 13510, 13511, 13512, 13513, 13514, 13515, 13516, 13517, 13518, 13519, 13520
13521, 13522, 13523, 13524, 13525, 13526, 13527, 13528, 13529, 13530, 13531, 13532, 13533, 13534, 13535, 13536
13537, 13538, 13539, 13540, 13541, 13542, 13543, 13544, 13545, 13546, 13547, 13548, 13549, 13550, 13551, 13552
13553, 13554, 13555, 13556, 13557, 13558, 13559, 13560, 13561, 13562, 13563, 13564, 13565, 13566, 13567, 13568
13569, 13570, 13571, 13572, 13573, 13574, 13575, 13576, 13577, 13578, 13579, 13580, 13581, 13582, 13583, 13584
13585, 13586, 13587, 13588, 13589, 13590, 13591, 13592, 13593, 13594, 13595, 13596, 13597, 13598, 13599, 13600
13601, 13602, 13603, 13604, 13605, 13606, 13607, 13608, 13609, 13610, 13611, 13612, 13613, 13614, 13615, 13616
13617, 13618, 13619, 13620, 13621, 13622, 13623, 13624, 13625, 13626, 13627, 13628, 13629, 13630, 13631, 13632
13633, 13634, 13635, 13636, 13637, 13638, 13639, 13640, 13641, 13642, 13643, 13644, 13645, 13646, 13647, 13648
13649, 13650, 13651, 13652, 13653, 13654, 13655, 13656, 13657, 13658, 13659, 13660, 13661, 13662, 13663, 13664
13665, 13666, 13667, 13668, 13669, 13670, 13671, 13672, 13673, 13674, 13675, 13676, 13677, 13678, 13679, 13680
13681, 13682, 13683, 13684, 13685, 13686, 13687, 13688, 13689, 13690, 13691, 13692, 13693, 13694, 13695, 13696
13697, 13698, 13699, 13700, 13701, 13702, 13703, 13704, 13705, 13706, 13707, 13708, 13709, 13710, 13711, 13712
13713, 13714, 13715, 13716, 13717, 13718, 13719, 13720, 13721, 13722, 13723, 13724, 13725, 13726, 13727, 13728
13729, 13730, 13731, 13732, 13733, 13734, 13735, 13736, 13737, 13738, 13739, 13740, 13741, 13742, 13743, 13744
13745, 13746, 13747, 13748, 13749, 13750, 13751, 13752, 13753, 13754, 13755, 13756, 13757, 13758, 13759, 13760
13761, 13762, 13763, 13764, 13765, 13766, 13767, 13768, 13769, 13770, 13771, 13772, 13773, 13774, 13775, 13776
13777, 13778, 13779, 13780, 13781, 13782, 13783, 13784, 13785, 13786, 13787, 13788, 13789, 13790, 13791, 13792
13793, 13794, 13795, 13796, 13797, 13798, 13799, 13800, 13801, 13802, 13803, 13804, 13805, 13806, 13807, 13808
13809, 13810, 13811, 13812, 13813, 13814, 13815, 13816, 13817, 13818, 13819, 13820, 13821, 13822, 13823, 13824
13825, 13826, 13827, 13828, 13829, 13830, 13831, 13832, 13833, 13834, 13835, 13836, 13837, 13838, 13839, 13840
13841, 13842, 13843, 13844, 13845, 13846, 13847, 13848, 13849, 13850, 13851, 13852, 13853, 13854, 13855, 13856
13857, 13858, 13859, 13860, 13861, 13862, 13863, 13864, 13865, 13866, 13867, 13868, 13869, 13870, 13871, 13872
13873, 13874, 13875, 13876, 13877, 13878, 13879, 13880, 13881, 13882, 13883, 13884, 13885, 13886, 13887, 13888
13889, 13890, 13891, 13892, 13893, 13894, 13895, 13896, 13897, 13898, 13899, 13900, 13901, 13902, 13903, 13904
13905, 13906, 13907, 13908, 13909, 13910, 13911, 13912, 13913, 13914, 13915, 13916, 13917, 13918, 13919, 13920
13921, 13922, 13923, 13924, 13925, 13926, 13927, 13928, 13929, 13930, 13931, 13932, 13933, 13934, 13935, 13936
13937, 13938, 13939, 13940, 13941, 13942, 13943, 13944, 13945, 13946, 13947, 13948, 13949, 13950, 13951, 13952
13953, 13954, 13955, 13956, 13957, 13958, 13959, 13960, 13961, 13962, 13963, 13964, 13965, 13966, 13967, 13968
13969, 13970, 13971, 13972, 13973, 13974, 13975, 13976, 13977, 13978, 13979, 13980, 13981, 13982, 13983, 13984
13985, 13986, 13987, 13988, 13989, 13990, 13991, 13992, 13993, 13994, 13995, 13996, 13997, 13998, 13999, 14000
14001, 14002, 14003, 14004, 14005, 14006, 14007, 14008, 14009, 14010, 14011, 14012, 14013, 14014, 14015, 14016
14017, 14018, 14019, 14020, 14021, 14022, 14023, 14024, 14025, 14026, 14027, 14028, 14029, 14030, 14031, 14032
14033, 14034, 14035, 14036, 14037, 14038, 14039, 14040, 14041, 14042, 14043, 14044, 14045, 14046, 14047, 14048
14049, 14050, 14051, 14052, 14053, 14054, 14055, 14056, 14057, 14058, 14059, 14060, 14061, 14062, 14063, 14064
14065, 14066, 14067, 14068, 14069, 14070, 14071, 14072, 14073, 14074, 14075, 14076, 14077, 14078, 14079, 14080
14081, 14082, 14083, 14084, 14085, 14086, 14087, 14088, 14089, 14090, 14091, 14092, 14093, 14094, 14095, 14096
14097, 14098, 14099, 14100, 14101, 14102, 14103, 14104, 14105, 14106, 14107, 14108, 14109, 14110, 14111, 14112
14113, 14114, 14115, 14116, 14117, 14118, 14119, 14120, 14121, 14122, 14123, 14124, 14125, 14126, 14127, 14128
14129, 14130, 14131, 14132, 14133, 14134, 14135, 14136, 14137, 14138, 14139, 14140, 14141, 14142, 14143, 14144
14145, 14146, 14147, 14148, 14149, 14150, 14151, 14152, 14153, 14154, 14155, 14156, 14157, 14158, 14159, 14160
14161, 14162, 14163, 14164, 14165, 14166, 14167, 14168, 14169, 14170, 14171, 14172, 14173, 14174, 14175, 14176
14177, 14178, 14179, 14180, 14181, 14182, 14183, 14184, 14185, 14186, 14187, 14188, 14189, 14190, 14191, 14192
14193, 14194, 14195, 14196, 14197, 14198, 14199, 14200, 14201, 14202, 14203, 14204, 14205, 14206, 14207, 14208
14209, 14210, 14211, 14212, 14213, 14214, 14215, 14216, 14217, 14218, 14219, 14220, 14221, 14222, 14223, 14224
14225, 14226, 14227, 14228, 14229, 14230, 14231, 14232, 14233, 14234, 14235, 14236, 14237, 14238, 14239, 14240
14241, 14242, 14243, 14244, 14245, 14246, 14247, 14248, 14249, 14250, 14251, 14252, 14253, 14254, 14255, 14256
14257, 14258, 14259, 14260, 14261, 14262, 14263, 14264, 14265, 14266, 14267, 14268, 14269, 14270, 14271, 14272
14273, 14274, 14275, 14276, 14277, 14278, 14279, 14280, 14281, 14282, 14283, 14284, 14285, 14286, 14287, 14288
14289, 14290, 14291, 14292, 14293, 14294, 14295, 14296, 14297, 14298, 14299, 14300, 14301, 14302, 14303, 14304
14305, 14306, 14307, 14308, 14309, 14310, 14311, 14312, 14313, 14314, 14315, 14316, 14317, 14318, 14319, 14320
14321, 14322, 14323, 14324, 14325, 14326, 14327, 14328, 14329, 14330, 14331, 14332, 14333, 14334, 14335, 14336
14337, 14338, 14339, 14340, 14341, 14342, 14343, 14344, 14345, 14346, 14347, 14348, 14349, 14350, 14351, 14352
14353, 14354, 14355, 14356, 14357, 14358, 14359, 14360, 14361, 14362, 14363, 14364, 14365, 14366, 14367, 14368
14369, 14370, 14371, 14372, 14373, 14374, 14375, 14376, 14377, 14378, 14379, 14380, 14381, 14382, 14383, 14384
14385, 14386, 14387, 14388, 14389, 14390, 14391, 14392, 14393, 14394, 14395, 14396, 14397, 14398, 14399, 14400
14401, 14402, 14403, 14404, 14405, 14406, 14407, 14408, 14409, 14410, 14411, 14412, 14413, 14414, 14415, 14416
14417, 14418, 14419, 14420, 14421, 14422, 14423, 14424, 14425, 14426, 14427, 14428, 14429, 14430, 14431, 14432
14433, 14434, 14435, 14436, 14437, 14438, 14439, 14440, 14441, 14442, 14443, 14444, 14445, 14446, 14447, 14448
14449, 14450, 14451, 14452, 14453, 14454, 14455, 14456, 14457, 14458, 14459, 14460, 14461, 14462, 14463, 14464
14465, 14466, 14467, 14468, 14469, 14470, 14471, 14472, 14473, 14474, 14475, 14476, 14477, 14478, 14479, 14480
14481, 14482, 14483, 14484, 14485, 14486, 14487, 14488, 14489, 14490, 14491, 14492, 14493, 14494, 14495, 14496
14497, 14498, 14499, 14500, 14501, 14502, 14503, 14504, 14505, 14506, 14507, 14508, 14509, 14510, 14511, 14512
14513, 14514, 14515, 14516, 14517, 14518, 14519, 14520, 14521, 14522, 14523, 14524, 14525, 14526, 14527, 14528
14529, 14530, 14531, 14532, 14533, 14534, 14535, 14536, 14537, 14538, 14539, 14540, 14541, 14542, 14543, 14544
14545, 14546, 14547, 14548, 14549, 14550, 14551, 14552, 14553, 14554, 14555, 14556, 14557, 14558, 14559, 14560
14561, 14562, 14563, 14564, 14565, 14566, 14567, 14568, 14569, 14570, 14571, 14572, 14573, 14574, 14575, 14576
14577, 14578, 14579, 14580, 14581, 14582, 14583, 14584, 14585, 14586, 14587, 14588, 14589, 14590, 14591, 14592
14593, 14594, 14595, 14596, 14597, 14598, 14599, 14600, 14601, 14602, 14603, 14604, 14605, 14606, 14607, 14608
14609, 14610, 14611, 14612, 14613, 14614, 14615, 14616, 14617, 14618, 14619, 14620, 14621, 14622, 14623, 14624
14625, 14626, 14627, 14628, 14629, 14630, 14631, 14632, 14633, 14634, 14635, 14636, 14637, 14638, 14639, 14640
14641, 14642, 14643, 14644, 14645, 14646, 14647, 14648, 14649, 14650, 14651, 14652, 14653, 14654, 14655, 14656
14657, 14658, 14659, 14660, 14661, 14662, 14663, 14664, 14665, 14666, 14667, 14668, 14669, 14670, 14671, 14672
14673, 14674, 14675, 14676, 14677, 14678, 14679, 14680, 14681, 14682, 14683, 14684, 14685, 14686, 14687, 14688
14689, 14690, 14691, 14692, 14693, 14694, 14695, 14696, 14697, 14698, 14699, 14700, 14701, 14702, 14703, 14704
14705, 14706, 14707, 14708, 14709, 14710, 14711, 14712, 14713, 14714, 14715, 14716, 14717, 14718, 14719, 14720
14721, 14722, 14723, 14724, 14725, 14726, 14727, 14728, 14729, 14730, 14731, 14732, 14733, 14734, 14735, 14736
14737, 14738, 14739, 14740, 14741, 14742, 14743, 14744, 14745, 14746, 14747, 14748, 14749, 14750, 14751, 14752
14753, 14754, 14755, 14756, 14757, 14758, 14759, 14760, 14761, 14762, 14763, 14764, 14765, 14766, 14767, 14768
14769, 14770, 14771, 14772, 14773, 14774, 14775, 14776, 14777, 14778, 14779, 14780, 14781, 14782, 14783, 14784
14785, 14786, 14787, 14788, 14789, 14790, 14791, 14792, 14793, 14794, 14795, 14796, 14797, 14798, 14799, 14800
14801, 14802, 14803, 14804, 14805, 14806, 14807, 14808, 14809, 14810, 14811, 14812, 14813, 14814, 14815, 14816
14817, 14818, 14819, 14820, 14821, 14822, 14823, 14824, 14825, 14826, 14827, 14828, 14829, 14830, 14831, 14832
14833, 14834, 14835, 14836, 14837, 14838, 14839, 14840, 14841, 14842, 14843, 14844, 14845, 14846, 14847, 14848
14849, 14850, 14851, 14852, 14853, 14854, 14855, 14856, 14857, 14858, 14859, 14860, 14861, 14862, 14863, 14864
14865, 14866, 14867, 14868, 14869, 14870, 14871, 14872, 14873, 14874, 14875, 14876, 14877, 14878, 14879, 14880
14881, 14882, 14883, 14884, 14885, 14886, 14887, 14888, 14889, 14890, 14891, 14892, 14893, 14894, 14895, 14896
14897, 14898, 14899, 14900, 14901, 14902, 14903, 14904, 14905, 14906, 14907, 14908, 14909, 14910, 14911, 14912
14913, 14914, 14915, 14916, 14917, 14918, 14919, 14920, 14921, 14922, 14923, 14924, 14925, 14926, 14927, 14928
14929, 14930, 14931, 14932, 14933, 14934, 14935, 14936, 14937, 14938, 14939, 14940, 14941, 14942, 14943, 14944
14945, 14946, 14947, 14948, 14949, 14950, 14951, 14952, 14953, 14954, 14955, 14956, 14957, 14958, 14959, 14960
14961, 14962, 14963, 14964, 14965, 14966, 14967, 14968, 14969, 14970, 14971, 14972, 14973, 14974, 14975, 14976
14977, 14978, 14979, 14980, 14981, 14982, 14983, 14984, 14985, 14986, 14987, 14988, 14989, 14990, 14991, 14992
14993, 14994, 14995, 14996, 14997, 14998, 14999, 15000, 15001, 15002, 15003, 15004, 15005, 15006, 15007, 15008
15009, 15010, 15011, 15012, 15013, 15014, 15015, 15016, 15017, 15018, 15019, 15020, 15021, 15022, 15023, 15024
15025, 15026, 15027, 15028, 15029, 15030, 15031, 15032, 15033, 15034, 15035, 15036, 15037, 15038, 15039, 15040
15041, 15042, 15043, 15044, 15045, 15046, 15047, 15048, 15049, 15050, 15051, 15052, 15053, 15054, 15055, 15056
15057, 15058, 15059, 15060, 15061, 15062, 15063, 15064, 15065, 15066, 15067, 15068, 15069, 15070, 15071, 15072
15073, 15074, 15075, 15076, 15077, 15078, 15079, 15080, 15081, 15082, 15083, 15084, 15085, 15086, 15087, 15088
15089, 15090, 15091, 15092, 15093, 15094, 15095, 15096, 15097, 15098, 15099, 15100, 15101, 15102, 15103, 15104
15105, 15106, 15107, 15108, 15109, 15110, 15111, 15112, 15113, 15114, 15115, 15116, 15117, 15118, 15119, 15120
15121, 15122, 15123, 15124, 15125, 15126, 15127, 15128, 15129, 15130, 15131, 15132, 15133, 15134, 15135, 15136
15137, 15138, 15139, 15140, 15141, 15142, 15143, 15144, 15145, 15146, 15147, 15148, 15149, 15150, 15151, 15152
15153, 15154, 15155, 15156, 15157, 15158, 15159, 15160, 15161, 15162, 15163, 15164, 15165, 15166, 15167, 15168
15169, 15170, 15171, 15172, 15173, 15174, 15175, 15176, 15177, 15178, 15179, 15180, 15181, 15182, 15183, 15184
15185, 15186, 15187, 15188, 15189, 15190, 15191, 15192, 15193, 15194, 15195, 15196, 15197, 15198, 15199, 15200
15201, 15202, 15203, 15204, 15205, 15206, 15207, 15208, 15209, 15210, 15211, 15212, 15213, 15214, 15215, 15216
15217, 15218, 15219, 15220, 15221, 15222, 15223, 15224, 15225, 15226, 15227, 15228, 15229, 15230, 15231, 15232
15233, 15234, 15235, 15236, 15237, 15238, 15239, 15240, 15241, 15242, 15243, 15244, 15245, 15246, 15247, 15248
15249, 15250, 15251, 15252, 15253, 15254, 15255, 15256, 15257, 15258, 15259, 15260, 15261, 15262, 15263, 15264
15265, 15266, 15267, 15268, 15269, 15270, 15271, 15272, 15273, 15274, 15275, 15276, 15277, 15278, 15279, 15280
15281, 15282, 15283, 15284, 15285, 15286, 15287, 15288, 15289, 15290, 15291, 15292, 15293, 15294, 15295, 15296
15297, 15298, 15299, 15300, 15301, 15302, 15303, 15304, 15305, 15306, 15307, 15308, 15309, 15310, 15311, 15312
15313, 15314, 15315, 15316, 15317, 15318, 15319, 15320, 15321, 15322, 15323, 15324, 15325, 15326, 15327, 15328
15329, 15330, 15331, 15332, 15333, 15334, 15335, 15336, 15337, 15338, 15339, 15340, 15341, 15342, 15343, 15344
15345, 15346, 15347, 15348, 15349, 15350, 15351, 15352, 15353, 15354, 15355, 15356, 15357, 15358, 15359, 15360
15361, 15362, 15363, 15364, 15365, 15366, 15367, 15368, 15369, 15370, 15371, 15372, 15373, 15374, 15375, 15376
15377, 15378, 15379, 15380, 15381, 15382, 15383, 15384, 15385, 15386, 15387, 15388, 15389, 15390, 15391, 15392
15393, 15394, 15395, 15396, 15397, 15398, 15399, 15400, 15401, 15402, 15403, 15404, 15405, 15406, 15407, 15408
15409, 15410, 15411, 15412, 15413, 15414, 15415, 15416, 15417, 15418, 15419, 15420, 15421, 15422, 15423, 15424
15425, 15426, 15427, 15428, 15429, 15430, 15431, 15432, 15433, 15434, 15435, 15436, 15437, 15438, 15439, 15440
15441, 15442, 15443, 15444, 15445, 15446, 15447, 15448, 15449, 15450, 15451, 15452, 15453, 15454, 15455, 15456
15457, 15458, 15459, 15460, 15461, 15462, 15463, 15464, 15465, 15466, 15467, 15468, 15469, 15470, 15471, 15472
15473, 15474, 15475, 15476, 15477, 15478, 15479, 15480, 15481, 15482, 15483, 15484, 15485, 15486, 15487, 15488
15489, 15490, 15491, 15492, 15493, 15494, 15495, 15496, 15497, 15498, 15499, 15500, 15501, 15502, 15503, 15504
15505, 15506, 15507, 15508, 15509, 15510, 15511, 15512, 15513, 15514, 15515, 15516, 15517, 15518, 15519, 15520
15521, 15522, 15523, 15524, 15525, 15526, 15527, 15528, 15529, 15530, 15531, 15532, 15533, 15534, 15535, 15536
15537, 15538, 15539, 15540, 15541, 15542, 15543, 15544, 15545, 15546, 15547, 15548, 15549, 15550, 15551, 15552
15553, 15554, 15555, 15556, 15557, 15558, 15559, 15560, 15561, 15562, 15563, 15564, 15565, 15566, 15567, 15568
15569, 15570, 15571, 15572, 15573, 15574, 15575, 15576, 15577, 15578, 15579, 15580, 15581, 15582, 15583, 15584
15585, 15586, 15587, 15588, 15589, 15590, 15591, 15592, 15593, 15594, 15595, 15596, 15597, 15598, 15599, 15600
15601, 15602, 15603, 15604, 15605, 15606, 15607, 15608, 15609, 15610, 15611, 15612, 15613, 15614, 15615, 15616
15617, 15618, 15619, 15620, 15621, 15622, 15623, 15624, 15625, 15626, 15627, 15628, 15629, 15630, 15631, 15632
15633, 15634, 15635, 15636, 15637, 15638, 15639, 15640, 15641, 15642, 15643, 15644, 15645, 15646, 15647, 15648
15649, 15650, 15651, 15652, 15653, 15654, 15655, 15656, 15657, 15658, 15659, 15660, 15661, 15662, 15663, 15664
15665, 15666, 15667, 15668, 15669, 15670, 15671, 15672, 15673, 15674, 15675, 15676, 15677, 15678, 15679, 15680
15681, 15682, 15683, 15684, 15685, 15686, 15687, 15688, 15689, 15690, 15691, 15692, 15693, 15694, 15695, 15696
15697, 15698, 15699, 15700, 15701, 15702, 15703, 15704, 15705, 15706, 15707, 15708, 15709, 15710, 15711, 15712
15713, 15714, 15715, 15716, 15717, 15718, 15719, 15720, 15721, 15722, 15723, 15724, 15725, 15726, 15727, 15728
15729, 15730, 15731, 15732, 15733, 15734, 15735, 15736, 15737, 15738, 15739, 15740, 15741, 15742, 15743, 15744
15745, 15746, 15747, 15748, 15749, 15750, 15751, 15752, 15753, 15754, 15755, 15756, 15757, 15758, 15759, 15760
15761, 15762, 15763, 15764, 15765, 15766, 15767, 15768, 15769, 15770, 15771, 15772, 15773, 15774, 15775, 15776
15777, 15778, 15779, 15780, 15781, 15782, 15783, 15784, 15785, 15786, 15787, 15788, 15789, 15790, 15791, 15792
15793, 15794, 15795, 15796, 15797, 15798, 15799, 15800, 15801, 15802, 15803, 15804, 15805, 15806, 15807, 15808
15809, 15810, 15811, 15812, 15813, 15814, 15815, 15816, 15817, 15818, 15819, 15820, 15821, 15822, 15823, 15824
15825, 15826, 15827, 15828, 15829, 15830, 15831, 15832, 15833, 15834, 15835, 15836, 15837, 15838, 15839, 15840
15841, 15842, 15843, 15844, 15845, 15846, 15847, 15848, 15849, 15850, 15851, 15852, 15853, 15854, 15855, 15856
15857, 15858, 15859, 15860, 15861, 15862, 15863, 15864, 15865, 15866, 15867, 15868, 15869, 15870, 15871, 15872
15873, 15874, 15875, 15876, 15877, 15878, 15879, 15880, 15881, 15882, 15883, 15884, 15885, 15886, 15887, 15888
15889, 15890, 15891, 15892, 15893, 15894, 15895, 15896, 15897, 15898, 15899, 15900, 15901, 15902, 15903, 15904
15905, 15906, 15907, 15908, 15909, 15910, 15911, 15912, 15913, 15914, 15915, 15916, 15917, 15918, 15919, 15920
15921, 15922, 15923, 15924, 15925, 15926, 15927, 15928, 15929, 15930, 15931, 15932, 15933, 15934, 15935, 15936
15937, 15938, 15939, 15940, 15941, 15942, 15943, 15944, 15945, 15946, 15947, 15948, 15949, 15950, 15951, 15952
15953, 15954, 15955, 15956, 15957, 15958, 15959, 15960, 15961, 15962, 15963, 15964, 15965, 15966, 15967, 15968
15969, 15970, 15971, 15972, 15973, 15974, 15975, 15976, 15977, 15978, 15979, 15980, 15981, 15982, 15983, 15984
15985, 15986, 15987, 15988, 15989, 15990, 15991, 15992, 15993, 15994, 15995, 15996, 15997, 15998, 15999, 16000
16001, 16002, 16003, 16004, 16005, 16006, 16007, 16008, 16009, 16010, 16011, 16012, 16013, 16014, 16015, 16016
16017, 16018, 16019, 16020, 16021, 16022, 16023, 16024, 16025, 16026, 16027, 16028, 16029, 16030, 16031, 16032
16033, 16034, 16035, 16036, 16037, 16038, 16039, 16040, 16041, 16042, 16043, 16044, 16045, 16046, 16047, 16048
16049, 16050, 16051, 16052, 16053, 16054, 16055, 16056, 16057, 16058, 16059, 16060, 16061, 16062, 16063, 16064
16065, 16066, 16067, 16068, 16069, 16070, 16071, 16072, 16073, 16074, 16075, 16076, 16077, 16078, 16079, 16080
16081, 16082, 16083, 16084, 16085, 16086, 16087, 16088, 16089, 16090, 16091, 16092, 16093, 16094, 16095, 16096
16097, 16098, 16099, 16100, 16101, 16102, 16103, 16104, 16105, 16106, 16107, 16108, 16109, 16110, 16111, 16112
16113, 16114, 16115, 16116, 16117, 16118, 16119, 16120, 16121, 16122, 16123, 16124, 16125, 16126, 16127, 16128
16129, 16130, 16131, 16132, 16133, 16134, 16135, 16136, 16137, 16138, 16139, 16140, 16141, 16142, 16143, 16144
16145, 16146, 16147, 16148, 16149, 16150, 16151, 16152, 16153, 16154, 16155, 16156, 16157, 16158, 16159, 16160
16161, 16162, 16163, 16164, 16165, 16166, 16167, 16168, 16169, 16170, 16171, 16172, 16173, 16174, 16175, 16176
16177, 16178, 16179, 16180, 16181, 16182, 16183, 16184, 16185, 16186, 16187, 16188, 16189, 16190, 16191, 16192
16193, 16194, 16195, 16196, 16197, 16198, 16199, 16200, 16201, 16202, 16203, 16204, 16205, 16206, 16207, 16208
16209, 16210, 16211, 16212, 16213, 16214, 16215, 16216, 16217, 16218, 16219, 16220, 16221, 16222, 16223, 16224
16225, 16226, 16227, 16228, 16229, 16230, 16231, 16232, 16233, 16234, 16235, 16236, 16237, 16238, 16239, 16240
16241, 16242, 16243, 16244, 16245, 16246, 16247, 16248, 16249, 16250, 16251, 16252, 16253, 16254, 16255, 16256
16257, 16258, 16259, 16260, 16261, 16262, 16263, 16264, 16265, 16266, 16267, 16268, 16269, 16270, 16271, 16272
16273, 16274, 16275, 16276, 16277, 16278, 16279, 16280, 16281, 16282, 16283, 16284, 16285, 16286, 16287, 16288
16289, 16290, 16291, 16292, 16293, 16294, 16295, 16296, 16297, 16298, 16299, 16300, 16301, 16302, 16303, 16304
16305, 16306, 16307, 16308, 16309, 16310, 16311, 16312, 16313, 16314, 16315, 16316, 16317, 16318, 16319, 16320
16321, 16322, 16323, 16324, 16325, 16326, 16327, 16328, 16329, 16330, 16331, 16332, 16333, 16334, 16335, 16336
16337, 16338, 16339, 16340, 16341, 16342, 16343, 16344, 16345, 16346, 16347, 16348, 16349, 16350, 16351, 16352
16353, 16354, 16355, 16356, 16357, 16358, 16359, 16360, 16361, 16362, 16363, 16364, 16365, 16366, 16367, 16368
16369, 16370, 16371, 16372, 16373, 16374, 16375, 16376, 16377, 16378, 16379, 16380, 16381, 16382, 16383, 16384
16385, 16386, 16387, 16388, 16389, 16390, 16391, 16392, 16393, 16394, 16395, 16396, 16397, 16398, 16399, 16400
16401, 16402, 16403, 16404, 16405, 16406, 16407, 16408, 16409, 16410, 16411, 16412, 16413, 16414, 16415, 16416
16417, 16418, 16419, 16420, 16421, 16422, 16423, 16424, 16425, 16426, 16427, 16428, 16429, 16430, 16431, 16432
16433, 16434, 16435, 16436, 16437, 16438, 16439, 16440, 16441, 16442, 16443, 16444, 16445, 16446, 16447, 16448
16449, 16450, 16451, 16452, 16453, 16454, 16455, 16456, 16457, 16458, 16459, 16460, 16461, 16462, 16463, 16464
16465, 16466, 16467, 16468, 16469, 16470, 16471, 16472, 16473, 16474, 16475, 16476, 16477, 16478, 16479, 16480
16481, 16482, 16483, 16484, 16485, 16486, 16487, 16488, 16489, 16490, 16491, 16492, 16493, 16494, 16495, 16496
16497, 16498, 16499, 16500, 16501, 16502, 16503, 16504, 16505, 16506, 16507, 16508, 16509, 16510, 16511, 16512
16513, 16514, 16515, 16516, 16517, 16518, 16519, 16520, 16521, 16522, 16523, 16524, 16525, 16526, 16527, 16528
16529, 16530, 16531, 16532, 16533, 16534, 16535, 16536, 16537, 16538, 16539, 16540, 16541, 16542, 16543, 16544
16545, 16546, 16547, 16548, 16549, 16550, 16551, 16552, 16553, 16554, 16555, 16556, 16557, 16558, 16559, 16560
16561, 16562, 16563, 16564, 16565, 16566, 16567, 16568, 16569, 16570, 16571, 16572, 16573, 16574, 16575, 16576
16577, 16578, 16579, 16580, 16581, 16582, 16583, 16584, 16585, 16586, 16587, 16588, 16589, 16590, 16591, 16592
16593, 16594, 16595, 16596, 16597, 16598, 16599, 16600, 16601, 16602, 16603, 16604, 16605, 16606, 16607, 16608
16609, 16610, 16611, 16612, 16613, 16614, 16615, 16616, 16617, 16618, 16619, 16620, 16621, 16622, 16623, 16624
16625, 16626, 16627, 16628, 16629, 16630, 16631, 16632, 16633, 16634, 16635, 16636, 16637, 16638, 16639, 16640
16641, 16642, 16643, 16644, 16645, 16646, 16647, 16648, 16649, 16650, 16651, 16652, 16653, 16654, 16655, 16656
16657, 16658, 16659, 16660, 16661, 16662, 16663, 16664, 16665, 16666, 16667, 16668, 16669, 16670, 16671, 16672
16673, 16674, 16675, 16676, 16677, 16678, 16679, 16680, 16681, 16682, 16683, 16684, 16685, 16686, 16687, 16688
16689, 16690, 16691, 16692, 16693, 16694, 16695, 16696, 16697, 16698, 16699, 16700, 16701, 16702, 16703, 16704
16705, 16706, 16707, 16708, 16709, 16710, 16711, 16712, 16713, 16714, 16715, 16716, 16717, 16718, 16719, 16720
16721, 16722, 16723, 16724, 16725, 16726, 16727, 16728, 16729, 16730, 16731, 16732, 16733, 16734, 16735, 16736
16737, 16738, 16739, 16740, 16741, 16742, 16743, 16744, 16745, 16746, 16747, 16748, 16749, 16750, 16751, 16752
16753, 16754, 16755, 16756, 16757, 16758, 16759, 16760, 16761, 16762, 16763, 16764, 16765, 16766, 16767, 16768
16769, 16770, 16771, 16772, 16773, 16774, 16775, 16776, 16777, 16778, 16779, 16780, 16781, 16782, 16783, 16784
16785, 16786, 16787, 16788, 16789, 16790, 16791, 16792, 16793, 16794, 16795, 16796, 16797, 16798, 16799, 16800
16801, 16802, 16803, 16804, 16805, 16806, 16807, 16808, 16809, 16810, 16811, 16812, 16813, 16814, 16815, 16816
16817, 16818, 16819, 16820, 16821, 16822, 16823, 16824, 16825, 16826, 16827, 16828, 16829, 16830, 16831, 16832
16833, 16834, 16835, 16836, 16837, 16838, 16839, 16840, 16841, 16842, 16843, 16844, 16845, 16846, 16847, 16848
16849, 16850, 16851, 16852, 16853, 16854, 16855, 16856, 16857, 16858, 16859, 16860, 16861, 16862, 16863, 16864
16865, 16866, 16867, 16868, 16869, 16870, 16871, 16872, 16873, 16874, 16875, 16876, 16877, 16878, 16879, 16880
16881, 16882, 16883, 16884, 16885, 16886, 16887, 16888, 16889, 16890, 16891, 16892, 16893, 16894, 16895, 16896
16897, 16898, 16899, 16900, 16901, 16902, 16903, 16904, 16905, 16906, 16907, 16908, 16909, 16910, 16911, 16912
16913, 16914, 16915, 16916, 16917, 16918, 16919, 16920, 16921, 16922, 16923, 16924, 16925, 16926, 16927, 16928
16929, 16930, 16931, 16932, 16933, 16934, 16935, 16936, 16937, 16938, 16939, 16940, 16941, 16942, 16943, 16944
16945, 16946, 16947, 16948, 16949, 16950, 16951, 16952, 16953, 16954, 16955, 16956, 16957, 16958, 16959, 16960
16961, 16962, 16963, 16964, 16965, 16966, 16967, 16968, 16969, 16970, 16971, 16972, 16973, 16974, 16975, 16976
16977, 16978, 16979, 16980, 16981, 16982, 16983, 16984, 16985, 16986, 16987, 16988, 16989, 16990, 16991, 16992
16993, 16994, 16995, 16996, 16997, 16998, 16999, 17000, 17001, 17002, 17003, 17004, 17005, 17006, 17007, 17008
17009, 17010, 17011, 17012, 17013, 17014, 17015, 17016, 17017, 17018, 17019, 17020, 17021, 17022, 17023, 17024
17025, 17026, 17027, 17028, 17029, 17030, 17031, 17032, 17033, 17034, 17035, 17036, 17037, 17038, 17039, 17040
17041, 17042, 17043, 17044, 17045, 17046, 17047, 17048, 17049, 17050, 17051, 17052, 17053, 17054, 17055, 17056
17057, 17058, 17059, 17060, 17061, 17062, 17063, 17064, 17065, 17066, 17067, 17068, 17069, 17070, 17071, 17072
17073, 17074, 17075, 17076, 17077, 17078, 17079, 17080, 17081, 17082, 17083, 17084, 17085, 17086, 17087, 17088
17089, 17090, 17091, 17092, 17093, 17094, 17095, 17096, 17097, 17098, 17099, 17100, 17101, 17102, 17103, 17104
17105, 17106, 17107, 17108, 17109, 17110, 17111, 17112, 17113, 17114, 17115, 17116, 17117, 17118, 17119, 17120
17121, 17122, 17123, 17124, 17125, 17126, 17127, 17128, 17129, 17130, 17131, 17132, 17133, 17134, 17135, 17136
17137, 17138, 17139, 17140, 17141, 17142, 17143, 17144, 17145, 17146, 17147, 17148, 17149, 17150, 17151, 17152
17153, 17154, 17155, 17156, 17157, 17158, 17159, 17160, 17161, 17162, 17163, 17164, 17165, 17166, 17167, 17168
17169, 17170, 17171, 17172, 17173, 17174, 17175, 17176, 17177, 17178, 17179, 17180, 17181, 17182, 17183, 17184
17185, 17186, 17187, 17188, 17189, 17190, 17191, 17192, 17193, 17194, 17195, 17196, 17197, 17198, 17199, 17200
17201, 17202, 17203, 17204, 17205, 17206, 17207, 17208, 17209, 17210, 17211, 17212, 17213, 17214, 17215, 17216
17217, 17218, 17219, 17220, 17221, 17222, 17223, 17224, 17225, 17226, 17227, 17228, 17229, 17230, 17231, 17232
17233, 17234, 17235, 17236, 17237, 17238, 17239, 17240, 17241, 17242, 17243, 17244, 17245, 17246, 17247, 17248
17249, 17250, 17251, 17252, 17253, 17254, 17255, 17256, 17257, 17258, 17259, 17260, 17261, 17262, 17263, 17264
17265, 17266, 17267, 17268, 17269, 17270, 17271, 17272, 17273, 17274, 17275, 17276, 17277, 17278, 17279, 17280
17281, 17282, 17283, 17284, 17285, 17286, 17287, 17288, 17289, 17290, 17291, 17292, 17293, 17294, 17295, 17296
17297, 17298, 17299, 17300, 17301, 17302, 17303, 17304, 17305, 17306, 17307, 17308, 17309, 17310, 17311, 17312
17313, 17314, 17315, 17316, 17317, 17318, 17319, 17320, 17321, 17322, 17323, 17324, 17325, 17326, 17327, 17328
17329, 17330, 17331, 17332, 17333, 17334, 17335, 17336, 17337, 17338, 17339, 17340, 17341, 17342, 17343, 17344
17345, 17346, 17347, 17348, 17349, 17350, 17351, 17352, 17353, 17354, 17355, 17356, 17357, 17358, 17359, 17360
17361, 17362, 17363, 17364, 17365, 17366, 17367, 17368, 17369, 17370, 17371, 17372, 17373, 17374, 17375, 17376
17377, 17378, 17379, 17380, 17381, 17382, 17383, 17384, 17385, 17386, 17387, 17388, 17389, 17390, 17391, 17392
17393, 17394, 17395, 17396, 17397, 17398, 17399, 17400, 17401, 17402, 17403, 17404, 17405, 17406, 17407, 17408
17409, 17410, 17411, 17412, 17413, 17414, 17415, 17416, 17417, 17418, 17419, 17420, 17421, 17422, 17423, 17424
17425, 17426, 17427, 17428, 17429, 17430, 17431, 17432, 17433, 17434, 17435, 17436, 17437, 17438, 17439, 17440
17441, 17442, 17443, 17444, 17445, 17446, 17447, 17448, 17449, 17450, 17451, 17452, 17453, 17454, 17455, 17456
17457, 17458, 17459, 17460, 17461, 17462, 17463, 17464, 17465, 17466, 17467, 17468, 17469, 17470, 17471, 17472
17473, 17474, 17475, 17476, 17477, 17478, 17479, 17480, 17481, 17482, 17483, 17484, 17485, 17486, 17487, 17488
17489, 17490, 17491, 17492, 17493, 17494, 17495, 17496, 17497, 17498, 17499, 17500, 17501, 17502, 17503, 17504
17505, 17506, 17507, 17508, 17509, 17510, 17511, 17512, 17513, 17514, 17515, 17516, 17517, 17518, 17519, 17520
17521, 17522, 17523, 17524, 17525, 17526, 17527, 17528, 17529, 17530, 17531, 17532, 17533, 17534, 17535, 17536
17537, 17538, 17539, 17540, 17541, 17542, 17543, 17544, 17545, 17546, 17547, 17548, 17549, 17550, 17551, 17552
17553, 17554, 17555, 17556, 17557, 17558, 17559, 17560, 17561, 17562, 17563, 17564, 17565, 17566, 17567, 17568
17569, 17570, 17571, 17572, 17573, 17574, 17575, 17576, 17577, 17578, 17579, 17580, 17581, 17582, 17583, 17584
17585, 17586, 17587, 17588, 17589, 17590, 17591, 17592, 17593, 17594, 17595, 17596, 17597, 17598, 17599, 17600
17601, 17602, 17603, 17604, 17605, 17606, 17607, 17608, 17609, 17610, 17611, 17612, 17613, 17614, 17615, 17616
17617, 17618, 17619, 17620, 17621, 17622, 17623, 17624, 17625, 17626, 17627, 17628, 17629, 17630, 17631, 17632
17633, 17634, 17635, 17636, 17637, 17638, 17639, 17640, 17641, 17642, 17643, 17644, 17645, 17646, 17647, 17648
17649, 17650, 17651, 17652, 17653, 17654, 17655, 17656, 17657, 17658, 17659, 17660, 17661, 17662, 17663, 17664
17665, 17666, 17667, 17668, 17669, 17670, 17671, 17672, 17673, 17674, 17675, 17676, 17677, 17678, 17679, 17680
17681, 17682, 17683, 17684, 17685, 17686, 17687, 17688, 17689, 17690, 17691, 17692, 17693, 17694, 17695, 17696
17697, 17698, 17699, 17700, 17701, 17702, 17703, 17704, 17705, 17706, 17707, 17708, 17709, 17710, 17711, 17712
17713, 17714, 17715, 17716, 17717, 17718, 17719, 17720, 17721, 17722, 17723, 17724, 17725, 17726, 17727, 17728
17729, 17730, 17731, 17732, 17733, 17734, 17735, 17736, 17737, 17738, 17739, 17740, 17741, 17742, 17743, 17744
17745, 17746, 17747, 17748, 17749, 17750, 17751, 17752, 17753, 17754, 17755, 17756, 17757, 17758, 17759, 17760
17761, 17762, 17763, 17764, 17765, 17766, 17767, 17768, 17769, 17770, 17771, 17772, 17773, 17774, 17775, 17776
17777, 17778, 17779, 17780, 17781, 17782, 17783, 17784, 17785, 17786, 17787, 17788, 17789, 17790, 17791, 17792
17793, 17794, 17795, 17796, 17797, 17798, 17799, 17800, 17801, 17802, 17803, 17804, 17805, 17806, 17807, 17808
17809, 17810, 17811, 17812, 17813, 17814, 17815, 17816, 17817, 17818, 17819, 17820, 17821, 17822, 17823, 17824
17825, 17826, 17827, 17828, 17829, 17830, 17831, 17832, 17833, 17834, 17835, 17836, 17837, 17838, 17839, 17840
17841, 17842, 17843, 17844, 17845, 17846, 17847, 17848, 17849, 17850, 17851, 17852, 17853, 17854, 17855, 17856
17857, 17858, 17859, 17860, 17861, 17862, 17863, 17864, 17865, 17866, 17867, 17868, 17869, 17870, 17871, 17872
17873, 17874, 17875, 17876, 17877, 17878, 17879, 17880, 17881, 17882, 17883, 17884, 17885, 17886, 17887, 17888
17889, 17890, 17891, 17892, 17893, 17894, 17895, 17896, 17897, 17898, 17899, 17900, 17901, 17902, 17903, 17904
17905, 17906, 17907, 17908, 17909, 17910, 17911, 17912, 17913, 17914, 17915, 17916, 17917, 17918, 17919, 17920
17921, 17922, 17923, 17924, 17925, 17926, 17927, 17928, 17929, 17930, 17931, 17932, 17933, 17934, 17935, 17936
17937, 17938, 17939, 17940, 17941, 17942, 17943, 17944, 17945, 17946, 17947, 17948, 17949, 17950, 17951, 17952
17953, 17954, 17955, 17956, 17957, 17958, 17959, 17960, 17961, 17962, 17963, 17964, 17965, 17966, 17967, 17968
17969, 17970, 17971, 17972, 17973, 17974, 17975, 17976, 17977, 17978, 17979, 17980, 17981, 17982, 17983, 17984
17985, 17986, 17987, 17988, 17989, 17990, 17991, 17992, 17993, 17994, 17995, 17996, 17997, 17998, 17999, 18000
18001, 18002, 18003, 18004, 18005, 18006, 18007, 18008, 18009, 18010, 18011, 18012, 18013, 18014, 18015, 18016
18017, 18018, 18019, 18020, 18021, 18022, 18023, 18024, 18025, 18026, 18027, 18028, 18029, 18030, 18031, 18032
18033, 18034, 18035, 18036, 18037, 18038, 18039, 18040, 18041, 18042, 18043, 18044, 18045, 18046, 18047, 18048
18049, 18050, 18051, 18052, 18053, 18054, 18055, 18056, 18057, 18058, 18059, 18060, 18061, 18062, 18063, 18064
18065, 18066, 18067, 18068, 18069, 18070, 18071, 18072, 18073, 18074, 18075, 18076, 18077, 18078, 18079, 18080
18081, 18082, 18083, 18084, 18085, 18086, 18087, 18088, 18089, 18090, 18091, 18092, 18093, 18094, 18095, 18096
18097, 18098, 18099, 18100, 18101, 18102, 18103, 18104, 18105, 18106, 18107, 18108, 18109, 18110, 18111, 18112
18113, 18114, 18115, 18116, 18117, 18118, 18119, 18120, 18121, 18122, 18123, 18124, 18125, 18126, 18127, 18128
18129, 18130, 18131, 18132, 18133, 18134, 18135, 18136, 18137, 18138, 18139, 18140, 18141, 18142, 18143, 18144
18145, 18146, 18147, 18148, 18149, 18150, 18151, 18152, 18153, 18154, 18155, 18156, 18157, 18158, 18159, 18160
18161, 18162, 18163, 18164, 18165, 18166, 18167, 18168, 18169, 18170, 18171, 18172, 18173, 18174, 18175, 18176
18177, 18178, 18179, 18180, 18181, 18182, 18183, 18184, 18185, 18186, 18187, 18188, 18189, 18190, 18191, 18192
18193, 18194, 18195, 18196, 18197, 18198, 18199, 18200, 18201, 18202, 18203, 18204, 18205, 18206, 18207, 18208
18209, 18210, 18211, 18212, 18213, 18214, 18215, 18216, 18217, 18218, 18219, 18220, 18221, 18222, 18223, 18224
18225, 18226, 18227, 18228, 18229, 18230, 18231, 18232, 18233, 18234, 18235, 18236, 18237, 18238, 18239, 18240
18241, 18242, 18243, 18244, 18245, 18246, 18247, 18248, 18249, 18250, 18251, 18252, 18253, 18254, 18255, 18256
18257, 18258, 18259, 18260, 18261, 18262, 18263, 18264, 18265, 18266, 18267, 18268, 18269, 18270, 18271, 18272
18273, 18274, 18275, 18276, 18277, 18278, 18279, 18280, 18281, 18282, 18283, 18284, 18285, 18286, 18287, 18288
18289, 18290, 18291, 18292, 18293, 18294, 18295, 18296, 18297, 18298, 18299, 18300, 18301, 18302, 18303, 18304
18305, 18306, 18307, 18308, 18309, 18310, 18311, 18312, 18313, 18314, 18315, 18316, 18317, 18318, 18319, 18320
18321, 18322, 18323, 18324, 18325, 18326, 18327, 18328, 18329, 18330, 18331, 18332, 18333, 18334, 18335, 18336
*ELSET, ELSET=All_elem
PHASE_ELEM, MECH_ELEM, UMATELEM
*UEL PROPERTY, ELSET=PHASE_ELEM
 0.0075, 0.0027, 210.0, 0.3, 1.0e-7, 6112.0
*UEL PROPERTY, ELSET=MECH_ELEM
 0.0075, 0.0027, 210.0, 0.3, 1.0e-7, 6112.0
*SOLID SECTION, ELSET=UMATELEM, MATERIAL=UMAT_MAT
 1.0,
*MATERIAL, NAME=UMAT_MAT
*USER MATERIAL, CONSTANTS=3
 210.0, 0.3, 6112.
*DEPVAR
 20
*NSET, NSET=N_BOTTOM
1, 2, 3, 4, 5, 6, 7, 8, 9, 10, 11, 12, 13, 14, 15, 16
17, 18, 19, 20, 21, 22, 23, 24, 25, 600, 601, 602, 603, 604, 605, 606
607, 608, 609, 610, 611, 612, 613, 614, 615, 616, 617, 618, 619, 620, 621, 622
623, 624, 625, 626
*NSET, NSET=N_PIN
25
*NSET, NSET=N_TOP
49, 50, 51, 52, 53, 54, 55, 56, 57, 58, 59, 60, 61, 62, 63, 64
65, 66, 67, 68, 69, 70, 71, 72, 73, 680, 681, 682, 683, 684, 685, 686
687, 688, 689, 690, 691, 692, 693, 694, 695, 696, 697, 698, 699, 700, 701, 702
703, 704, 705, 706
*NSET, NSET=N_RP
999999
** KINEMATIC CONSTRAINTS: N_TOP coupling to N_RP (u_y)
** ==========================================================
*EQUATION
2
49, 2, 1.0, 999999, 2, -1.0
*EQUATION
2
50, 2, 1.0, 999999, 2, -1.0
*EQUATION
2
51, 2, 1.0, 999999, 2, -1.0
*EQUATION
2
52, 2, 1.0, 999999, 2, -1.0
*EQUATION
2
53, 2, 1.0, 999999, 2, -1.0
*EQUATION
2
54, 2, 1.0, 999999, 2, -1.0
*EQUATION
2
55, 2, 1.0, 999999, 2, -1.0
*EQUATION
2
56, 2, 1.0, 999999, 2, -1.0
*EQUATION
2
57, 2, 1.0, 999999, 2, -1.0
*EQUATION
2
58, 2, 1.0, 999999, 2, -1.0
*EQUATION
2
59, 2, 1.0, 999999, 2, -1.0
*EQUATION
2
60, 2, 1.0, 999999, 2, -1.0
*EQUATION
2
61, 2, 1.0, 999999, 2, -1.0
*EQUATION
2
62, 2, 1.0, 999999, 2, -1.0
*EQUATION
2
63, 2, 1.0, 999999, 2, -1.0
*EQUATION
2
64, 2, 1.0, 999999, 2, -1.0
*EQUATION
2
65, 2, 1.0, 999999, 2, -1.0
*EQUATION
2
66, 2, 1.0, 999999, 2, -1.0
*EQUATION
2
67, 2, 1.0, 999999, 2, -1.0
*EQUATION
2
68, 2, 1.0, 999999, 2, -1.0
*EQUATION
2
69, 2, 1.0, 999999, 2, -1.0
*EQUATION
2
70, 2, 1.0, 999999, 2, -1.0
*EQUATION
2
71, 2, 1.0, 999999, 2, -1.0
*EQUATION
2
72, 2, 1.0, 999999, 2, -1.0
*EQUATION
2
73, 2, 1.0, 999999, 2, -1.0
*EQUATION
2
680, 2, 1.0, 999999, 2, -1.0
*EQUATION
2
681, 2, 1.0, 999999, 2, -1.0
*EQUATION
2
682, 2, 1.0, 999999, 2, -1.0
*EQUATION
2
683, 2, 1.0, 999999, 2, -1.0
*EQUATION
2
684, 2, 1.0, 999999, 2, -1.0
*EQUATION
2
685, 2, 1.0, 999999, 2, -1.0
*EQUATION
2
686, 2, 1.0, 999999, 2, -1.0
*EQUATION
2
687, 2, 1.0, 999999, 2, -1.0
*EQUATION
2
688, 2, 1.0, 999999, 2, -1.0
*EQUATION
2
689, 2, 1.0, 999999, 2, -1.0
*EQUATION
2
690, 2, 1.0, 999999, 2, -1.0
*EQUATION
2
691, 2, 1.0, 999999, 2, -1.0
*EQUATION
2
692, 2, 1.0, 999999, 2, -1.0
*EQUATION
2
693, 2, 1.0, 999999, 2, -1.0
*EQUATION
2
694, 2, 1.0, 999999, 2, -1.0
*EQUATION
2
695, 2, 1.0, 999999, 2, -1.0
*EQUATION
2
696, 2, 1.0, 999999, 2, -1.0
*EQUATION
2
697, 2, 1.0, 999999, 2, -1.0
*EQUATION
2
698, 2, 1.0, 999999, 2, -1.0
*EQUATION
2
699, 2, 1.0, 999999, 2, -1.0
*EQUATION
2
700, 2, 1.0, 999999, 2, -1.0
*EQUATION
2
701, 2, 1.0, 999999, 2, -1.0
*EQUATION
2
702, 2, 1.0, 999999, 2, -1.0
*EQUATION
2
703, 2, 1.0, 999999, 2, -1.0
*EQUATION
2
704, 2, 1.0, 999999, 2, -1.0
*EQUATION
2
705, 2, 1.0, 999999, 2, -1.0
*EQUATION
2
706, 2, 1.0, 999999, 2, -1.0
** ==========================================================
** STEP 1: Monotonic Tensile Loading to u = 0.0050 mm
** ==========================================================
*STEP, NAME=Step-1, NLGEOM=NO, INC=2500
*STATIC
 5.0E-4, 1.0, 1.0E-9, 5.0E-4
*BOUNDARY
 N_BOTTOM, 2, 2, 0.0
 N_PIN, 1, 1, 0.0
 N_TOP, 1, 1, 0.0
 N_RP, 2, 2, 0.0050
*RESTART, WRITE, FREQUENCY=0
*OUTPUT, FIELD, FREQUENCY=1
*NODE OUTPUT, NSET=N_RP
 U, RF
*ELEMENT OUTPUT, ELSET=All_elem
 SDV
*NODE PRINT, FREQ=1, NSET=N_RP
 U2, RF2
*END STEP
** ==========================================================
** STEP 2: Monotonic Tensile Loading to u = 0.0100 mm
** ==========================================================
*STEP, NAME=Step-2, NLGEOM=NO, INC=6000
*STATIC
 2.0E-4, 1.0, 1.0E-9, 2.0E-4
*CONTROLS, PARAMETERS=TIME INCREMENTATION
 4, 10, 9, 20, 10, 4, 0, 10
*BOUNDARY
 N_RP, 2, 2, 0.0100
*RESTART, WRITE, FREQUENCY=0
*OUTPUT, FIELD, FREQUENCY=1
*NODE OUTPUT, NSET=N_RP
 U, RF
*ELEMENT OUTPUT, ELSET=All_elem
 SDV
*NODE PRINT, FREQ=1, NSET=N_RP
 U2, RF2
*END STEP
