*Heading
** Stage F11 deterministic 6x4 seeded-notch patch
*Preprint, echo=NO, model=NO, history=NO, contact=NO
*Part, name=PATCH
*Node
1, 0, 0
2, 0.005, 0
3, 0.01, 0
4, 0.015, 0
5, 0.02, 0
6, 0.025, 0
7, 0.03, 0
8, 0, 0.005
9, 0.005, 0.005
10, 0.01, 0.005
11, 0.015, 0.005
12, 0.02, 0.005
13, 0.025, 0.005
14, 0.03, 0.005
15, 0, 0.01
16, 0.005, 0.01
17, 0.01, 0.01
18, 0.015, 0.01
19, 0.02, 0.01
20, 0.025, 0.01
21, 0.03, 0.01
22, 0, 0.015
23, 0.005, 0.015
24, 0.01, 0.015
25, 0.015, 0.015
26, 0.02, 0.015
27, 0.025, 0.015
28, 0.03, 0.015
29, 0, 0.02
30, 0.005, 0.02
31, 0.01, 0.02
32, 0.015, 0.02
33, 0.02, 0.02
34, 0.025, 0.02
35, 0.03, 0.02
*User element, nodes=4, type=U1, properties=3, coordinates=2, VARIABLES=8
3
*Element, type=U1
1, 1, 2, 9, 8
2, 2, 3, 10, 9
3, 3, 4, 11, 10
4, 4, 5, 12, 11
5, 5, 6, 13, 12
6, 6, 7, 14, 13
7, 8, 9, 16, 15
8, 9, 10, 17, 16
9, 10, 11, 18, 17
10, 11, 12, 19, 18
11, 12, 13, 20, 19
12, 13, 14, 21, 20
13, 16, 17, 24, 23
14, 17, 18, 25, 24
15, 18, 19, 26, 25
16, 19, 20, 27, 26
17, 20, 21, 28, 27
18, 22, 23, 30, 29
19, 23, 24, 31, 30
20, 24, 25, 32, 31
21, 25, 26, 33, 32
22, 26, 27, 34, 33
23, 27, 28, 35, 34
*Elset, elset=PHASE
1, 2, 3, 4, 5, 6, 7, 8, 9, 10, 11, 12, 13, 14, 15, 16
17, 18, 19, 20, 21, 22, 23
*Uel property, elset=PHASE
0.015, 0.0027, 1.0
*User element, nodes=4, type=U2, properties=4, coordinates=2, VARIABLES=56
1, 2
*Element, type=U2
24, 1, 2, 9, 8
25, 2, 3, 10, 9
26, 3, 4, 11, 10
27, 4, 5, 12, 11
28, 5, 6, 13, 12
29, 6, 7, 14, 13
30, 8, 9, 16, 15
31, 9, 10, 17, 16
32, 10, 11, 18, 17
33, 11, 12, 19, 18
34, 12, 13, 20, 19
35, 13, 14, 21, 20
36, 16, 17, 24, 23
37, 17, 18, 25, 24
38, 18, 19, 26, 25
39, 19, 20, 27, 26
40, 20, 21, 28, 27
41, 22, 23, 30, 29
42, 23, 24, 31, 30
43, 24, 25, 32, 31
44, 25, 26, 33, 32
45, 26, 27, 34, 33
46, 27, 28, 35, 34
*Elset, elset=DISP
24, 25, 26, 27, 28, 29, 30, 31, 32, 33, 34, 35, 36, 37, 38, 39
40, 41, 42, 43, 44, 45, 46
*Uel property, elset=DISP
210.0, 0.3, 1.0, 1.0e-7
*Element, type=CPE4, elset=UMATELEM
47, 1, 2, 9, 8
48, 2, 3, 10, 9
49, 3, 4, 11, 10
50, 4, 5, 12, 11
51, 5, 6, 13, 12
52, 6, 7, 14, 13
53, 8, 9, 16, 15
54, 9, 10, 17, 16
55, 10, 11, 18, 17
56, 11, 12, 19, 18
57, 12, 13, 20, 19
58, 13, 14, 21, 20
59, 16, 17, 24, 23
60, 17, 18, 25, 24
61, 18, 19, 26, 25
62, 19, 20, 27, 26
63, 20, 21, 28, 27
64, 22, 23, 30, 29
65, 23, 24, 31, 30
66, 24, 25, 32, 31
67, 25, 26, 33, 32
68, 26, 27, 34, 33
69, 27, 28, 35, 34
*Solid Section, elset=UMATELEM, material=UMATELEM
1.0
*End Part
*Assembly, name=Assembly
*Instance, name=PATCH-1, part=PATCH
*End Instance
*Nset, nset=BOTTOM, instance=PATCH-1
1, 2, 3, 4, 5, 6, 7
*Nset, nset=TOP, instance=PATCH-1
29, 30, 31, 32, 33, 34, 35
*Nset, nset=TOPLEFT, instance=PATCH-1
29
*Nset, nset=ALLNODES, instance=PATCH-1, generate
1, 35, 1
*Elset, elset=UMATELEM, instance=PATCH-1
47, 48, 49, 50, 51, 52, 53, 54, 55, 56, 57, 58, 59, 60, 61, 62
63, 64, 65, 66, 67, 68, 69
*End Assembly
*Material, name=UMATELEM
*Depvar
28
*User Material, constants=2
1.0e-11, 0.3
*Amplitude, name=CYCLE, time=TOTAL TIME
1.0, 0.003, 1.5, 0.001, 2.0, 0.006
** Step 1: monotonic shear
*Step, name=MONOTONIC, nlgeom=NO, inc=200
*Static
0.005, 1.0, 1.0e-8, 0.02
*Boundary
BOTTOM, 1, 2, 0.0
TOPLEFT, 2, 2, 0.0
TOP, 1, 1, 0.003
*Output, field, frequency=1
*Node Output, nset=ALLNODES
U, RF
*Element Output, elset=UMATELEM
SDV
*End Step
** Step 2: partial unload then reload
*Step, name=UNLOAD_RELOAD, nlgeom=NO, inc=200
*Static
0.005, 1.0, 1.0e-8, 0.02
*Boundary, amplitude=CYCLE
TOP, 1, 1, 1.0
*Output, field, frequency=1
*Node Output, nset=ALLNODES
U, RF
*Element Output, elset=UMATELEM
SDV
*End Step
