*Heading
 F42TRI1: Single-Element 3-Node Triangular Layered UEL Verification Model
** =========================================================
** Physical Model: 1 Triangle Element (Nodes 1, 2, 3)
** Layer 1 (Phase): Element 1 (Type U3, 3 Nodes, 3 DOFs)
** Layer 2 (Displacement): Element 2 (Type U4, 3 Nodes, 6 DOFs)
** Layer 3 (Facsimile): Element 3 (Type CPE3, 3 Nodes)
** =========================================================
*User Element, nodes=3, type=U3, properties=3, coordinates=2, VARIABLES=6
 3
*User Element, nodes=3, type=U4, properties=4, coordinates=2, VARIABLES=42
 1, 2
*Node
 1, 0.0, 0.0
 2, 1.0, 0.0
 3, 0.0, 1.0
*Element, type=U3, elset=PHASE
 1, 1, 2, 3
*Element, type=U4, elset=DISP
 2, 1, 2, 3
*Element, type=CPE3, elset=UMATELEM
 3, 1, 2, 3
*Elset, elset=All_elem
 UMATELEM
*UEL Property, elset=PHASE
 0.015, 2.7, 1.0
*UEL Property, elset=DISP
 210000.0, 0.3, 1.0, 1.0e-7
*Solid Section, elset=UMATELEM, material=DUMMY
 1.0
*Material, name=DUMMY
*User Material, constants=2
 210000.0, 0.3
*Boundary
 1, 1, 2, 0.0
 2, 2, 2, 0.0
 3, 1, 1, 0.0
 3, 2, 2, 0.001
*Step, name=Step-1, nlgeom=NO, inc=1
*Static
 1.0, 1.0, 1.0e-5, 1.0
*Element Output, elset=All_elem, direction=YES
 MISESERI, MISESAVG, S, EVOL
*Node Output, nset=REF_pt
 RF, U
*Element Output, elset=UMATELEM
 SDV
*End Step
