*HEADING
M2STATE_INGEST_SMOKE1R9: Minimal Solver Ingestion Qualification Fixture
*NODE
1, 0.0, 0.0
2, 1.0, 0.0
3, 1.0, 1.0
4, 0.0, 1.0
5, 0.5, 0.0
6, 1.0, 0.5
7, 0.5, 1.0
8, 0.0, 0.5
*USER ELEMENT, TYPE=U1, NODES=4, COORDINATES=2, PROPERTIES=3, VARIABLES=18
3
*USER ELEMENT, TYPE=U2, NODES=4, COORDINATES=2, PROPERTIES=5, VARIABLES=18
1, 2
*USER ELEMENT, TYPE=U3, NODES=3, COORDINATES=2, PROPERTIES=3, VARIABLES=18
3
*USER ELEMENT, TYPE=U4, NODES=3, COORDINATES=2, PROPERTIES=5, VARIABLES=18
1, 2
*ELEMENT, TYPE=U1, ELSET=E_U1
1, 1, 2, 3, 4
2, 5, 6, 7, 8
*ELEMENT, TYPE=CPE4, ELSET=E_CPE4_1
3, 1, 2, 3, 4
4, 5, 6, 7, 8
*ELEMENT, TYPE=U3, ELSET=E_U3
5, 1, 2, 3
6, 5, 6, 7
*ELEMENT, TYPE=CPE3, ELSET=E_CPE3_1
7, 1, 2, 3
8, 5, 6, 7
*ELEMENT, TYPE=U2, ELSET=E_U2
9, 1, 2, 3, 4
10, 5, 6, 7, 8
*ELEMENT, TYPE=CPE4, ELSET=E_CPE4_2
11, 1, 2, 3, 4
12, 5, 6, 7, 8
*ELEMENT, TYPE=U4, ELSET=E_U4
13, 1, 2, 3
14, 5, 6, 7
*ELEMENT, TYPE=CPE3, ELSET=E_CPE3_2
15, 1, 2, 3
16, 5, 6, 7
*ELSET, ELSET=E_QUAD_UMAT
3, 4, 11, 12
*ELSET, ELSET=E_TRI_UMAT
7, 8, 15, 16
*ELSET, ELSET=E_ALL_UEL
1, 2, 5, 6, 9, 10, 13, 14
*UEL PROPERTY, ELSET=E_U1
210000.0, 0.3, 0.015
*UEL PROPERTY, ELSET=E_U2
210000.0, 0.3, 0.015, 2.7, 1.0e-7
*UEL PROPERTY, ELSET=E_U3
210000.0, 0.3, 0.015
*UEL PROPERTY, ELSET=E_U4
210000.0, 0.3, 0.015, 2.7, 1.0e-7
*SOLID SECTION, ELSET=E_QUAD_UMAT, MATERIAL=MAT_DUMMY
*SOLID SECTION, ELSET=E_TRI_UMAT, MATERIAL=MAT_DUMMY
*MATERIAL, NAME=MAT_DUMMY
*ELASTIC
210000.0, 0.3
*INITIAL CONDITIONS, TYPE=SOLUTION
1, 0.000110, 0.000120, 0.000130, 0.000140, 0.000000, 0.000000, 0.000000
0.000000, 0.000000, 0.000000, 0.000000, 0.000000, 0.000000, 0.000000, 0.000000
0.000000, 0.000000, 0.000000
2, 0.000210, 0.000220, 0.000230, 0.000240, 0.000000, 0.000000, 0.000000
0.000000, 0.000000, 0.000000, 0.000000, 0.000000, 0.000000, 0.000000, 0.000000
0.000000, 0.000000, 0.000000
5, 0.000310, 0.000320, 0.000330, 0.000000, 0.000000, 0.000000, 0.000000
0.000000, 0.000000, 0.000000, 0.000000, 0.000000, 0.000000, 0.000000, 0.000000
0.000000, 0.000000, 0.000000
6, 0.000410, 0.000420, 0.000430, 0.000000, 0.000000, 0.000000, 0.000000
0.000000, 0.000000, 0.000000, 0.000000, 0.000000, 0.000000, 0.000000, 0.000000
0.000000, 0.000000, 0.000000
9, 0.000110, 0.000120, 0.000130, 0.000140, 0.000000, 0.000000, 0.000000
0.000000, 0.000000, 0.000000, 0.000000, 0.000000, 0.000000, 0.000000, 0.000000
0.000000, 0.000000, 0.000000
10, 0.000210, 0.000220, 0.000230, 0.000240, 0.000000, 0.000000, 0.000000
0.000000, 0.000000, 0.000000, 0.000000, 0.000000, 0.000000, 0.000000, 0.000000
0.000000, 0.000000, 0.000000
13, 0.000310, 0.000320, 0.000330, 0.000000, 0.000000, 0.000000, 0.000000
0.000000, 0.000000, 0.000000, 0.000000, 0.000000, 0.000000, 0.000000, 0.000000
0.000000, 0.000000, 0.000000
14, 0.000410, 0.000420, 0.000430, 0.000000, 0.000000, 0.000000, 0.000000
0.000000, 0.000000, 0.000000, 0.000000, 0.000000, 0.000000, 0.000000, 0.000000
0.000000, 0.000000, 0.000000
*STEP, NAME=Step-1-PhaseInit, NLGEOM=NO
*STATIC
1.0, 1.0, 1.0e-5, 1.0
*BOUNDARY
1, 3, 3, 0.11
2, 3, 3, 0.23
3, 3, 3, 0.37
4, 3, 3, 0.61
5, 3, 3, 0.25
6, 3, 3, 0.45
7, 3, 3, 0.15
8, 3, 3, 0.05
*END STEP
*STEP, NAME=Step-2-IngestProbe, NLGEOM=NO
*STATIC
1.0, 1.0, 1.0e-5, 1.0
*BOUNDARY, OP=NEW
1, 1, 2, 0.00
2, 1, 2, 0.00
3, 1, 2, 0.00
4, 1, 2, 0.00
5, 1, 2, 0.00
6, 1, 2, 0.00
7, 1, 2, 0.00
8, 1, 2, 0.00
1, 3, 3, 0.11
2, 3, 3, 0.23
3, 3, 3, 0.37
4, 3, 3, 0.61
5, 3, 3, 0.25
6, 3, 3, 0.45
7, 3, 3, 0.15
8, 3, 3, 0.05
*NODE FILE
U
*EL FILE
SDV
*END STEP
